# HZ S RI R 50
300000 -0.5625985289694472 -0.009187564888240976 0.005625534611051079 -0.04931533354216998 0 0 0 0
332946 -0.5443652097797836 0.05697987654390715 0.05430643385878847 -0.010293927218820775 0 0 0 0
365892 -0.5056625471860634 0.08343426904389525 0.0990493963903491 -0.007225944307687758 0 0 0 0
398838 -0.4759091839228712 0.08654830403083295 0.12698040912315972 -0.017782002174080977 0 0 0 0
431784 -0.47454412825418324 0.06398922920436571 0.1667609322656982 0.07457940438263423 0 0 0 0
464730 -0.45800337503166977 0.06113699477586176 0.18398898661459195 0.06997440712011614 0 0 0 0
497676 -0.45217272212770976 0.05437628123890425 0.196001105144676 0.06524812545168822 0 0 0 0
530622 -0.4457230901565409 0.05029343450594884 0.2043027802382905 0.060270383238023986 0 0 0 0
563568 -0.4412859917223378 0.0471517797909586 0.21071004353235775 0.055831270653918234 0 0 0 0
596514 -0.4373944338377207 0.044324579870420565 0.21539210230631664 0.05200002798074019 0 0 0 0
629460 -0.43418994681871714 0.04177206343501236 0.2189462403280612 0.04846528220961893 0 0 0 0
662406 -0.4321752961782842 0.03984251164728098 0.2220066741114263 0.04550082271678235 0 0 0 0
695352 -0.4296915024122671 0.03800173266218382 0.22435886424945528 0.04280273196168521 0 0 0 0
728298 -0.42835935324212576 0.03622460122712307 0.22652166608836444 0.04056304025952357 0 0 0 0
761244 -0.4268036373266502 0.03484900307512888 0.2278626548719432 0.038369366592206584 0 0 0 0
794190 -0.4252302180061018 0.03340248067360961 0.22902569797674657 0.03636732928469454 0 0 0 0
827136 -0.4239944202976866 0.03153068582265703 0.23050383651106243 0.034871465232552676 0 0 0 0
860082 -0.42267090107662086 0.030644072788381473 0.23146431138150428 0.03315274915520573 0 0 0 0
893028 -0.4218790025715228 0.029602397052952256 0.23225197805282596 0.03167993366764866 0 0 0 0
925974 -0.4210725269912721 0.028565068246439944 0.23302496671806774 0.030304598191231234 0 0 0 0
958920 -0.4202944628761553 0.02753402104951031 0.23369439943828252 0.029073190161092492 0 0 0 0
991866 -0.41947593839652414 0.02660232115168248 0.2341317683002296 0.0278902955701789 0 0 0 0
1024812 -0.4186278626349257 0.0256911333630433 0.23460960033774877 0.026979004278391498 0 0 0 0
1057758 -0.41832799748248206 0.024796982015164653 0.23523826197835251 0.025927094000864074 0 0 0 0
1090704 -0.41846385338284964 0.02396813197600017 0.2358062644623041 0.025088973502188933 0 0 0 0
1123650 -0.4177221124619849 0.02330549508265334 0.23607397509425618 0.024268081578389892 0 0 0 0
1156596 -0.4171288571089014 0.02264783347311479 0.23651237325718605 0.023418885626639793 0 0 0 0
1189542 -0.4164063375019489 0.021607164594341116 0.2365804116627195 0.022736733780958664 0 0 0 0
1222488 -0.41632909276380375 0.02155080493266161 0.23711812305878366 0.021944740449644333 0 0 0 0
1255434 -0.4161751068947242 0.020704864034475953 0.23732544725269195 0.021258180233059885 0 0 0 0
1288380 -0.41590315430884023 0.019987110339590643 0.2374857148259003 0.020573731259825295 0 0 0 0
1321326 -0.41527298230602633 0.019575173650454403 0.2378341316721471 0.020029410107074767 0 0 0 0
1354272 -0.4152922251823345 0.019135816594226914 0.23800403140394924 0.019464344905532702 0 0 0 0
1387218 -0.41489353373791715 0.018921757444598675 0.23808138370439463 0.0184996207253631 0 0 0 0
1420164 -0.414685452334139 0.018362840611256415 0.23825767632376332 0.018090608716655677 0 0 0 0
1453110 -0.4145579159633011 0.01758577128299934 0.23861872377885188 0.017574869459078532 0 0 0 0
1486056 -0.41496432832295915 0.01701852979775917 0.23869986949294136 0.017201842069906804 0 0 0 0
1519002 -0.4148493327268995 0.017007664671117313 0.23894546586273305 0.01656131941962573 0 0 0 0
1551948 -0.414483341153935 0.016608475920382903 0.2389241298948761 0.016018501890097094 0 0 0 0
1584894 -0.4145547527859951 0.01611706794114641 0.2391322462317549 0.015750951875582547 0 0 0 0
1617840 -0.4145962162140829 0.016060342840202697 0.23933366321774352 0.015169912707458216 0 0 0 0
1650786 -0.4144865657963429 0.015738881172373594 0.23932713066854885 0.014720602475622489 0 0 0 0
1683732 -0.4146909966090323 0.015281880688716063 0.23955594277819195 0.014367937464057842 0 0 0 0
1716678 -0.4145370214115535 0.01508004985864149 0.23955539709352502 0.013854153259984148 0 0 0 0
1749624 -0.41442360646566817 0.014943788968225272 0.23968568822729194 0.013485942204536515 0 0 0 0
1782570 -0.41455329512645916 0.014560917057660633 0.23982655564811908 0.013167311771530604 0 0 0 0
1815516 -0.41435106050343384 0.014275646895088588 0.23979963396301918 0.012907433239292974 0 0 0 0
1848462 -0.41420245695946084 0.014247688743271258 0.23988583025910928 0.012279776714165669 0 0 0 0
1881408 -0.4142421336413907 0.014067851947247885 0.2399167002588886 0.011914329266556277 0 0 0 0
1914354 -0.4144115793235526 0.013719876743137635 0.24004333516212548 0.011589009946403486 0 0 0 0
1947300 -0.4145928905301362 0.013690392978205537 0.24017449508436925 0.011378599237669582 0 0 0 0
1980246 -0.4144129539811332 0.013441612045217282 0.24003037795633525 0.01087511520444035 0 0 0 0
2013192 -0.41456796851316585 0.013233064957474831 0.2402731262671191 0.010666927661409567 0 0 0 0
2046138 -0.41467798719401555 0.013224315046322729 0.24038690361896084 0.010283370135136765 0 0 0 0
2079084 -0.41444942329087336 0.013317954969838572 0.24041774339549649 0.009835507713736882 0 0 0 0
2112030 -0.4143337912361356 0.013078028639484067 0.240514191759558 0.009644755615458692 0 0 0 0
2144976 -0.41457067562727146 0.013241744548731572 0.2405566672109737 0.009245676302403425 0 0 0 0
2177922 -0.4144533074918993 0.01293501329792893 0.2405542804722723 0.009035255513905134 0 0 0 0
2210868 -0.41454137616476955 0.012971662841747937 0.240643198213699 0.008751881430922325 0 0 0 0
2243814 -0.4145864548485205 0.012680449121495378 0.2405355413917995 0.008411103186646377 0 0 0 0
2276760 -0.4144969914041721 0.01252619277241525 0.24069009571228867 0.008187211066906883 0 0 0 0
2309706 -0.41470566121373903 0.012792243314291888 0.24083182087893398 0.00793325166554595 0 0 0 0
2342652 -0.41486468834934453 0.01246133185311354 0.2407449986151942 0.0077101993253745615 0 0 0 0
2375598 -0.414469705691587 0.012390370981390899 0.24078229482651312 0.007222068416753493 0 0 0 0
2408544 -0.41461314819658834 0.012616649140290011 0.2409595856101084 0.006906718379624482 0 0 0 0
2441490 -0.41476969383555334 0.012446132308125244 0.24086715347669124 0.006756254276799125 0 0 0 0
2474436 -0.4144770004043802 0.01269373397537976 0.2407609140666146 0.006489837969430158 0 0 0 0
2507382 -0.4147137247991366 0.012603763023585892 0.24085340397073235 0.006223780224778402 0 0 0 0
2540328 -0.41479640227763814 0.012620804016763371 0.24110041721283743 0.005996578333417023 0 0 0 0
2573274 -0.41503101580285306 0.01242353063950301 0.24104768118001774 0.005847439759516734 0 0 0 0
2606220 -0.41500099221555614 0.012541901574376988 0.24107043571643394 0.005450723309868932 0 0 0 0
2639166 -0.4149918343438874 0.012602787791992805 0.2410036697963099 0.00520472227777269 0 0 0 0
2672112 -0.414776313219385 0.01234769710717748 0.24102729869624234 0.004961445370821083 0 0 0 0
2705058 -0.41469498073545424 0.012776490030796214 0.24099980737745502 0.004620287804188136 0 0 0 0
2738004 -0.41479160435656587 0.01268868634829967 0.24116626088341175 0.004539385822553039 0 0 0 0
2770950 -0.4147245792121121 0.012683220634394992 0.24118837554415318 0.004290808743549559 0 0 0 0
2803896 -0.4147135776224237 0.012853550974768669 0.2409530764454988 0.0039835113823301176 0 0 0 0
2836842 -0.4147498988900576 0.012436703667091866 0.24105449424373163 0.0038766846151108755 0 0 0 0
2869788 -0.4148031633430575 0.012700695675405455 0.24118962267566837 0.003512087943623143 0 0 0 0
2902734 -0.4150158104584207 0.013016336951168004 0.2412516864613515 0.00329197561707179 0 0 0 0
2935680 -0.4150147419690043 0.012798515012720354 0.24117679458062014 0.0031102047206278847 0 0 0 0
2968626 -0.4152475583221529 0.013042806114981594 0.24128205960748872 0.0029551802036233196 0 0 0 0
3001572 -0.4148009049836101 0.012820685412855243 0.2411208542165905 0.002609919693829835 0 0 0 0
3034518 -0.4147936304881599 0.013095379066225725 0.24132290583474514 0.002352730213872987 0 0 0 0
3067464 -0.4151790269928139 0.013339233323296692 0.2412767562993524 0.0021389808932651836 0 0 0 0
3100410 -0.4151637127598739 0.01330537296596499 0.2412402360032489 0.0020049615652187797 0 0 0 0
3133356 -0.4147233949130277 0.013090674545267354 0.2412555373317109 0.0017554023519728373 0 0 0 0
3166302 -0.4148623302495165 0.013100273534291752 0.2412831352222241 0.0015667369566229271 0 0 0 0
3199248 -0.4150974032254424 0.013548080303468093 0.24132884739954252 0.0013851953134501225 0 0 0 0
3232194 -0.4149711246280184 0.013775905723220717 0.24123803341351457 0.0011383202488905529 0 0 0 0
3265140 -0.41493992659685774 0.013505329426304 0.24130439751077387 0.0009885481772146645 0 0 0 0
3298086 -0.41508306589106536 0.013499814019194766 0.24132551281436454 0.0008067563185314092 0 0 0 0
3331032 -0.41458913901816874 0.01342808246627763 0.24120154777931196 0.0006198932996102641 0 0 0 0
3363978 -0.41437244091163056 0.013518797901522842 0.2410779730473898 0.00044705536681436764 0 0 0 0
3396924 -0.41460352212358637 0.01387111709775218 0.24121692110708084 0.00020802794761908547 0 0 0 0
3429870 -0.41490723372599586 0.013864269614911686 0.24138837276260666 -0.00016243261454164186 0 0 0 0
3462816 -0.41447806801862985 0.013845361751687895 0.24109389279262036 -0.00021550536113968907 0 0 0 0
3495762 -0.41488219939276805 0.013972434444002079 0.24144718497855192 -0.0003735360641144057 0 0 0 0
3528708 -0.414627743046185 0.013849572424858068 0.24122517025045148 -0.0007073211826485648 0 0 0 0
3561654 -0.41492073161221427 0.014322558127120395 0.24132473517749292 -0.0007948903068958325 0 0 0 0
3594600 -0.4149528720370463 0.014646527574505947 0.24128323442472951 -0.001056362169157434 0 0 0 0
3627546 -0.41473568699919433 0.01440949783328742 0.24144304950972634 -0.0012723410009530716 0 0 0 0
3660492 -0.41496658859001573 0.014606008199113051 0.24119772123439298 -0.0012907032025826974 0 0 0 0
3693438 -0.41481680474366306 0.0143617104388523 0.24142236548735663 -0.0015588454539513694 0 0 0 0
3726384 -0.4144714683248571 0.014571389853343296 0.24131464031798971 -0.0016641136698161865 0 0 0 0
3759330 -0.414881107951652 0.014725868384467794 0.24145520552846714 -0.0020213018023286155 0 0 0 0
3792276 -0.4147555943150024 0.014625937898254966 0.24128047103731806 -0.0021512872205455037 0 0 0 0
3825222 -0.41444095944699877 0.014798104721252831 0.24137132344802836 -0.002293191135415747 0 0 0 0
3858168 -0.4145672025153741 0.014874880863816133 0.2412875052620579 -0.002454262648987616 0 0 0 0
3891114 -0.41465016587031517 0.014916737144897028 0.24138103008083261 -0.002715946609113974 0 0 0 0
3924060 -0.4144247627674814 0.014997296201477817 0.24129787372538705 -0.00286978923971872 0 0 0 0
3957006 -0.41447921067267873 0.014865828856711531 0.24127313107178422 -0.0030641101842613463 0 0 0 0
3989952 -0.41429507318657505 0.01494844310407975 0.24124771898990005 -0.003202598232113472 0 0 0 0
4022898 -0.41438913829161994 0.015369937746833567 0.2412599753047617 -0.003464086050473719 0 0 0 0
4055844 -0.4142448295511111 0.015462766664220539 0.24128843113440823 -0.0035578620293719486 0 0 0 0
4088790 -0.4144649776734835 0.015409448351819073 0.24142672594379247 -0.003810143225725358 0 0 0 0
4121736 -0.4142504581456831 0.015491763222104734 0.24124835381380325 -0.0038943337615713193 0 0 0 0
4154682 -0.414279201230842 0.015474096470993362 0.24137566141472347 -0.004101991395446215 0 0 0 0
4187628 -0.4143023541633669 0.015499977778588862 0.24120364459407614 -0.004163521219132064 0 0 0 0
4220574 -0.4141436953637631 0.015668392594031428 0.24125146309922177 -0.004343327083247817 0 0 0 0
4253520 -0.41393226624660084 0.015940201631719195 0.24114529606807877 -0.004568344785495624 0 0 0 0
4286466 -0.4144704548592977 0.015866193748498743 0.24140907579013948 -0.0048681821097289685 0 0 0 0
4319412 -0.41422643109405927 0.016010954567777957 0.2412589379285762 -0.004926248090075599 0 0 0 0
4352358 -0.4140558147707581 0.01624872401968292 0.24119444715527738 -0.005127465881055972 0 0 0 0
4385304 -0.41408544367736216 0.016106506592846483 0.24135739818898913 -0.005235563536211302 0 0 0 0
4418250 -0.4142898140698855 0.01636104401971764 0.24124266929057675 -0.005573640900643135 0 0 0 0
4451196 -0.4138202744748374 0.016204332018542107 0.24124762253190357 -0.005552597581764809 0 0 0 0
4484142 -0.4139689305937169 0.016670621503305626 0.24143413522113952 -0.005738897689099969 0 0 0 0
4517088 -0.414042470236055 0.0164564979036073 0.24137079140686524 -0.005975182455451205 0 0 0 0
4550034 -0.41379484447180603 0.01640601119581633 0.24110101329551248 -0.006044636826539084 0 0 0 0
4582980 -0.4138135951844972 0.016624439369416127 0.2413516741269638 -0.006242813674746528 0 0 0 0
4615926 -0.4139266566753796 0.01667139166529248 0.24136327268150345 -0.00648655728104114 0 0 0 0
4648872 -0.4138063223532913 0.0168133854591032 0.24119073245148148 -0.006588636675983754 0 0 0 0
4681818 -0.4138181358961029 0.017000303343672515 0.24123354234798677 -0.006799781016917554 0 0 0 0
4714764 -0.4135899123287208 0.01682913320848113 0.24115904411913971 -0.0068220458291402735 0 0 0 0
4747710 -0.41377439769782853 0.016953894094842964 0.2413495105037047 -0.006965604751551908 0 0 0 0
4780656 -0.41356334390404614 0.017031200698554978 0.2411519354371431 -0.007287038411244613 0 0 0 0
4813602 -0.41382327267144536 0.017203338754730728 0.24130044400656978 -0.0075336162897402074 0 0 0 0
4846548 -0.4133694684437043 0.017220708071640525 0.24113516030050547 -0.0076075278701367415 0 0 0 0
4879494 -0.4137300751724318 0.017348466513311154 0.24129113096987498 -0.007643916078581337 0 0 0 0
4912440 -0.4134293042228927 0.01746532320756349 0.24113780314669972 -0.007807126308848142 0 0 0 0
4945386 -0.41325905975293004 0.017166475264783335 0.24125892261862075 -0.008049579512863819 0 0 0 0
4978332 -0.41326179233605037 0.017710473228724363 0.2411267755704794 -0.008234075514124651 0 0 0 0
5011278 -0.41355651349008155 0.01743028641595817 0.241125138927347 -0.00827986014639821 0 0 0 0
5044224 -0.413363193955532 0.017667703007949887 0.24105574455361217 -0.008565850395849256 0 0 0 0
5077170 -0.41315784368071407 0.017670923604565895 0.24108688434216816 -0.00854903917024054 0 0 0 0
5110116 -0.4133819868391435 0.017765202836913838 0.2412022103258756 -0.008682583956924261 0 0 0 0
5143062 -0.41279793966474343 0.017798837354201867 0.24087889220306438 -0.008851727893400933 0 0 0 0
5176008 -0.4129094991118813 0.01788929378854844 0.24101292968479712 -0.00899538246025958 0 0 0 0
5208954 -0.41317647841059735 0.017963790916273106 0.24111684572807277 -0.00916043153269784 0 0 0 0
5241900 -0.41295569314429903 0.01786564067857331 0.2408798215906217 -0.0093309421188802 0 0 0 0
5274846 -0.4129184168622697 0.018147029496714682 0.24103413394478926 -0.009626884643534046 0 0 0 0
5307792 -0.41285208077485525 0.018050525343048036 0.2409571194809201 -0.009648860921431482 0 0 0 0
5340738 -0.41317737644546204 0.018308188367238156 0.24105886843292096 -0.009922745256954817 0 0 0 0
5373684 -0.41294198331356696 0.01827537386621602 0.24100464316463394 -0.009984780453301631 0 0 0 0
5406630 -0.41305799824197503 0.018458915442859217 0.24117665576403913 -0.010189592771650036 0 0 0 0
5439576 -0.41291020312882515 0.018506736784023703 0.24110515188825227 -0.010381546834435859 0 0 0 0
5472522 -0.41270958954483333 0.018300485874183956 0.24096632162408882 -0.010446106533430057 0 0 0 0
5505468 -0.41273319522600005 0.018532004309321466 0.24085520535588456 -0.010681014291841446 0 0 0 0
5538414 -0.4128751922090141 0.018446095047583978 0.24100081925499267 -0.01074335268967111 0 0 0 0
5571360 -0.4127649211627664 0.01871919917708983 0.2409701477075854 -0.01076214928460006 0 0 0 0
5604306 -0.4125992266832163 0.018761412076419872 0.24086426435731093 -0.01100593181652538 0 0 0 0
5637252 -0.41265664917103684 0.01858873296035164 0.24084955035753514 -0.011131738600782995 0 0 0 0
5670198 -0.4125766100592963 0.01878410366473006 0.24100678258322708 -0.01135230720259475 0 0 0 0
5703144 -0.4125513542998353 0.01889790813036732 0.24092682288792278 -0.011494211630675827 0 0 0 0
5736090 -0.4125929499612826 0.018892751197261932 0.2408876519551066 -0.011597189567514262 0 0 0 0
5769036 -0.4124460976398765 0.018878204510676705 0.2409561806611715 -0.011957220032745387 0 0 0 0
5801982 -0.41244434946963743 0.018779785407847575 0.2409338634395087 -0.011849142079182832 0 0 0 0
5834928 -0.41264310433233353 0.018926597405760866 0.2410460345093894 -0.012185742740703208 0 0 0 0
5867874 -0.41265409945837606 0.019166942922888907 0.24090654410660625 -0.012336801717275182 0 0 0 0
5900820 -0.4124678538330244 0.01897638306277679 0.24084787405010652 -0.012299777156963218 0 0 0 0
5933766 -0.41236528829587676 0.018949093326548087 0.24082803680157092 -0.012551184821385208 0 0 0 0
5966712 -0.4123363749992197 0.01899193545718477 0.24074303036199435 -0.01264372205038708 0 0 0 0
5999658 -0.4123942054115643 0.019115976095161868 0.24083268893047075 -0.012753482622160675 0 0 0 0
6032604 -0.412479864279464 0.019177220732474205 0.2408760276827216 -0.012893863732454656 0 0 0 0
6065550 -0.4122702893775671 0.01889784028493257 0.24072146864732805 -0.012997495693501093 0 0 0 0
6098496 -0.41250662469208493 0.019169127588763567 0.24085877462938424 -0.0132220388675455 0 0 0 0
6131442 -0.41216482313362574 0.019136486836109776 0.24071026509255022 -0.013378224073774727 0 0 0 0
6164388 -0.41226289207486116 0.019191474680167523 0.24065758174054264 -0.013490827783111607 0 0 0 0
6197334 -0.4122229359648057 0.01923109089206164 0.24058691254289405 -0.013602489990118831 0 0 0 0
6230280 -0.4118957022604093 0.01922083675787947 0.24057278816173516 -0.01367700204514951 0 0 0 0
6263226 -0.41225828572604906 0.019038144799117626 0.24071927743225527 -0.013891834728926323 0 0 0 0
6296172 -0.41234654430115697 0.019215713439381905 0.2407526639548021 -0.014123873126742105 0 0 0 0
6329118 -0.41237802617551494 0.01913235629346901 0.24072442049548082 -0.014223542714478453 0 0 0 0
6362064 -0.41228886059000597 0.01907557421860939 0.24067783051616548 -0.014260827835020655 0 0 0 0
6395010 -0.4122700417985868 0.01912234971533152 0.2405935559834105 -0.014420785519843564 0 0 0 0
6427956 -0.4123425438134939 0.019003326617869045 0.2407111676839218 -0.014542347003406819 0 0 0 0
6460902 -0.41266617105351727 0.018819125938893705 0.2405532165808507 -0.0147443019244904 0 0 0 0
6493848 -0.41265073789662815 0.018843957526152942 0.24069763063366992 -0.014905982711805333 0 0 0 0
6526794 -0.4126817613779449 0.01879414969515616 0.24062940490979992 -0.01496535696773172 0 0 0 0
6559740 -0.41294673783389857 0.018631626126181505 0.24059777184277176 -0.015048146580945186 0 0 0 0
6592686 -0.4128351777206232 0.018571484733447465 0.240561974056254 -0.01527813228353569 0 0 0 0
6625632 -0.41270550678440093 0.01843176537712217 0.24051671232432653 -0.015297211158484135 0 0 0 0
6658578 -0.41317538166464846 0.018255543681417467 0.24056496772151414 -0.015510516114537415 0 0 0 0
6691524 -0.4135645115847004 0.01787255820622072 0.24055516637293198 -0.015639021682168044 0 0 0 0
6724470 -0.41398267402970335 0.018019974537951497 0.24054406154566754 -0.015855247800107206 0 0 0 0
6757416 -0.4144070532802423 0.01762947451475393 0.24056090330048976 -0.015968322436576123 0 0 0 0
6790362 -0.41445230927966786 0.017327855564009793 0.24043170999133834 -0.015957639917860353 0 0 0 0
6823308 -0.41518185193870855 0.017312510798936545 0.24055421882074596 -0.016229943249043473 0 0 0 0
6856254 -0.41633542758200986 0.01710810227227891 0.24048355162142532 -0.016334686920366846 0 0 0 0
6889200 -0.41718033054574244 0.017014065936299824 0.240578758359665 -0.01643330780536987 0 0 0 0
6922146 -0.41742694397019064 0.014673775387238205 0.2414901618656848 -0.01999522957219349 0 0 0 0
6955092 -0.4185089478713544 0.015091594168757737 0.24144674751554612 -0.0200816756068981 0 0 0 0
6988038 -0.4201700809430975 0.015947807637463847 0.24142205215710075 -0.020019637487737572 0 0 0 0
7020984 -0.42150459107405003 0.017688289249518128 0.24137473740544022 -0.020490498765478805 0 0 0 0
7053930 -0.422466303032354 0.019802399731335508 0.2413756526630131 -0.02058876555598256 0 0 0 0
7086876 -0.4225521423702606 0.02261141736876235 0.24149142431134368 -0.020600287041645977 0 0 0 0
7119822 -0.4217874197322004 0.02501210171093988 0.24136451117248386 -0.02093612279944729 0 0 0 0
7152768 -0.4203725471476606 0.026884272012118644 0.24141248703148982 -0.0208643952984588 0 0 0 0
7185714 -0.41867608493689024 0.028324955344197315 0.241341851622409 -0.021350420765315688 0 0 0 0
7218660 -0.41666181391107693 0.028582348782679276 0.24127871636519202 -0.021345525735458643 0 0 0 0
7251606 -0.4153257456393274 0.028803790254415547 0.24102535478551518 -0.021565334046968244 0 0 0 0
7284552 -0.4141438959366253 0.0285777007976004 0.2411676525910619 -0.021683978408398 0 0 0 0
7317498 -0.4133089949642536 0.02852898691582586 0.24112955631992436 -0.021755669738408354 0 0 0 0
7350444 -0.41241782568145086 0.028418915036904274 0.2411148837236844 -0.02208161319888954 0 0 0 0
7383390 -0.4119241025263361 0.028111987489616748 0.24101986709748524 -0.02227272860139883 0 0 0 0
7416336 -0.411062677742208 0.02752920915405952 0.24104128949262776 -0.022175288699454433 0 0 0 0
7449282 -0.4107724789652644 0.027571308430451757 0.2410642652261324 -0.022283425182196708 0 0 0 0
7482228 -0.41031906993700124 0.027286081894065464 0.24078832177153298 -0.022472306083172695 0 0 0 0
7515174 -0.4104046061578244 0.026833745833384607 0.24098908254041113 -0.022559041221859484 0 0 0 0
7548120 -0.41015858751965173 0.026950625621139465 0.24100679429620434 -0.022938279093997278 0 0 0 0
7581066 -0.4097589933502786 0.02663793967720384 0.2409422653613315 -0.022819969896241257 0 0 0 0
7614012 -0.40954633091985865 0.026540548713591464 0.24096044451442597 -0.023002350350886068 0 0 0 0
7646958 -0.4093945209372468 0.02645983024846171 0.24074650839687495 -0.023084627662383894 0 0 0 0
7679904 -0.40934824340521114 0.02620062971214349 0.24084785729072578 -0.02326227776632219 0 0 0 0
7712850 -0.40925832293753756 0.026199982596840494 0.24065760922747254 -0.023386960340055215 0 0 0 0
7745796 -0.4091814818090641 0.026206438409432268 0.24085266569992939 -0.02347069545694544 0 0 0 0
7778742 -0.40907374201417157 0.026011345019809888 0.24089373777743844 -0.023712113656737806 0 0 0 0
7811688 -0.40906590730255415 0.025993323677753706 0.24087410979831397 -0.023974665597071402 0 0 0 0
7844634 -0.4088285474046554 0.025854158494831896 0.24078578551604976 -0.024029469676494965 0 0 0 0
7877580 -0.40883875802764236 0.02588329631823367 0.2408018653895116 -0.0240713817792358 0 0 0 0
7910526 -0.4086935172134144 0.025868445893391514 0.2407122503843277 -0.024135847653485337 0 0 0 0
7943472 -0.40871194169304575 0.02579637787962255 0.24057548826339922 -0.024383680437441987 0 0 0 0
7976418 -0.40871731430914077 0.025921176008917565 0.24068584051428055 -0.024495463409532594 0 0 0 0
8009364 -0.4084163518870574 0.025953086313843576 0.24063278852147438 -0.024606183954107533 0 0 0 0
8042310 -0.4085258405303093 0.02573001427659054 0.24060797484295482 -0.02466564817828688 0 0 0 0
8075256 -0.40848006461277575 0.025922623268932247 0.24069102736158698 -0.02486782759869338 0 0 0 0
8108202 -0.40824482397100365 0.025806099045581808 0.24056196653226433 -0.0249395272831838 0 0 0 0
8141148 -0.4082874302564888 0.025822784788076196 0.2405482182301276 -0.02503747230913273 0 0 0 0
8174094 -0.4081956397249311 0.02602990261573481 0.24061892905699517 -0.02525033698793661 0 0 0 0
8207040 -0.4081618958429593 0.025958859849800064 0.24051924949983255 -0.02529164764327068 0 0 0 0
8239986 -0.40817087645090894 0.025793209726652392 0.24054972049499493 -0.025536664171986048 0 0 0 0
8272932 -0.40814393905656376 0.02600338259168975 0.24042969495024527 -0.025646320871644666 0 0 0 0
8305878 -0.4081308700354694 0.025907577453541396 0.24053273306322495 -0.025682016853564412 0 0 0 0
8338824 -0.408038638128849 0.025851571800781684 0.2405439747339028 -0.025873815412952847 0 0 0 0
8371770 -0.4078932146602021 0.025957421905425875 0.24053174745645428 -0.026049719194900966 0 0 0 0
8404716 -0.4079655663979618 0.02599165317022944 0.2404257667700254 -0.026015912115375923 0 0 0 0
8437662 -0.4078981941281487 0.026021066406136325 0.24044412790612235 -0.026269336533100447 0 0 0 0
8470608 -0.4078077101928455 0.02603397383910191 0.24041757018232693 -0.026462891338604227 0 0 0 0
8503554 -0.40792224381230074 0.026128214748959665 0.24038757915914502 -0.026508762905555563 0 0 0 0
8536500 -0.40783313712596836 0.025987480736274937 0.2404554460306514 -0.02654905245671102 0 0 0 0
8569446 -0.4076699051486436 0.02610315575998307 0.24020938547942652 -0.026791935899682786 0 0 0 0
8602392 -0.4076429847718961 0.02607318232191907 0.24017387350530078 -0.026856426809348508 0 0 0 0
8635338 -0.40776471833645517 0.02644606874675058 0.24029658922939034 -0.02721972347386394 0 0 0 0
8668284 -0.407603829718176 0.02627839069585111 0.24027891016335498 -0.027196586192529508 0 0 0 0
8701230 -0.40748093960352744 0.026270555598584565 0.24030949966379153 -0.027167482099270078 0 0 0 0
8734176 -0.40755349439604405 0.02628168280795618 0.24029787787295007 -0.027407980778212108 0 0 0 0
8767122 -0.40748899007259376 0.02641309185148023 0.240233795238776 -0.027553009623142635 0 0 0 0
8800068 -0.40733708352201087 0.026569203011585555 0.24016362458528354 -0.027697999798391975 0 0 0 0
8833014 -0.40723144370360015 0.026320613990533533 0.2400664858953535 -0.02776583762114875 0 0 0 0
8865960 -0.40738542454507926 0.026818671435939006 0.2401752093823138 -0.028029237955703994 0 0 0 0
8898906 -0.40756884131156484 0.02669688989636987 0.24023385235173889 -0.028084043358501478 0 0 0 0
8931852 -0.40713766193396567 0.02662725879087315 0.23987811176325383 -0.028200546912411223 0 0 0 0
8964798 -0.40703341087605377 0.026768871434549125 0.24001720563904178 -0.028335461248562135 0 0 0 0
8997744 -0.4073143511649284 0.026791459308062766 0.24005609676131734 -0.028440240488042105 0 0 0 0
9030690 -0.40713131729540214 0.026596580847672 0.23996216358583114 -0.028477152428992753 0 0 0 0
9063636 -0.40717832956647876 0.026710734847855782 0.2399754010303869 -0.02865852413613998 0 0 0 0
9096582 -0.40721940057488654 0.02689401742222895 0.24003208602413753 -0.02868045734892323 0 0 0 0
9129528 -0.40731696201697165 0.026966164863267715 0.24010015244581567 -0.028981535742192137 0 0 0 0
9162474 -0.40710970825481246 0.02690740596206852 0.23995214297388553 -0.02914189493166452 0 0 0 0
9195420 -0.40695419811217526 0.02679441303203673 0.23992368711590073 -0.029226112773367965 0 0 0 0
9228366 -0.4069770023851036 0.027260025895289412 0.23990125207938107 -0.02943635155549638 0 0 0 0
9261312 -0.4070993568351068 0.02734878699135926 0.23995233156074908 -0.029546489704925443 0 0 0 0
9294258 -0.4068239420354497 0.02728093769291034 0.23986119725592403 -0.029601963334020525 0 0 0 0
9327204 -0.40679906663437043 0.027130460531619913 0.23976386229209615 -0.029758118838682217 0 0 0 0
9360150 -0.4069513537536252 0.027327881617095585 0.23984564016344154 -0.029910801188858603 0 0 0 0
9393096 -0.4066506611418827 0.027410973392795964 0.23980406949403146 -0.030011471821820134 0 0 0 0
9426042 -0.4069956814406462 0.027535509656241953 0.23985315307844896 -0.030129677159672345 0 0 0 0
9458988 -0.4069087384744325 0.02729285344336615 0.23973288342217156 -0.0301756107049054 0 0 0 0
9491934 -0.40668045768868777 0.0275980355457429 0.23976798483490291 -0.030439275403841146 0 0 0 0
9524880 -0.4068478445612458 0.027632309906331403 0.2398529468118095 -0.030356132636159733 0 0 0 0
9557826 -0.40681159396111877 0.027609390076390142 0.23979164269551853 -0.03054860722787204 0 0 0 0
9590772 -0.40655869627773134 0.027750555819804738 0.2396436994791929 -0.030841928758074993 0 0 0 0
9623718 -0.40676690939162274 0.027649001170632376 0.2396627663811411 -0.030894529336884826 0 0 0 0
9656664 -0.4066653779095985 0.028133870476342582 0.2397301857776811 -0.03103783560002951 0 0 0 0
9689610 -0.4066411453268054 0.02791262437484072 0.2396614662157856 -0.031108592656237305 0 0 0 0
9722556 -0.4066195369943508 0.027844254696572417 0.23964761305376545 -0.031146199185730927 0 0 0 0
9755502 -0.4067827378565872 0.028233020108339005 0.2396283310011659 -0.031441330534635555 0 0 0 0
9788448 -0.40646231464590704 0.027898654571185212 0.23939610343825546 -0.03152372270263446 0 0 0 0
9821394 -0.4064328196177655 0.0283878738888741 0.23953768943380507 -0.031678399398899625 0 0 0 0
9854340 -0.4061708776411521 0.028262243606882106 0.2394798699584724 -0.03176205297481142 0 0 0 0
9887286 -0.4064681327196603 0.02828526714061597 0.2395431828764405 -0.0319240911721531 0 0 0 0
9920232 -0.406176276339058 0.028362996616705306 0.23952178047179065 -0.03203370036263937 0 0 0 0
9953178 -0.4063333313015605 0.02837344135478438 0.23949799837588306 -0.03212812361237609 0 0 0 0
9986124 -0.40628888341572295 0.028456595383790053 0.23937990980731985 -0.03227553210538835 0 0 0 0
10019070 -0.40622591365321303 0.028477940991038366 0.23938562488618692 -0.03248566791339514 0 0 0 0
10052016 -0.4062290886542372 0.02875756749062317 0.23931100519505388 -0.0325603221216858 0 0 0 0
10084962 -0.40646935521479116 0.028641731818798373 0.23941069024455416 -0.03265008506251451 0 0 0 0
10117908 -0.40619247053516067 0.028601505671320072 0.2392750495536481 -0.03280637103441204 0 0 0 0
10150854 -0.40620490750071436 0.02886246281171983 0.23944836221506416 -0.03303387978041386 0 0 0 0
10183800 -0.40627252482543874 0.028910529983049722 0.23926020139098292 -0.03305010371621132 0 0 0 0
10216746 -0.40613957561873265 0.028818117183365997 0.23928391432030596 -0.0331684647615789 0 0 0 0
10249692 -0.40607251973896025 0.02883392820378932 0.23931914630817297 -0.03327980000007211 0 0 0 0
10282638 -0.4063578641635119 0.029020184195493647 0.2393695520439845 -0.03344513867563583 0 0 0 0
10315584 -0.406123478282825 0.029005732666548392 0.23920508650052694 -0.03355497754088635 0 0 0 0
10348530 -0.4059000884274547 0.02919271570962884 0.23926038328216148 -0.03368577648081578 0 0 0 0
10381476 -0.40591391430332396 0.029301287540156082 0.23919223193670627 -0.03385164097810306 0 0 0 0
10414422 -0.4061043357902341 0.029330588843893828 0.2392179478942158 -0.03401896000794704 0 0 0 0
10447368 -0.4061002764763419 0.029317442654379248 0.23919206826819456 -0.034026266235245455 0 0 0 0
10480314 -0.40601626931035956 0.029487748875353915 0.2390971706611357 -0.034120617770522686 0 0 0 0
10513260 -0.40591638618051973 0.0294535499927887 0.23901529531515425 -0.03429278338474612 0 0 0 0
10546206 -0.40604925362772853 0.029540446155552253 0.23897952024515984 -0.03443457753697452 0 0 0 0
10579152 -0.4059089971431385 0.029515427731836037 0.23899185932110553 -0.03452966635544297 0 0 0 0
10612098 -0.40597016536726716 0.029770403887755433 0.23915289993930097 -0.034746895592021654 0 0 0 0
10645044 -0.40599384632708735 0.029751521141432688 0.2390041095494701 -0.03476052069320887 0 0 0 0
10677990 -0.4057469776918765 0.029996112085076215 0.23887891270270942 -0.03495463798910519 0 0 0 0
10710936 -0.4060114733335719 0.030033910049302764 0.23913008540825384 -0.0352014931278143 0 0 0 0
10743882 -0.4057675412090348 0.02994556451744373 0.23895340053529293 -0.035290984192797706 0 0 0 0
10776828 -0.4056874667286654 0.030084578165871075 0.23884648287223956 -0.035207350846331496 0 0 0 0
10809774 -0.405649899959192 0.030111132937205333 0.23884162678748527 -0.035400063182268626 0 0 0 0
10842720 -0.4056391983027757 0.0301060446072582 0.23878941762351646 -0.035435569999067544 0 0 0 0
10875666 -0.40555971561205045 0.02998684014378213 0.2386797014166691 -0.03561571345865456 0 0 0 0
10908612 -0.406045087191956 0.030473497874203562 0.23888280902117415 -0.035861246606078 0 0 0 0
10941558 -0.40569336519617205 0.030459082943033455 0.23878105665158456 -0.03586450651719843 0 0 0 0
10974504 -0.4058440339249046 0.03039276779219205 0.23878231048823575 -0.036034366113817926 0 0 0 0
11007450 -0.40534081412184525 0.03052456134497234 0.23857791435221906 -0.036171736315079174 0 0 0 0
11040396 -0.4057251956163287 0.030627712452761628 0.23869521814721406 -0.03624223729494618 0 0 0 0
11073342 -0.4055986545598892 0.03068547967183539 0.23872678305386225 -0.03647659181184599 0 0 0 0
11106288 -0.40537507114276466 0.030582503930651764 0.23854112387372647 -0.03655812579990607 0 0 0 0
11139234 -0.40569841939170825 0.030935634191651365 0.2387322093778161 -0.03670060668110346 0 0 0 0
11172180 -0.40548636563308577 0.030960784270891478 0.23864003688767021 -0.036862552562528135 0 0 0 0
11205126 -0.4053706844448761 0.030819071771485643 0.23858050068537415 -0.03679028320566558 0 0 0 0
11238072 -0.40552749238583974 0.03092671687143472 0.2384462984985436 -0.037074088768805954 0 0 0 0
11271018 -0.4052662493996051 0.03094725926255221 0.2385110045120951 -0.03718034832839081 0 0 0 0
11303964 -0.40535471568612097 0.03116714425533339 0.23858095423468015 -0.037313775790717735 0 0 0 0
11336910 -0.40528089409309137 0.031092800680388513 0.23839718973184695 -0.03744724911073539 0 0 0 0
11369856 -0.4053462630558489 0.0312535972899403 0.23832710246717417 -0.03753180792741408 0 0 0 0
11402802 -0.40551979462475235 0.03141051688919761 0.23856230261297803 -0.03772701033291253 0 0 0 0
11435748 -0.4054684521310787 0.03137118170642712 0.23847125338881076 -0.03780123594414742 0 0 0 0
11468694 -0.4054113280911298 0.03135557847813684 0.2383800161076774 -0.03781370435116572 0 0 0 0
11501640 -0.4053810898910731 0.031240695170567417 0.23844386616739432 -0.03805632445788637 0 0 0 0
11534586 -0.40530939624539075 0.0317244074623692 0.23840346344720395 -0.03825537926244737 0 0 0 0
11567532 -0.4051504251094497 0.031574842560638236 0.2382968898180486 -0.03832378438668014 0 0 0 0
11600478 -0.4052103611051983 0.03171364604746822 0.23829594866534873 -0.03835241816056094 0 0 0 0
11633424 -0.4051832644818543 0.03172936740026971 0.2383270464241865 -0.0384448713503687 0 0 0 0
11666370 -0.4053206749577888 0.03176466605458486 0.2382429499577916 -0.038681091141626975 0 0 0 0
11699316 -0.4052034446996257 0.03186225315926313 0.2381693078751739 -0.03883464378491157 0 0 0 0
11732262 -0.4049868834349383 0.0320221398750531 0.23814130726130578 -0.03886857418277615 0 0 0 0
11765208 -0.4051108924166713 0.031991541354062424 0.23823789731619996 -0.03909536640798437 0 0 0 0
11798154 -0.4050841175426819 0.032059607576851355 0.23824103618175355 -0.03907887268394071 0 0 0 0
11831100 -0.40514253052426313 0.03214713128128375 0.23811727013633613 -0.039231170621872785 0 0 0 0
11864046 -0.4049392358232408 0.03223949661397505 0.23798685199830621 -0.03939268348288877 0 0 0 0
11896992 -0.4051101272776873 0.03224275029743914 0.23812811953289456 -0.039488417063285805 0 0 0 0
11929938 -0.4050559165145415 0.03241763828985771 0.23799484630855836 -0.03962863072187419 0 0 0 0
11962884 -0.40499804092545016 0.03239830401867545 0.23803489694230529 -0.03979035873170662 0 0 0 0
11995830 -0.40507982400605436 0.032692792245822035 0.23804193527859244 -0.03993038170146377 0 0 0 0
12028776 -0.4048964314724523 0.03252506366791287 0.23803037242272151 -0.03992122246952378 0 0 0 0
12061722 -0.40509318265986793 0.03256184830782427 0.23794960960684863 -0.0400194600097082 0 0 0 0
12094668 -0.4050036584332721 0.032655396512146544 0.2379302068879453 -0.040186504073363265 0 0 0 0
12127614 -0.40504399269841956 0.0328941890112976 0.23792000837636568 -0.04040304092333594 0 0 0 0
12160560 -0.4048681519242045 0.03284050597296323 0.23793372234378957 -0.04055107996414781 0 0 0 0
12193506 -0.4050540948942205 0.032956175628570505 0.23788715968186636 -0.04067960234586115 0 0 0 0
12226452 -0.4048954718620115 0.033062036757687256 0.23780620482633577 -0.040699414742312416 0 0 0 0
12259398 -0.40508031251452525 0.03297810924243835 0.2378498368372189 -0.040791116358462894 0 0 0 0
12292344 -0.4049912527599996 0.033335884036088045 0.2378204517984335 -0.041060746982855625 0 0 0 0
12325290 -0.4046866110894319 0.032998788367153455 0.23772904517339657 -0.04115167034679315 0 0 0 0
12358236 -0.4050735286350329 0.03349056820541139 0.2377489324746242 -0.04131765405907193 0 0 0 0
12391182 -0.40469520623667016 0.033248278624723446 0.23780126475626417 -0.04134493897256766 0 0 0 0
12424128 -0.404665232220412 0.03328156977379387 0.23765263723392377 -0.04149447307930025 0 0 0 0
12457074 -0.404720297067321 0.03345401584854686 0.2376825861517515 -0.041707630138113 0 0 0 0
12490020 -0.4048616377652248 0.03364495288696558 0.23760434102107067 -0.04173012912734498 0 0 0 0
12522966 -0.4048272273961067 0.03390361948959897 0.23756126755595677 -0.04186543417855937 0 0 0 0
12555912 -0.4046389914672565 0.033959085066161854 0.23747855542611168 -0.042005633263269525 0 0 0 0
12588858 -0.4047036980012101 0.03379539420611817 0.2375464611254582 -0.04210241351777071 0 0 0 0
12621804 -0.40468925497356784 0.03369128893051976 0.2375983444979786 -0.04233186733817606 0 0 0 0
12654750 -0.40457469906674876 0.034001797290036176 0.2374801644053449 -0.04227058721623543 0 0 0 0
12687696 -0.40453454175946696 0.03386869490738289 0.2375262632616647 -0.04241616258635551 0 0 0 0
12720642 -0.40456057909471416 0.03407921610450605 0.2374580009291829 -0.04264739024689607 0 0 0 0
12753588 -0.40443570006685237 0.03408723124835946 0.2374308108687429 -0.04263332003189111 0 0 0 0
12786534 -0.40450890836259995 0.034341633950301244 0.23727465240332413 -0.04285872926091884 0 0 0 0
12819480 -0.40460668101247244 0.034384306349395315 0.23743133507561667 -0.04295785183390363 0 0 0 0
12852426 -0.4043519824016815 0.034319352191812084 0.2373121292015628 -0.04311022944962979 0 0 0 0
12885372 -0.4045368253745258 0.0344662610484155 0.23737069129691654 -0.04323365800689004 0 0 0 0
12918318 -0.4043552067272293 0.034531125954134954 0.23728946243944388 -0.04326026660495181 0 0 0 0
12951264 -0.40465073575553845 0.03453777817432984 0.23717559718470124 -0.04343049879853733 0 0 0 0
12984210 -0.4045160480045833 0.03459799632798553 0.23718210317746982 -0.043570665324150576 0 0 0 0
13017156 -0.40437528543351886 0.03480525191099718 0.23712415464491865 -0.043711036999901365 0 0 0 0
13050102 -0.4042879013474047 0.03475226412918143 0.23718296877864195 -0.04384711496138064 0 0 0 0
13083048 -0.4044776570526371 0.034955080343308485 0.23722129828782565 -0.04397096610864693 0 0 0 0
13115994 -0.40443096081304053 0.03491349224460448 0.23718003344379623 -0.04410043549294214 0 0 0 0
13148940 -0.40446451387696436 0.034880181881294096 0.23716155277035653 -0.04417658207758752 0 0 0 0
13181886 -0.40421134381105367 0.03506709049390264 0.23701203946237556 -0.0444059643712176 0 0 0 0
13214832 -0.4042586280711977 0.035102517801054514 0.23714983162808603 -0.04443231614535783 0 0 0 0
13247778 -0.4043694774976713 0.03513103433405455 0.23701006583451809 -0.044446264352424165 0 0 0 0
13280724 -0.40430016524608947 0.03523212956181739 0.2371034852709422 -0.04465463677349191 0 0 0 0
13313670 -0.40437118059106186 0.03551756303291205 0.23687530700272252 -0.044702704581903015 0 0 0 0
13346616 -0.40432563346893285 0.03532536608699295 0.23694699772423106 -0.04489342788290567 0 0 0 0
13379562 -0.4043478956603346 0.03550187826308419 0.2368363070246885 -0.04493978980549503 0 0 0 0
13412508 -0.4039649878340787 0.035456328582344446 0.23692512677486657 -0.04512339394835863 0 0 0 0
13445454 -0.404142327070598 0.03573245682124402 0.23677509475616368 -0.045167646649550086 0 0 0 0
13478400 -0.4040631416728286 0.03560967534612802 0.23682115413894408 -0.045449977049432815 0 0 0 0
13511346 -0.4041208983069613 0.035816813801106635 0.23682123312742362 -0.04555703952715634 0 0 0 0
13544292 -0.4043437591525209 0.035867965089929454 0.23688105088474437 -0.04568867105634389 0 0 0 0
13577238 -0.4040520561125678 0.03589783468662809 0.23675061591835428 -0.04585066155848479 0 0 0 0
13610184 -0.403916091481669 0.0359348513643954 0.23670855382265063 -0.04585947061394574 0 0 0 0
13643130 -0.4039139836708421 0.03611552998384309 0.23659016362305413 -0.046073833777961606 0 0 0 0
13676076 -0.4041740170609383 0.036084381876825805 0.23689542870344196 -0.046042132939823704 0 0 0 0
13709022 -0.4041181650810687 0.03630535961487842 0.23668050761880197 -0.046232487794724025 0 0 0 0
13741968 -0.40414214862130615 0.036168734971543486 0.23656456278457452 -0.04626490308573471 0 0 0 0
13774914 -0.40406782611752434 0.036267509721798506 0.23652622911601484 -0.04638272813919661 0 0 0 0
13807860 -0.40375926818309743 0.03626041952653094 0.23648278996700717 -0.046543945243563443 0 0 0 0
13840806 -0.4042423363029519 0.0366293095109813 0.2366504111863353 -0.0469264022389014 0 0 0 0
13873752 -0.40382763670724997 0.036720681530251535 0.2364696301759088 -0.04681570221495592 0 0 0 0
13906698 -0.4039476729651896 0.03664956132552105 0.23639275153583744 -0.04681811769206507 0 0 0 0
13939644 -0.40395574361420244 0.03657916543994542 0.23641174392225142 -0.047018394787868886 0 0 0 0
13972590 -0.40361798326999965 0.03669359843237465 0.23633116288554482 -0.04718509503877209 0 0 0 0
14005536 -0.4039745103087071 0.03686707360036588 0.23644172028858404 -0.04742096959786977 0 0 0 0
14038482 -0.40368816737333413 0.03706150593054188 0.2363927126442836 -0.047394387676139176 0 0 0 0
14071428 -0.4041758962669033 0.03716967554913045 0.23654776959649473 -0.04760103876256127 0 0 0 0
14104374 -0.40381862330932683 0.03693476394091565 0.23621485782674223 -0.04756569934660831 0 0 0 0
14137320 -0.4039001438273652 0.03688458957772548 0.2363045214030728 -0.047770416156633154 0 0 0 0
14170266 -0.40399269390720727 0.03734204723946695 0.23620551388301567 -0.04792198747484767 0 0 0 0
14203212 -0.40356548502117284 0.037118578400827905 0.23616187349439405 -0.04792479126008526 0 0 0 0
14236158 -0.4038859619195762 0.037519824345513896 0.23614757893377758 -0.04829301415339997 0 0 0 0
14269104 -0.4037588138080056 0.037570676688972106 0.23615291606151909 -0.04835264707222562 0 0 0 0
14302050 -0.4039131265279173 0.037615059939081215 0.23615870863172292 -0.04836432121746035 0 0 0 0
14334996 -0.4039351234498855 0.03750183972864991 0.23613204241800637 -0.048462204103965165 0 0 0 0
14367942 -0.40351732223281844 0.0374998787559707 0.23597416810575356 -0.04864319037366291 0 0 0 0
14400888 -0.40335837296144295 0.03751674092584117 0.23591667181246256 -0.048728910614402855 0 0 0 0
14433834 -0.40381629093097915 0.03794818189385572 0.2359835200610507 -0.04905901492876033 0 0 0 0
14466780 -0.403800893589417 0.037995444604558566 0.2360831106949971 -0.048963740376804475 0 0 0 0
14499726 -0.40380690897553423 0.03806199648668203 0.23614105886486084 -0.04913986777566191 0 0 0 0
14532672 -0.4039321641442257 0.03831397454556848 0.2360967085283281 -0.04930999733486759 0 0 0 0
14565618 -0.4035287974684983 0.03782034786401369 0.23588827534386733 -0.04924144467038574 0 0 0 0
14598564 -0.4039050511292031 0.038080964997572936 0.2358546495501878 -0.04949042528981923 0 0 0 0
14631510 -0.40370085228262764 0.03821112195403467 0.23596354217284296 -0.04966597499027757 0 0 0 0
14664456 -0.4035409697030199 0.03831225716724896 0.23580381552668106 -0.049854747285849016 0 0 0 0
14697402 -0.40380819198269474 0.03873792028986288 0.23592573320546648 -0.04988313255543435 0 0 0 0
14730348 -0.403417549835179 0.03836269467280749 0.23569661867004493 -0.04991402032784435 0 0 0 0
14763294 -0.40347535012388214 0.03846046156887059 0.23564088328541066 -0.050119108109772784 0 0 0 0
14796240 -0.4038669440825909 0.03859407750233154 0.2357639789820398 -0.050206725781057115 0 0 0 0
14829186 -0.4030997724531803 0.03873123939637689 0.23558714369287706 -0.05035130944045441 0 0 0 0
14862132 -0.40357129021859917 0.03897326085702642 0.23556086312430805 -0.05054616120343206 0 0 0 0
14895078 -0.4037340050745283 0.03911770480238282 0.23571978191424117 -0.05056309804596473 0 0 0 0
14928024 -0.4032480086902615 0.038786594800280794 0.23549808848331252 -0.050576096735173 0 0 0 0
14960970 -0.40371905062278485 0.03872088935298989 0.23558633626712647 -0.050731415011303724 0 0 0 0
14993916 -0.40354231639898813 0.03912530387754615 0.23548802110340655 -0.05095172079399347 0 0 0 0
15026862 -0.40326913138107723 0.03910580231597525 0.2354806812959219 -0.05112364847149071 0 0 0 0
15059808 -0.4036388022237732 0.03944446592438052 0.23553148028323365 -0.05123807357899647 0 0 0 0
15092754 -0.4034908086020777 0.039473844708940234 0.23544848103776148 -0.05133017425823043 0 0 0 0
15125700 -0.40348966746168824 0.0394396453610818 0.2355618328818989 -0.05146655093802164 0 0 0 0
15158646 -0.4034404656199187 0.03930462832573588 0.2354142208941112 -0.05149497441989593 0 0 0 0
15191592 -0.40330630048356325 0.03932929516086053 0.23531966148877614 -0.051549377743530495 0 0 0 0
15224538 -0.4035462479019106 0.03954627142856344 0.23524564258845898 -0.05174222304573571 0 0 0 0
15257484 -0.403122115619566 0.039795176624984906 0.23528211481112762 -0.05199708132560422 0 0 0 0
15290430 -0.4032863128949225 0.039742803993859474 0.2352714278180651 -0.05198868791811893 0 0 0 0
15323376 -0.4034364660133391 0.03998784763599107 0.23530914587302304 -0.05210890282303143 0 0 0 0
15356322 -0.40329519107745665 0.039954089015561474 0.2351321216395976 -0.05220958770928385 0 0 0 0
15389268 -0.40320787755179827 0.039697130326839164 0.2350862868113621 -0.05223617095204813 0 0 0 0
15422214 -0.4032380317143232 0.03984192710051674 0.23516858831488996 -0.05241319753090916 0 0 0 0
15455160 -0.40291695351865564 0.04012256240754295 0.2350159176084602 -0.05254314628495195 0 0 0 0
15488106 -0.4030807745339283 0.04025027263361544 0.23505344617371496 -0.05265787854571425 0 0 0 0
15521052 -0.4033721216277453 0.040342918675037746 0.23508623198452738 -0.052779647464187264 0 0 0 0
15553998 -0.40332942023246093 0.04028924171943285 0.23496200355024918 -0.05298070383816305 0 0 0 0
15586944 -0.4030505945195556 0.040179187427602056 0.2349909212989518 -0.05304801434289302 0 0 0 0
15619890 -0.4031847627439083 0.04071800931817402 0.23490484618369598 -0.053269267707755016 0 0 0 0
15652836 -0.40304591085925756 0.04055028183116842 0.23494520575286185 -0.05319376424805471 0 0 0 0
15685782 -0.40319166982638366 0.04071543176876486 0.23487667216900962 -0.05345551297261862 0 0 0 0
15718728 -0.40326947340311387 0.04040566463407619 0.2347266940126307 -0.05342294958684605 0 0 0 0
15751674 -0.40297931206765214 0.0407050300264812 0.23482414874273633 -0.053605539997629174 0 0 0 0
15784620 -0.40322279848302595 0.04097097287162253 0.234886141744395 -0.05374689756555163 0 0 0 0
15817566 -0.40314032338378364 0.04097490921851431 0.23475394045280942 -0.05394507158214211 0 0 0 0
15850512 -0.40304187514925943 0.04083505915330997 0.23479879228427927 -0.05395265458184565 0 0 0 0
15883458 -0.40332078926025916 0.0412509535272414 0.23466203624733292 -0.054244028571332085 0 0 0 0
15916404 -0.40285406457308265 0.04092424841304428 0.2345533275091146 -0.054271753286775186 0 0 0 0
15949350 -0.40312305547320765 0.04130688327047822 0.23463179078138824 -0.054403314961750465 0 0 0 0
15982296 -0.4027171404693573 0.04131065383894778 0.23465454968146116 -0.05453948657243603 0 0 0 0
16015242 -0.40300838682165674 0.04153680787991534 0.23452478934013146 -0.054546797143426175 0 0 0 0
16048188 -0.40297795333838893 0.041246082481007425 0.23445359074009717 -0.0547184821535407 0 0 0 0
16081134 -0.4028347199584421 0.04164671192099761 0.2344492680091552 -0.054866379612873196 0 0 0 0
16114080 -0.4025100155077282 0.041560514964299924 0.23445267239247203 -0.054954813874170894 0 0 0 0
16147026 -0.40294288582844817 0.04170625929481841 0.23443856585788814 -0.05514883057198776 0 0 0 0
16179972 -0.40276680833913187 0.041804226739908294 0.23434963596038907 -0.05518188494225766 0 0 0 0
16212918 -0.4030488771646367 0.0419674150522028 0.23440387456197068 -0.0552636357001812 0 0 0 0
16245864 -0.40268372181088624 0.04167901862059859 0.23421727664094874 -0.05537181067369413 0 0 0 0
16278810 -0.4025737429336725 0.04195205774913095 0.23435498116568562 -0.05557404565622812 0 0 0 0
16311756 -0.40282007404409714 0.04197266609590222 0.23417049134802084 -0.055790271523527155 0 0 0 0
16344702 -0.4027173903656355 0.04228642844417696 0.2341709044641667 -0.05570388489721557 0 0 0 0
16377648 -0.4031320623046383 0.0421246689915674 0.23426330725267464 -0.055800935262821816 0 0 0 0
16410594 -0.4028798298708016 0.042145317929685164 0.23420023936433182 -0.056091643454166715 0 0 0 0
16443540 -0.40260594948380196 0.04248919830819063 0.2341423648552792 -0.05619292172845945 0 0 0 0
16476486 -0.40278329241112465 0.04239583663934294 0.23408586874614543 -0.05632478481863249 0 0 0 0
16509432 -0.40256270776701086 0.04253929970598324 0.23408571099957357 -0.05637860267193615 0 0 0 0
16542378 -0.40273440673691646 0.04246395954738772 0.23398541137779602 -0.056490058137028815 0 0 0 0
16575324 -0.4025793251953329 0.0425750791272451 0.23394221173487448 -0.05652219404424825 0 0 0 0
16608270 -0.40250108117399175 0.04285399945364161 0.23392759091938578 -0.056802962828519946 0 0 0 0
16641216 -0.4025995840167734 0.042900667476601186 0.2339399528161181 -0.05702450906936421 0 0 0 0
16674162 -0.40254389860373296 0.04311316979586211 0.2339127632857524 -0.05687469868637749 0 0 0 0
16707108 -0.40257120195218277 0.0432100965590241 0.23395076278179763 -0.057033538182277 0 0 0 0
16740054 -0.40266381309486265 0.042950437578999204 0.23397584593415346 -0.057205895256188785 0 0 0 0
16773000 -0.4029197993913869 0.04304340824955938 0.2337653437883074 -0.05728899173209872 0 0 0 0
16805946 -0.40234236765072984 0.04321481057743571 0.23374311703102946 -0.05742183363523082 0 0 0 0
16838892 -0.4030937834198738 0.04312486030683857 0.23384976737065477 -0.057613471857484944 0 0 0 0
16871838 -0.4030246122565157 0.04337231301506984 0.2336787714553316 -0.05757779492730003 0 0 0 0
16904784 -0.40276948569147053 0.04349149871412248 0.23373657298831346 -0.05772449067865348 0 0 0 0
16937730 -0.40235023929288716 0.04329924144601814 0.23359702875124608 -0.05788908588368672 0 0 0 0
16970676 -0.40249938578233807 0.043299498266847654 0.2336971010184448 -0.058018995011800634 0 0 0 0
17003622 -0.40244071653820945 0.04360076162719103 0.23348113296389786 -0.05815241002849796 0 0 0 0
17036568 -0.40250656861819895 0.04358086648135927 0.23347416085786157 -0.058435852905201154 0 0 0 0
17069514 -0.4023602794936154 0.044058673976503385 0.23345563435013061 -0.05825673481460444 0 0 0 0
17102460 -0.4021567189793148 0.04382151671841577 0.23337114441049092 -0.05850056997186363 0 0 0 0
17135406 -0.4023733458781039 0.04400428276250157 0.23337997394068363 -0.05861129505708376 0 0 0 0
17168352 -0.4022118967978415 0.04389908266755042 0.23337130288253272 -0.0588150665580562 0 0 0 0
17201298 -0.40228267692282443 0.043929809971182524 0.23350602645960528 -0.058713503785114265 0 0 0 0
17234244 -0.4027705845376975 0.04404533067679861 0.23329510797934497 -0.0589292194610154 0 0 0 0
17267190 -0.4025617003618404 0.04414284300186264 0.23323999743434554 -0.05904119713890198 0 0 0 0
17300136 -0.40224796587968104 0.044382746954358857 0.23319362041408898 -0.059161740252578074 0 0 0 0
17333082 -0.402320367543688 0.04461205401185405 0.23318195674462566 -0.05923410226220841 0 0 0 0
17366028 -0.4022944582815746 0.04443797846898637 0.23304648064107344 -0.059505267570951925 0 0 0 0
17398974 -0.40220800097716125 0.04500508251404765 0.23318709856594674 -0.059512364183392175 0 0 0 0
17431920 -0.40249423395478107 0.044807400794198655 0.2331330741372216 -0.05956782347227512 0 0 0 0
17464866 -0.40250118081050196 0.04451362411632892 0.23285870332130365 -0.05968426889769182 0 0 0 0
17497812 -0.40222671330436305 0.04489343870212976 0.23306648688231887 -0.059703116952568844 0 0 0 0
17530758 -0.4018035375961573 0.04501158140834599 0.232885897370699 -0.05988520428302622 0 0 0 0
17563704 -0.40251067668165724 0.04489510817840724 0.23319558998311535 -0.06010139752761749 0 0 0 0
17596650 -0.4022813492674697 0.045091298783189446 0.23303029445509554 -0.06020741220699394 0 0 0 0
17629596 -0.40229663384384484 0.0449846514999955 0.23267749254043502 -0.060444368265933524 0 0 0 0
17662542 -0.40208818440067595 0.0454996156926688 0.23265408440303417 -0.06031911675340923 0 0 0 0
17695488 -0.40260597428399253 0.04531287664537454 0.23288098083857425 -0.060426001491788485 0 0 0 0
17728434 -0.4019735186892765 0.04546218617410979 0.232762282371169 -0.06066009409499025 0 0 0 0
17761380 -0.40230290544442926 0.045303005937048356 0.2329027055737276 -0.060936003297660975 0 0 0 0
17794326 -0.4018798263727601 0.045559862858408594 0.23284572162025155 -0.06083456116753508 0 0 0 0
17827272 -0.40207942656572637 0.04581008528670479 0.23282497082630624 -0.06110871190400311 0 0 0 0
17860218 -0.4022516084259191 0.04578911893018865 0.23284252432995936 -0.06114896443721048 0 0 0 0
17893164 -0.4020636638299383 0.04572875676117007 0.23253408365211065 -0.06112711987407808 0 0 0 0
17926110 -0.40202509311586715 0.045761867434295146 0.23250604032599165 -0.06131488807272536 0 0 0 0
17959056 -0.40188808449625246 0.045884220060971245 0.23259908551301936 -0.06167037169758237 0 0 0 0
17992002 -0.4020883780128318 0.04628086763975414 0.2325471622152659 -0.061597371519080756 0 0 0 0
18024948 -0.40234317719501594 0.045861811594474874 0.23244360653618834 -0.06158096051872722 0 0 0 0
18057894 -0.4017851510189994 0.04596251243366089 0.2323057562617738 -0.06191416016441343 0 0 0 0
18090840 -0.40210484150062736 0.046465273865644856 0.23246969688946464 -0.062089814244813205 0 0 0 0
18123786 -0.40179070536475103 0.046313369963322526 0.23226680515433953 -0.061955257633297886 0 0 0 0
18156732 -0.40207054200122283 0.04667691402314156 0.23239533543314436 -0.06238123243289206 0 0 0 0
18189678 -0.4020702196951399 0.0463563384734943 0.23228148149021074 -0.06230236900408932 0 0 0 0
18222624 -0.40190775958339103 0.04626361955061771 0.23229262745890605 -0.06238196118509613 0 0 0 0
18255570 -0.40194806273597994 0.04686752011738089 0.23215899196170584 -0.06266663622376324 0 0 0 0
18288516 -0.40139241522096414 0.04642099122623637 0.23202836037440575 -0.06274385748181442 0 0 0 0
18321462 -0.4018756923882943 0.04675396427459657 0.23217690750794187 -0.06283216034406956 0 0 0 0
18354408 -0.401716825081428 0.04695272751556604 0.23222693467207223 -0.06276560660514614 0 0 0 0
18387354 -0.40224959131723625 0.046698572143077495 0.23210968589042003 -0.06305741019200702 0 0 0 0
18420300 -0.4020768302099444 0.04657191487929471 0.2319423567666702 -0.06288044272156525 0 0 0 0
18453246 -0.40150578903126033 0.04697761231168799 0.23195025386285553 -0.06331455479519661 0 0 0 0
18486192 -0.40198908285492563 0.04703260181931727 0.23203310936268198 -0.06346213057142934 0 0 0 0
18519138 -0.40188481514403024 0.04751322430563511 0.23191794215506517 -0.06351703379626356 0 0 0 0
18552084 -0.401956537305057 0.0474734070120491 0.23196768662311495 -0.06362846429690501 0 0 0 0
18585030 -0.4018755552056735 0.04724040872299816 0.2318815794425423 -0.06373665017971546 0 0 0 0
18617976 -0.40165893713851 0.04720109026538133 0.23178751225171693 -0.06379080078316333 0 0 0 0
18650922 -0.40172044385579503 0.047681761958084365 0.23174350057128246 -0.06396345962836537 0 0 0 0
18683868 -0.401655300254312 0.04746899796953517 0.2317431099300933 -0.06414626502506741 0 0 0 0
18716814 -0.40181249613399134 0.047971473290897716 0.23176073590901583 -0.06411359293392033 0 0 0 0
18749760 -0.4019612650073736 0.04789184653087656 0.23169663713913405 -0.06428094665605359 0 0 0 0
18782706 -0.4014407040465247 0.047808951815636755 0.23177140332459753 -0.0643010409631361 0 0 0 0
18815652 -0.40192817964613253 0.04819741862895694 0.23174349462782676 -0.0644804449454531 0 0 0 0
18848598 -0.40200476254017503 0.047830127846982894 0.23160701471411044 -0.064603098153568 0 0 0 0
18881544 -0.40154606373165863 0.048104722167265856 0.23156416526785392 -0.06470068914153643 0 0 0 0
18914490 -0.4014906642826658 0.048015601739144334 0.23149798438147093 -0.06488073965154703 0 0 0 0
18947436 -0.4015628627499563 0.04843568419702655 0.23152544177781106 -0.0649590161657103 0 0 0 0
18980382 -0.4018697518821454 0.04820686188235955 0.23142374437855423 -0.06501671244607764 0 0 0 0
19013328 -0.40153088183585023 0.048228152279756756 0.23138372384839384 -0.06518000645397728 0 0 0 0
19046274 -0.40163344075736596 0.04851271655448608 0.23133463169221952 -0.0652209455416135 0 0 0 0
19079220 -0.4011534519697919 0.048473300523683545 0.23119847722728099 -0.06549744448154389 0 0 0 0
19112166 -0.40170260782784595 0.04877536729697805 0.23123203464602385 -0.06561156522485449 0 0 0 0
19145112 -0.4014345157606811 0.04873392269503605 0.2313597358614229 -0.06555650295576687 0 0 0 0
19178058 -0.40173611675423704 0.04862250893345679 0.23117137535561164 -0.06583190961246146 0 0 0 0
19211004 -0.4015570927389192 0.048932342081243585 0.23117520425453753 -0.06593571290670949 0 0 0 0
19243950 -0.40141251552174745 0.049150176288518886 0.2311483930832313 -0.06606298829642349 0 0 0 0
19276896 -0.4011143864234204 0.04897062031601159 0.2309557040521298 -0.066276368620566 0 0 0 0
19309842 -0.401507047456335 0.0492703997452593 0.2311346434758682 -0.06619558050681035 0 0 0 0
19342788 -0.4017813502911441 0.04912481085742152 0.23105172065712654 -0.06640611869611673 0 0 0 0
19375734 -0.40142492606687774 0.04911738444468226 0.23106065068535167 -0.06648728481108598 0 0 0 0
19408680 -0.4012806886870314 0.04940310407968201 0.230984777671313 -0.06660149786849519 0 0 0 0
19441626 -0.4015221338272924 0.04943672775117402 0.23092299091116547 -0.06669099554455055 0 0 0 0
19474572 -0.40121148644982824 0.04952253247172528 0.2309466142631174 -0.06681669770677992 0 0 0 0
19507518 -0.40160487771813813 0.0496280353408645 0.23079177061492934 -0.06689651423433031 0 0 0 0
19540464 -0.4014508785484861 0.049537736890268226 0.23084060633843262 -0.067160635372278 0 0 0 0
19573410 -0.40123958807768473 0.04978321928369056 0.23070742139714948 -0.06723614503300161 0 0 0 0
19606356 -0.4014693482336649 0.04976850172689892 0.23076845705735302 -0.06727189640968473 0 0 0 0
19639302 -0.4013471578745524 0.049634384218426725 0.23066715082192632 -0.06742004078737693 0 0 0 0
19672248 -0.40161467321919675 0.04996413922078605 0.23073316777933672 -0.06746353190933935 0 0 0 0
19705194 -0.40131951801659527 0.05004314571529862 0.230616288617193 -0.06758138166050219 0 0 0 0
19738140 -0.4015600931169365 0.050019602738044844 0.23047138942792209 -0.0677073452837841 0 0 0 0
19771086 -0.40092580203504774 0.04992226633404959 0.2305396068389202 -0.06783239098546938 0 0 0 0
19804032 -0.4012748337749819 0.05024155363679033 0.23049557868307322 -0.06798408393565841 0 0 0 0
19836978 -0.4013175553105015 0.05049851456401373 0.2303331366974232 -0.06801467710711834 0 0 0 0
19869924 -0.40148930602066524 0.050344056164651575 0.2305403420895235 -0.06822934621006228 0 0 0 0
19902870 -0.40088546686276 0.05036916923183558 0.23044429362237967 -0.06829541622962211 0 0 0 0
19935816 -0.40110230309580863 0.05073626369050322 0.2302942801624561 -0.06848207113870826 0 0 0 0
19968762 -0.4012568867833399 0.0507956748762882 0.23038235217679506 -0.06863126056886645 0 0 0 0
20001708 -0.40112154366024233 0.05082907140905419 0.23034971133478474 -0.06858328745408394 0 0 0 0
20034654 -0.4009716496240355 0.05067357376934074 0.2302554145398193 -0.06877301881295105 0 0 0 0
20067600 -0.40140656730996394 0.050841993536543666 0.23020818398721088 -0.06883668005962812 0 0 0 0
20100546 -0.4010206410149426 0.05093231983335987 0.2301668265080398 -0.06904634625421915 0 0 0 0
20133492 -0.4011429653535311 0.05111367160551565 0.23014603493725275 -0.06914152660962583 0 0 0 0
20166438 -0.40110542629389845 0.05092308195299481 0.23007233386015175 -0.06931750002846918 0 0 0 0
20199384 -0.40089699096820475 0.05113654438679056 0.22999937345934032 -0.06930009610542816 0 0 0 0
20232330 -0.40105660489378925 0.05147979990613445 0.23009559015684966 -0.0693707886436223 0 0 0 0
20265276 -0.40125045802454945 0.05129496798094874 0.2298862040723913 -0.06969374921506356 0 0 0 0
20298222 -0.40122113530017334 0.051278702559949804 0.22998089756414075 -0.06975077191221017 0 0 0 0
20331168 -0.4008711630526816 0.051451781062526764 0.22980826354101427 -0.0698377795976044 0 0 0 0
20364114 -0.4008736617017322 0.05136129090901304 0.22976367354018865 -0.06994736006836749 0 0 0 0
20397060 -0.4009140897896823 0.05191011700440154 0.22987842756663007 -0.07002309604266664 0 0 0 0
20430006 -0.40110654260599166 0.051775695136996515 0.22978474883081768 -0.07032977151954947 0 0 0 0
20462952 -0.40085713857459393 0.051682201708000766 0.22960106285304088 -0.07027538043883043 0 0 0 0
20495898 -0.4009854000213109 0.05181754234432523 0.22982963706291443 -0.07042182154535294 0 0 0 0
20528844 -0.40069307913072544 0.051848916362037874 0.2295605693556305 -0.07062688052026339 0 0 0 0
20561790 -0.40093971815246837 0.0523768156620535 0.22973923149105743 -0.07064405855351902 0 0 0 0
20594736 -0.4012023096114492 0.052125639683990456 0.22954967069495913 -0.07077949113142333 0 0 0 0
20627682 -0.40070792362594626 0.05205906605012446 0.22943600159512648 -0.07077198081834397 0 0 0 0
20660628 -0.40080806825121335 0.05216538783263362 0.22952670995298266 -0.0709713444119066 0 0 0 0
20693574 -0.40054252281233543 0.05233672525912594 0.22953783073542977 -0.07121308212790833 0 0 0 0
20726520 -0.40062800254232694 0.052342855346578815 0.229435495792308 -0.0712547904490905 0 0 0 0
20759466 -0.4005562274152996 0.05235808630645303 0.22925385021898945 -0.07125770913535184 0 0 0 0
20792412 -0.4008590946250341 0.05279140503223277 0.22947312227798425 -0.0714068030343401 0 0 0 0
20825358 -0.4010686025732507 0.052459884475241116 0.2292345061498305 -0.07145843046627494 0 0 0 0
20858304 -0.4008410225463039 0.05265672521039789 0.22932024806166643 -0.07163904874886 0 0 0 0
20891250 -0.4006890059695841 0.05278915435883534 0.22917573090626225 -0.0718113090938681 0 0 0 0
20924196 -0.4006490271980006 0.05276100180686906 0.2291337840020484 -0.07189930265482757 0 0 0 0
20957142 -0.40087294552232633 0.05323861354534479 0.22923690691998788 -0.0719772351124215 0 0 0 0
20990088 -0.40099550264902234 0.05315532621020967 0.2290489861127135 -0.07214129675302391 0 0 0 0
21023034 -0.4009196415341481 0.05300073862475719 0.22900672562396654 -0.07228077993580333 0 0 0 0
21055980 -0.40061043999480783 0.05313866149302761 0.22902789692280137 -0.0722985472512924 0 0 0 0
21088926 -0.4004879974665829 0.05322864376860229 0.22897542536823343 -0.07255690363046692 0 0 0 0
21121872 -0.4005696224083503 0.05329620592547577 0.2289337647204502 -0.07244461521141116 0 0 0 0
21154818 -0.4006582767461728 0.05374255969098795 0.22893608829728304 -0.07260462292666132 0 0 0 0
21187764 -0.4004944899073394 0.05371928284786258 0.22893184387787144 -0.07277335105787335 0 0 0 0
21220710 -0.400558570995341 0.05358423746494139 0.2287517644597149 -0.0726958372180716 0 0 0 0
21253656 -0.4010331493158504 0.05377990450218502 0.22870548527067508 -0.07304714174586649 0 0 0 0
21286602 -0.4006314013949082 0.053685381608851494 0.22862335243516121 -0.07310179923541316 0 0 0 0
21319548 -0.4004475433673704 0.05393400625712567 0.2286922204592455 -0.0732942381864494 0 0 0 0
21352494 -0.4004621890919326 0.05401728834455722 0.2286319439303476 -0.07324347525786964 0 0 0 0
21385440 -0.4005870557686764 0.05412388887757319 0.22859699485184598 -0.07330389179735483 0 0 0 0
21418386 -0.4007139564534817 0.05422075823433281 0.22874695306488133 -0.07353573531888108 0 0 0 0
21451332 -0.40032662868321467 0.0540323166632279 0.22841424207668587 -0.07345867665738182 0 0 0 0
21484278 -0.40067318083110365 0.05445509028307147 0.22844660960166843 -0.07382278387303254 0 0 0 0
21517224 -0.4006126993868551 0.05424891309741807 0.22843824348336655 -0.07399675590966703 0 0 0 0
21550170 -0.40049904880124443 0.054519651735037075 0.22838271482072608 -0.07413420039187803 0 0 0 0
21583116 -0.4006293428396098 0.054532783975135085 0.22841562686961 -0.07403466119988829 0 0 0 0
21616062 -0.4003976607530813 0.05452070704454071 0.22838742941632986 -0.07426532861707424 0 0 0 0
21649008 -0.40073754690584495 0.05475837845384517 0.2281563410446639 -0.07438012748707545 0 0 0 0
21681954 -0.4005758997395967 0.05477470054082732 0.22807765870131788 -0.07441315346124253 0 0 0 0
21714900 -0.40032809101270306 0.05457979894965006 0.22829866632238693 -0.07456746382098277 0 0 0 0
21747846 -0.40005656891800756 0.0547012030768785 0.22806871642314638 -0.0746779167759635 0 0 0 0
21780792 -0.4003539226877173 0.0550270779465919 0.22815012651992292 -0.07466923090058479 0 0 0 0
21813738 -0.40057459633902465 0.05509910461399759 0.22795696571953103 -0.07486808166912641 0 0 0 0
21846684 -0.40058238719951555 0.05522815498694918 0.22798181553875144 -0.0750398423651192 0 0 0 0
21879630 -0.40016701700053076 0.05504095786501134 0.22793119633120598 -0.07506605167350927 0 0 0 0
21912576 -0.4001678048981443 0.055053247567158535 0.22793354239413263 -0.07519870115384013 0 0 0 0
21945522 -0.4001718513313664 0.055252163892958256 0.2278779161050671 -0.07530496740952566 0 0 0 0
21978468 -0.4002350680201243 0.055352498812890956 0.2278590378275644 -0.07533758857753987 0 0 0 0
22011414 -0.400044115867758 0.05530267272542208 0.22771509208794283 -0.07552731064153319 0 0 0 0
22044360 -0.4003062122663456 0.05553869786952495 0.22768011682795067 -0.07559715254022539 0 0 0 0
22077306 -0.40053290005577263 0.05560902490805891 0.22771457161974246 -0.07583607817958322 0 0 0 0
22110252 -0.40018033627127086 0.055727685171061705 0.22764476117288532 -0.07600473777671338 0 0 0 0
22143198 -0.4000038604098249 0.056012468621239125 0.22763604810852772 -0.07615680658800285 0 0 0 0
22176144 -0.40017372808710666 0.05600727265812501 0.22769751416194758 -0.07616377594170112 0 0 0 0
22209090 -0.40055499646138704 0.05608277587251885 0.22758100870639647 -0.07634351341438401 0 0 0 0
22242036 -0.4000611922636647 0.05600465234845819 0.22743318034004972 -0.07643233374577633 0 0 0 0
22274982 -0.4000697074021945 0.05612761626002652 0.2274831943419977 -0.07655543974193713 0 0 0 0
22307928 -0.3999843858034293 0.05627167053283469 0.2275034540065009 -0.07676621933384555 0 0 0 0
22340874 -0.4000896162036444 0.05648456414617731 0.22745498953655038 -0.0766056326585478 0 0 0 0
22373820 -0.4001770449942781 0.05659200744444484 0.22749667488951178 -0.07673430150203696 0 0 0 0
22406766 -0.3999512727581808 0.056267615518528206 0.2272039435126306 -0.07680074856471643 0 0 0 0
22439712 -0.40035029837408415 0.056592939779058646 0.2272113788123089 -0.07711957348068181 0 0 0 0
22472658 -0.39983667663152883 0.05663524686962719 0.22713100644821738 -0.07720222954986028 0 0 0 0
22505604 -0.3997369667156253 0.0566498247529373 0.227096604881562 -0.07722326641073378 0 0 0 0
22538550 -0.3999722659731859 0.05672973049546881 0.2271122716878558 -0.07745593336572984 0 0 0 0
22571496 -0.39986958714302706 0.0568671297948148 0.22706086475047735 -0.07730547931332898 0 0 0 0
22604442 -0.4000041148874081 0.05711407177411002 0.22709798222289518 -0.07764174376299995 0 0 0 0
22637388 -0.4000237620593326 0.05688769437774444 0.2269653517452738 -0.0776566690497234 0 0 0 0
22670334 -0.40028563809926127 0.057162263134542056 0.22698169624145445 -0.07787016013184403 0 0 0 0
22703280 -0.3997913069644837 0.05702231263431279 0.2268765591248534 -0.07783761790632202 0 0 0 0
22736226 -0.39995817366173303 0.05728738100727985 0.2268167462139199 -0.07813012652515058 0 0 0 0
22769172 -0.39962734977427966 0.057295136517786484 0.2267770831802282 -0.07799612618382547 0 0 0 0
22802118 -0.39984880111653176 0.05716970481185337 0.22675603029631372 -0.0782168645252203 0 0 0 0
22835064 -0.4001364397611787 0.057421758061527994 0.2267300512727768 -0.0784611259922432 0 0 0 0
22868010 -0.39969152690762205 0.05760658090620066 0.22658193228006693 -0.07843772982216986 0 0 0 0
22900956 -0.39977575616109445 0.05758283173776593 0.2266800732642936 -0.07871682598463531 0 0 0 0
22933902 -0.3994543870960482 0.05782436426462647 0.22649915876799487 -0.0786177166604268 0 0 0 0
22966848 -0.39968393498915333 0.0578081622997392 0.22666530367059223 -0.07887674274603175 0 0 0 0
22999794 -0.3998133118092052 0.057722116597314334 0.22644227825636795 -0.07876459626082379 0 0 0 0
23032740 -0.39992078976717244 0.05808833870811688 0.22639987004646248 -0.07912256238365023 0 0 0 0
23065686 -0.39968550789747553 0.05802957369464658 0.2265476747685877 -0.07921278100200643 0 0 0 0
23098632 -0.3997003802368273 0.05808189864824745 0.2264424106988566 -0.07940521420478154 0 0 0 0
23131578 -0.3995572586551463 0.05812809201661705 0.22648117923159036 -0.07935116203666624 0 0 0 0
23164524 -0.3994531673893573 0.05819805816959663 0.22627060190888643 -0.0794151723311975 0 0 0 0
23197470 -0.3998206605768303 0.05855307288405665 0.22643233929524031 -0.07957676933660536 0 0 0 0
23230416 -0.399522680268874 0.058296534276299106 0.22603741504102245 -0.07957655976067693 0 0 0 0
23263362 -0.39973174040724735 0.058407059839519306 0.22607293702573086 -0.07980995621313797 0 0 0 0
23296308 -0.39989714784701047 0.05867679190033839 0.22606413173056358 -0.07997180112171023 0 0 0 0
23329254 -0.3994181102776362 0.05862487924327801 0.22598901809223196 -0.08001742107144037 0 0 0 0
23362200 -0.3995740328829408 0.05873339335274592 0.2260643534872298 -0.08030902519730748 0 0 0 0
23395146 -0.3994175308142219 0.05885497133541751 0.22601948472611785 -0.08014595537464834 0 0 0 0
23428092 -0.399452599682651 0.058658664310468275 0.2258545532145257 -0.08026068240117953 0 0 0 0
23461038 -0.3996096916751804 0.05904915961795796 0.22586580237735587 -0.08061524714669323 0 0 0 0
23493984 -0.399551730719714 0.05904544354940535 0.22596190949028916 -0.08067263473404139 0 0 0 0
23526930 -0.39930105890407697 0.059283097487768215 0.22582029548158825 -0.08065755447371742 0 0 0 0
23559876 -0.39933399950527476 0.05891830039810232 0.22565678786801832 -0.08068134006859096 0 0 0 0
23592822 -0.39967435750628283 0.05946896288081141 0.22573405642123476 -0.08098054976627017 0 0 0 0
23625768 -0.3993519951256232 0.0593452899720868 0.22567682232308714 -0.081057554947369 0 0 0 0
23658714 -0.3994981169127887 0.05939226731106126 0.22561219736361215 -0.08121267549450922 0 0 0 0
23691660 -0.3993219860037204 0.05967079228551349 0.2254802426322993 -0.08134896558235183 0 0 0 0
23724606 -0.3990991416040261 0.0595119854228542 0.2254698952533306 -0.08122348141111743 0 0 0 0
23757552 -0.3995437545723936 0.059822895828220306 0.22555482649910408 -0.08145053278876623 0 0 0 0
23790498 -0.39951255651112405 0.05991963462273922 0.22546845331976947 -0.0816759197590395 0 0 0 0
23823444 -0.3995274072670262 0.05987193187575593 0.22547367249204486 -0.08176654431148056 0 0 0 0
23856390 -0.39913629695689756 0.06003082885467376 0.22543629994455516 -0.08175741311937178 0 0 0 0
23889336 -0.3989566298054651 0.06009451788416294 0.22523508461342348 -0.08186824840577885 0 0 0 0
23922282 -0.3994058207023901 0.060069324818588385 0.22533542438659765 -0.08201524716730234 0 0 0 0
23955228 -0.3995828757847208 0.060339263134404734 0.2252885441959815 -0.08222503469278648 0 0 0 0
23988174 -0.3992750925712644 0.0602888744580915 0.22509953877732905 -0.08230540656225026 0 0 0 0
24021120 -0.3992826692737455 0.06032056170592683 0.22511972908125796 -0.08243245129090766 0 0 0 0
24054066 -0.39919993135039983 0.060559153392202573 0.22517289945759575 -0.08259301855912764 0 0 0 0
24087012 -0.39921122855975605 0.06059525658813625 0.22513938128531463 -0.08247490037645616 0 0 0 0
24119958 -0.39931170803349647 0.060529827218279146 0.22490321400834434 -0.0826345642147668 0 0 0 0
24152904 -0.3994416508539528 0.06074074066754121 0.22496072159937447 -0.08284070020983432 0 0 0 0
24185850 -0.3993199768627332 0.0608439896023878 0.2248636388184772 -0.08307600620288944 0 0 0 0
24218796 -0.39892380239466063 0.06078644508187361 0.22483609451436473 -0.0830301245996585 0 0 0 0
24251742 -0.3990889594075434 0.060880463222833775 0.2247828476218875 -0.08299077529548535 0 0 0 0
24284688 -0.39928812715128686 0.06104535846458104 0.2248655393899112 -0.08328962282567173 0 0 0 0
24317634 -0.39937966497543326 0.06097869495772643 0.22471499685435195 -0.08338750438801619 0 0 0 0
24350580 -0.399162549953206 0.06127526711822533 0.22469489575566862 -0.08350312872440707 0 0 0 0
24383526 -0.3991452937957752 0.061252340601580815 0.2246865274882207 -0.08354428521673138 0 0 0 0
24416472 -0.39906523556757545 0.061487911859093296 0.22463240105199198 -0.08358717309665173 0 0 0 0
24449418 -0.3991349383161825 0.061105625343467765 0.22463757634974704 -0.08379738179013668 0 0 0 0
24482364 -0.3990746251419162 0.061445661002072605 0.2244382534865646 -0.08384057670730757 0 0 0 0
24515310 -0.3991461488308267 0.061483390315833726 0.2244383255052476 -0.08400615185966846 0 0 0 0
24548256 -0.39897347008636863 0.06158594821430114 0.22434177384536802 -0.08412170768863976 0 0 0 0
24581202 -0.3989716526158567 0.061662448123210645 0.22437669899951776 -0.08429366495970353 0 0 0 0
24614148 -0.39871154377742024 0.06177279023001707 0.22435739491596007 -0.08427940254826427 0 0 0 0
24647094 -0.3990493241544145 0.06190875561285724 0.2243644197055766 -0.0844562843540919 0 0 0 0
24680040 -0.39890922591626055 0.06202339356288384 0.22425181014189552 -0.08455685459890187 0 0 0 0
24712986 -0.3988621233781084 0.06190809796998212 0.2242221436988729 -0.08458766160108815 0 0 0 0
24745932 -0.3989336034958996 0.06189515142970347 0.22407637847778772 -0.08463528518513283 0 0 0 0
24778878 -0.3989621346803117 0.0621244526563098 0.2240351966835608 -0.08486981175145812 0 0 0 0
24811824 -0.3988070320768176 0.0622089848994013 0.2240342921993528 -0.08511709060799469 0 0 0 0
24844770 -0.3987525446472147 0.06239417120078999 0.22407288912350215 -0.0852112319617397 0 0 0 0
24877716 -0.3987364025406478 0.06254432551984095 0.22399382012745586 -0.08514257607719157 0 0 0 0
24910662 -0.39891723233077736 0.062413581228351625 0.22372970024904745 -0.08524104805696985 0 0 0 0
24943608 -0.39909371399031696 0.0627033058152886 0.22386942639033403 -0.08553739562476549 0 0 0 0
24976554 -0.39880832878445976 0.06264005434580132 0.22375539865908614 -0.08557978941865171 0 0 0 0
25009500 -0.3987973156308259 0.06271061861521338 0.22366548863932306 -0.08565556014083137 0 0 0 0
25042446 -0.3989036316050349 0.06288622947791665 0.22366960710480271 -0.08581380760567654 0 0 0 0
25075392 -0.3986446600982414 0.06299863393134564 0.22372882924000792 -0.08590013359626053 0 0 0 0
25108338 -0.39877503306400186 0.06279549981503803 0.22374353509743308 -0.08586675693928766 0 0 0 0
25141284 -0.3987592867167714 0.06308278419313945 0.22353047587411531 -0.08603239123498446 0 0 0 0
25174230 -0.3987569336457896 0.06319006735313697 0.2235127515989389 -0.08622740112004935 0 0 0 0
25207176 -0.3987117708910602 0.06312435050587795 0.223466437088491 -0.08621285349506505 0 0 0 0
25240122 -0.3986247000014174 0.06339452001201833 0.2234615908873157 -0.08647640398998022 0 0 0 0
25273068 -0.39862413142140524 0.06348682362450951 0.22344811811629886 -0.08654371513549258 0 0 0 0
25306014 -0.39878113387381864 0.0632721135425911 0.22335373576153994 -0.08661014367941387 0 0 0 0
25338960 -0.39865934283062926 0.06346254377684095 0.22332946396179204 -0.0867433357694571 0 0 0 0
25371906 -0.3987966962380042 0.06357760140356021 0.22326958855022813 -0.08690888311058792 0 0 0 0
25404852 -0.39862972112775763 0.06382002295416395 0.2231248778442523 -0.08705016722600731 0 0 0 0
25437798 -0.3983990012042165 0.06373675626708501 0.22327611563953512 -0.08705448584545263 0 0 0 0
25470744 -0.3986309099658151 0.06365039760418446 0.2231934128967446 -0.08708614302736702 0 0 0 0
25503690 -0.39865986072178816 0.06395457593123124 0.22294818322011412 -0.08726371118718274 0 0 0 0
25536636 -0.3987242523120127 0.06401943402013244 0.22302230520549574 -0.0874198252760728 0 0 0 0
25569582 -0.39873877313276734 0.0641912426612329 0.22290234261383643 -0.08749039163859283 0 0 0 0
25602528 -0.39863640619864155 0.06427673561711933 0.22291907079260567 -0.08774186405690118 0 0 0 0
25635474 -0.39838031866490353 0.06427112736399763 0.2228029312607955 -0.08778151687986296 0 0 0 0
25668420 -0.3982194056000235 0.06430683625654145 0.22282983229054848 -0.08770495772130822 0 0 0 0
25701366 -0.39848346588413774 0.06413424353109025 0.22280844477266676 -0.08792726414749376 0 0 0 0
25734312 -0.39851694229814344 0.06438266670310192 0.2226771808202861 -0.08797948044666899 0 0 0 0
25767258 -0.39839761721944844 0.06461323732535454 0.22270916368131793 -0.08818169834433624 0 0 0 0
25800204 -0.3982073377291898 0.06467178105294763 0.22262443802944612 -0.08840528193833969 0 0 0 0
25833150 -0.3983340723825511 0.06481393429305231 0.22243246250542079 -0.08836376539540164 0 0 0 0
25866096 -0.39842471681473063 0.06465256782774617 0.22260668086022364 -0.08843783425497267 0 0 0 0
25899042 -0.39849437916658 0.0650039101077563 0.22248743244874397 -0.08863222928357427 0 0 0 0
25931988 -0.3984942208121471 0.06505679644212191 0.22234178372311778 -0.08874571632526115 0 0 0 0
25964934 -0.3983168009647416 0.06516068463660857 0.222477409624138 -0.08881071715370471 0 0 0 0
25997880 -0.3983649532424373 0.06504767659036717 0.22226441390637755 -0.08888831569936322 0 0 0 0
26030826 -0.39837759209604223 0.0652964881045509 0.22229383906694086 -0.08908962797237854 0 0 0 0
26063772 -0.39825505003867495 0.06532984248090425 0.22216499074618218 -0.08923917284507521 0 0 0 0
26096718 -0.39828519303770965 0.06525181233507507 0.2221913329969266 -0.08928525620559048 0 0 0 0
26129664 -0.39800480700991897 0.06552366950144027 0.22214730451741926 -0.08941135899623341 0 0 0 0
26162610 -0.3979525799385573 0.06566511171461856 0.2220242714151041 -0.0893547891113742 0 0 0 0
26195556 -0.398267332247217 0.06566810526349363 0.2220659709057225 -0.08961586396977979 0 0 0 0
26228502 -0.3982292404146484 0.0657556806430903 0.2219253148331301 -0.08965523357754394 0 0 0 0
26261448 -0.3982338027618408 0.06576499547963013 0.22196073810531552 -0.08979498940894078 0 0 0 0
26294394 -0.3981515788954084 0.0659108827749041 0.22187041083844755 -0.08993625711340539 0 0 0 0
26327340 -0.3981257743355562 0.06604473869973469 0.22177870451824924 -0.09009190866550881 0 0 0 0
26360286 -0.39801340621988995 0.06599681820609012 0.22184492771880848 -0.09017432867737676 0 0 0 0
26393232 -0.397965594394827 0.06606966910859884 0.2218900820922898 -0.09021996649030943 0 0 0 0
26426178 -0.3979065946038253 0.06635251958428233 0.22185187042976562 -0.09030645686288015 0 0 0 0
26459124 -0.39795476604547314 0.06631000584721423 0.2216025519608169 -0.09041745660377934 0 0 0 0
26492070 -0.3981994298299335 0.0663989837571944 0.22170504007394426 -0.09057069814973082 0 0 0 0
26525016 -0.398089361604477 0.06631166023687933 0.22154004251262263 -0.09061726842492827 0 0 0 0
26557962 -0.3978090582792306 0.0665311078280571 0.22145898958659688 -0.090833701902988 0 0 0 0
26590908 -0.39822689232924535 0.06655034779204592 0.22141471871501356 -0.09107347033040794 0 0 0 0
26623854 -0.3979408165175223 0.06656687254294626 0.22146108019208638 -0.09096814173021042 0 0 0 0
26656800 -0.3978786948227107 0.0667191044090699 0.22137706737448723 -0.09108519693901047 0 0 0 0
26689746 -0.3979808199984857 0.06667647818457761 0.2212166322402633 -0.09126077682504011 0 0 0 0
26722692 -0.3978784550141903 0.06695387129203556 0.22125678202861898 -0.09124958986667522 0 0 0 0
26755638 -0.39779460021820967 0.06708026503544974 0.22119515891854571 -0.09146777400795886 0 0 0 0
26788584 -0.39801097712687594 0.06711533248946205 0.22124483631041897 -0.09173794759914679 0 0 0 0
26821530 -0.39777382553455437 0.06706380426688885 0.2211132964977456 -0.09157615833757204 0 0 0 0
26854476 -0.3978674217339578 0.06709961907329615 0.22099958573992837 -0.09185854723114845 0 0 0 0
26887422 -0.3978230375678057 0.066990817609961 0.22082864939466362 -0.09182961615096367 0 0 0 0
26920368 -0.3978422252629115 0.06720358131513522 0.22090066370807002 -0.0920432059640762 0 0 0 0
26953314 -0.3978122757308263 0.0677561641668046 0.2208060695693436 -0.09216949241945051 0 0 0 0
26986260 -0.3977349655305492 0.06745077903410797 0.22104000330198284 -0.0921939350753425 0 0 0 0
27019206 -0.39802744950439267 0.06781177090254824 0.22089508550281828 -0.092228590134745 0 0 0 0
27052152 -0.3980613325276407 0.0677344641455405 0.22076175308255677 -0.09231967520232498 0 0 0 0
27085098 -0.3976405647860064 0.06750010116653223 0.2207224477491957 -0.09241271896930862 0 0 0 0
27118044 -0.39787020442620313 0.06770258589433147 0.220716342399562 -0.09260335322294024 0 0 0 0
27150990 -0.3978686081532014 0.06758910209609804 0.22059402966342131 -0.09255938476065755 0 0 0 0
27183936 -0.39779895035045776 0.06812305395531933 0.22059260016342655 -0.09299590335715227 0 0 0 0
27216882 -0.397558896818209 0.06827278435794161 0.22040901969832216 -0.09302777032733077 0 0 0 0
27249828 -0.3976939991781366 0.0679684156038935 0.22056297823987578 -0.09297258470832592 0 0 0 0
27282774 -0.39781681740325503 0.06821787795817877 0.2205467225080671 -0.09303197096610977 0 0 0 0
27315720 -0.39746432433414536 0.06808958925105991 0.22032098550144205 -0.09318020065639128 0 0 0 0
27348666 -0.39738823891477687 0.06828544874107532 0.22031307814275575 -0.09325220907494151 0 0 0 0
27381612 -0.3979048103032322 0.06828328337238629 0.22029090053003447 -0.09343104678098586 0 0 0 0
27414558 -0.39757243920055074 0.0687842490344786 0.22009134852593984 -0.09366321046003649 0 0 0 0
27447504 -0.3974665624053027 0.06851131345553632 0.22020574666077913 -0.09360925156487696 0 0 0 0
27480450 -0.3977590025755536 0.06884011774697076 0.22016818678794686 -0.09366634528485782 0 0 0 0
27513396 -0.3974135225399721 0.06886024675226743 0.2200233188592196 -0.09388228967714485 0 0 0 0
27546342 -0.39771413942243955 0.068857586410122 0.21997985495367892 -0.094006027524609 0 0 0 0
27579288 -0.39753666830293294 0.06920038578752333 0.21992929265281425 -0.09427587961897509 0 0 0 0
27612234 -0.3975692382449949 0.06900836967112764 0.22005677644200586 -0.09427576484341789 0 0 0 0
27645180 -0.3974334002046529 0.06913634701686185 0.21991978302442802 -0.0942653447309631 0 0 0 0
27678126 -0.3977510612313187 0.06915792588075625 0.21977160970929366 -0.09434111627015397 0 0 0 0
27711072 -0.39757385000988643 0.06893843421456967 0.21971194927531754 -0.09436915138850632 0 0 0 0
27744018 -0.39727988007327353 0.06934767990049034 0.21968782731643632 -0.09476599609749983 0 0 0 0
27776964 -0.39765208261479085 0.06962921658965181 0.21976015805154248 -0.0947127457467586 0 0 0 0
27809910 -0.3975679213998347 0.06937073049832554 0.2195910853081611 -0.09476213839607596 0 0 0 0
27842856 -0.39733470530325127 0.06939034114352394 0.2195405826608489 -0.09501373755278304 0 0 0 0
27875802 -0.39724986206095614 0.06961600700750058 0.21936861706617952 -0.09509276776620411 0 0 0 0
27908748 -0.3974408160847699 0.06968104812084153 0.21959433606603143 -0.09512636131599883 0 0 0 0
27941694 -0.3974658291887604 0.07012287401546508 0.21952277002597592 -0.09526456311658232 0 0 0 0
27974640 -0.39756305345181914 0.06996685282543559 0.21926626733149526 -0.09546256732477613 0 0 0 0
28007586 -0.3972600315852478 0.06972687320660212 0.21916861867334284 -0.09547848613237601 0 0 0 0
28040532 -0.39722332860606463 0.07026066465336511 0.21914445700575808 -0.09569360432563799 0 0 0 0
28073478 -0.3969996483001566 0.06995938370693726 0.21917168811245386 -0.09564651074357548 0 0 0 0
28106424 -0.39708776442571186 0.07038019434950454 0.2192332975210199 -0.09570032382892386 0 0 0 0
28139370 -0.3972870808823886 0.0702008693065208 0.2191382411826165 -0.09597675280268902 0 0 0 0
28172316 -0.39724330044691714 0.07013608164234644 0.21898254454263855 -0.09591771628382026 0 0 0 0
28205262 -0.39730249576561294 0.07082265926293191 0.21898853701915044 -0.09640406749005279 0 0 0 0
28238208 -0.39737765103209266 0.07105412537738089 0.21899713818637584 -0.09655077612976731 0 0 0 0
28271154 -0.3971238033721744 0.07078431999900783 0.2190552000714356 -0.09637868619139607 0 0 0 0
28304100 -0.39733312438682566 0.0710310309532675 0.21889049173471106 -0.09645189756168511 0 0 0 0
28337046 -0.3972403846289789 0.07065782535244053 0.21861690663690755 -0.09664650608299091 0 0 0 0
28369992 -0.3973919114282492 0.07083511984685799 0.21874412431063212 -0.09681173485809196 0 0 0 0
28402938 -0.39702683707404657 0.07081002545964193 0.21865942459339205 -0.09670515380174709 0 0 0 0
28435884 -0.3972852867872328 0.07068961558099963 0.21854749492612247 -0.09677904579721448 0 0 0 0
28468830 -0.3971860146670687 0.07126335140646677 0.2186577409049412 -0.09712691838026495 0 0 0 0
28501776 -0.3970174796883396 0.07101672965557615 0.21851836336216265 -0.09692889426264982 0 0 0 0
28534722 -0.3970238393966599 0.07141180913089444 0.21851026712553803 -0.09706699899126194 0 0 0 0
28567668 -0.39738032497604464 0.07134755364910983 0.2184798904288459 -0.09739187113954192 0 0 0 0
28600614 -0.39695395198062716 0.0716449529613557 0.2183627226414423 -0.097656779436117 0 0 0 0
28633560 -0.39714506535191285 0.07152183609189137 0.21845872210800613 -0.09745255959650584 0 0 0 0
28666506 -0.39669036889014814 0.07135872008487579 0.2182224805640894 -0.09756472334538807 0 0 0 0
28699452 -0.39723387710114366 0.07162466688236557 0.21812477288845214 -0.09760782457697154 0 0 0 0
28732398 -0.3969238945245016 0.07191166013759998 0.21805142657101415 -0.0979999959569183 0 0 0 0
28765344 -0.39660753144699756 0.07184958089681764 0.21797901494198196 -0.09791810283910865 0 0 0 0
28798290 -0.39714863913631315 0.07226886890424454 0.21824761875962462 -0.09809949433499769 0 0 0 0
28831236 -0.39706274518822265 0.07181662045564696 0.2179443768679618 -0.0981549389219252 0 0 0 0
28864182 -0.3969437070602626 0.07207862588049575 0.2178643524805312 -0.09834235334693156 0 0 0 0
28897128 -0.3965575413057083 0.07210889740945989 0.21773632969886553 -0.09834660155057988 0 0 0 0
28930074 -0.39683145653691015 0.07225425221415914 0.2177885651130603 -0.09845517559137032 0 0 0 0
28963020 -0.3969018664416688 0.0722426668585856 0.21776408472468614 -0.09868084796925712 0 0 0 0
28995966 -0.3969824560848616 0.07221324370629863 0.21769099120907556 -0.09854194776489097 0 0 0 0
29028912 -0.39679246943587326 0.07246105269686874 0.21767100804625694 -0.0987371816392856 0 0 0 0
29061858 -0.39659816701428463 0.07243911556486168 0.2175520557530629 -0.09887706498417626 0 0 0 0
29094804 -0.39686536974653175 0.07282587689990308 0.2176219736304482 -0.0989927500373121 0 0 0 0
29127750 -0.3965619067104389 0.07255728413252739 0.2175502903348309 -0.09897358178765292 0 0 0 0
29160696 -0.39693428303617584 0.07273091709753032 0.21741198914875184 -0.09918023839093458 0 0 0 0
29193642 -0.3967476765175104 0.0731666196411422 0.21744850880818653 -0.09966213225002202 0 0 0 0
29226588 -0.39678009371596373 0.07316268366452652 0.21757801220825668 -0.09957902786737675 0 0 0 0
29259534 -0.39662007505759844 0.07312942596921351 0.21732064383256344 -0.09964755812176335 0 0 0 0
29292480 -0.39678327454179674 0.07302653579378508 0.21722272640773163 -0.09962893531693964 0 0 0 0
29325426 -0.3966646250543551 0.07287743585227238 0.2171052740982754 -0.09966383579105127 0 0 0 0
29358372 -0.39651385092580677 0.07337430285678762 0.21701243591901162 -0.099973385072916 0 0 0 0
29391318 -0.39646295881837235 0.07324209708893502 0.21706287316998732 -0.09990493910930406 0 0 0 0
29424264 -0.3965329997415434 0.07344335970722071 0.2170844646563526 -0.0999735212838129 0 0 0 0
29457210 -0.39667175984625225 0.07354458938143364 0.2171460599902737 -0.10021185709771903 0 0 0 0
29490156 -0.396308784627345 0.07351120038294703 0.21674376355386607 -0.10023164241216827 0 0 0 0
29523102 -0.3967426212823458 0.07353900822192952 0.216854820346623 -0.10043767173811796 0 0 0 0
29556048 -0.39674110283830066 0.07363124301173611 0.21681515279030167 -0.10042427964000948 0 0 0 0
29588994 -0.3964945332920703 0.0739502602805838 0.21666163969635072 -0.10062847366783988 0 0 0 0
29621940 -0.39649557698023186 0.07395727510170264 0.21657524102958683 -0.10068090520077373 0 0 0 0
29654886 -0.396609532735897 0.07419639924503771 0.21685708355669214 -0.10085714824085654 0 0 0 0
29687832 -0.3965532071278116 0.07416099713786276 0.21659908359270083 -0.10098055603374455 0 0 0 0
29720778 -0.3965353446823382 0.07438343720014011 0.2165097923521798 -0.10119469124339565 0 0 0 0
29753724 -0.39619078404507424 0.07462454922569833 0.21641612219010786 -0.1012786008609052 0 0 0 0
29786670 -0.3962482337854745 0.07431263487073955 0.21655705099548594 -0.10127945059436601 0 0 0 0
29819616 -0.39662823555070525 0.07425507979638175 0.21640189361853562 -0.10137349363956011 0 0 0 0
29852562 -0.3963749487764009 0.07434442115544547 0.21633209275310183 -0.10130240892709033 0 0 0 0
29885508 -0.39610135087931114 0.07455812778176281 0.2161294981149427 -0.1014973841424689 0 0 0 0
29918454 -0.3962888377959406 0.07458328104426423 0.2162524287192678 -0.10156602385184485 0 0 0 0
29951400 -0.39628981943774183 0.07483048590612844 0.216274631882066 -0.10178679126052671 0 0 0 0
29984346 -0.39643345405135594 0.07485175495711296 0.21604473538430743 -0.10190381754092033 0 0 0 0
30017292 -0.3961467058018846 0.07452508667511766 0.215986697202325 -0.10174957109777483 0 0 0 0
30050238 -0.3960494900852931 0.07495130053824843 0.21588575473746893 -0.10208978398321247 0 0 0 0
30083184 -0.3962531365568636 0.07498666084271519 0.2159465962285157 -0.1020848609021065 0 0 0 0
30116130 -0.3963767140199244 0.07536622913207068 0.21599341283313037 -0.10226138336123346 0 0 0 0
30149076 -0.39611687016763564 0.0752950599281193 0.21595754925565705 -0.10236494892408254 0 0 0 0
30182022 -0.3964696003233191 0.07530667930893353 0.2158535140912689 -0.10259701057510931 0 0 0 0
30214968 -0.3963694715352644 0.07542866458463553 0.21565605749745273 -0.10248959826361906 0 0 0 0
30247914 -0.3959175838925313 0.0755668846370801 0.21568970692069522 -0.10281891750968544 0 0 0 0
30280860 -0.39634661141832545 0.07580164270723654 0.2157569052881852 -0.10284428763156382 0 0 0 0
30313806 -0.3960783253027592 0.07552960380155639 0.21573071452734766 -0.10288966381788145 0 0 0 0
30346752 -0.39579975946803575 0.07551869729521091 0.21542525215868202 -0.10290364976828957 0 0 0 0
30379698 -0.39623026305532666 0.07573407907677462 0.2154540570790134 -0.10309482792271604 0 0 0 0
30412644 -0.39618385275164625 0.07569158718196495 0.21548889128643336 -0.10336830485477032 0 0 0 0
30445590 -0.39594334836679906 0.07613983339949985 0.21530314044859708 -0.10356447490509793 0 0 0 0
30478536 -0.3958088868641505 0.07594625909750345 0.21518408713857134 -0.10347078879333899 0 0 0 0
30511482 -0.3959196191997636 0.07608294308898915 0.21531815834315254 -0.10350322555102498 0 0 0 0
30544428 -0.3958580053685413 0.07611126199421561 0.2152658391381141 -0.10370820795254994 0 0 0 0
30577374 -0.39582098331239995 0.0760428933830793 0.2150058760028449 -0.10361163118819482 0 0 0 0
30610320 -0.3961607102566397 0.07638153422473878 0.2150419334825191 -0.10390203305187726 0 0 0 0
30643266 -0.3960471340853922 0.0762346307703204 0.21493357695495072 -0.10378409593691795 0 0 0 0
30676212 -0.3959611622290019 0.07623483380721507 0.21493592000228634 -0.10400040021609623 0 0 0 0
30709158 -0.3957906190603532 0.07665394463471253 0.2148562605114843 -0.10420423684561968 0 0 0 0
30742104 -0.3957930995949893 0.07661972829229628 0.214810164173757 -0.10421741647321987 0 0 0 0
30775050 -0.39592299858970714 0.07685678132527236 0.21483028539725052 -0.10429393495636356 0 0 0 0
30807996 -0.3958525144422714 0.07699621109359407 0.21491164046037597 -0.10453129989438405 0 0 0 0
30840942 -0.3957446561997777 0.07690596377433166 0.21473610053885012 -0.1045694188286772 0 0 0 0
30873888 -0.3955289966502773 0.07682353662271749 0.21449556249707524 -0.10457228209658187 0 0 0 0
30906834 -0.3956187750012274 0.07704791726628717 0.2144674082112509 -0.10467248778288406 0 0 0 0
30939780 -0.3956353889071502 0.07714693429073899 0.2145522765710708 -0.10486975723108588 0 0 0 0
30972726 -0.39563910425263077 0.0773387268198263 0.21455431989691628 -0.1049738025867331 0 0 0 0
31005672 -0.3955150204554249 0.0770248472367783 0.21437394223556544 -0.10502249179520909 0 0 0 0
31038618 -0.3960328256134356 0.07740348220886002 0.21437516974119344 -0.10524125566132242 0 0 0 0
31071564 -0.3956180621452 0.07760236214257552 0.21416984452807894 -0.10548557666401982 0 0 0 0
31104510 -0.3955972636603335 0.07762675182426798 0.21427220431286348 -0.10539258645371836 0 0 0 0
31137456 -0.3956898128800435 0.07791468898476402 0.2144038099558947 -0.10557472419621028 0 0 0 0
31170402 -0.3955970783892911 0.07759711738119981 0.21409304284338715 -0.10554604917867484 0 0 0 0
31203348 -0.39570152378760487 0.07777870910905525 0.2140522386451903 -0.1054774857230847 0 0 0 0
31236294 -0.395559281402346 0.07792394028223201 0.2139880680995644 -0.10579653352396605 0 0 0 0
31269240 -0.3955301129892612 0.07795298704249767 0.2140935269896682 -0.10595971491056155 0 0 0 0
31302186 -0.3953802181010429 0.07786283035953283 0.21372431733002356 -0.10590844535833441 0 0 0 0
31335132 -0.39541306010837635 0.078276562432319 0.21380976056374437 -0.10617432195252546 0 0 0 0
31368078 -0.395585421120812 0.0782285993668814 0.21381293032648985 -0.10617689117713544 0 0 0 0
31401024 -0.3955017317410799 0.07827508277466583 0.2138703202586343 -0.10622682019981511 0 0 0 0
31433970 -0.3954350920772252 0.07819021115615479 0.21355805795771515 -0.10634258060461056 0 0 0 0
31466916 -0.39545185573275526 0.07819400287709712 0.21352409730086444 -0.10646109405453497 0 0 0 0
31499862 -0.39535772461293894 0.07847237280735794 0.21351725009705425 -0.10659407743691697 0 0 0 0
31532808 -0.39556425002530615 0.07874766352426411 0.21355891231452598 -0.10682851165439829 0 0 0 0
31565754 -0.3951824322457938 0.07846270601124465 0.2133537562708823 -0.10669393051767094 0 0 0 0
31598700 -0.39554785940963644 0.07860257608842487 0.21347922135741157 -0.10708482611786621 0 0 0 0
31631646 -0.39528912944383937 0.07894495789746357 0.21326875791573666 -0.10729321767394984 0 0 0 0
31664592 -0.3953621236022871 0.07899358788477495 0.21329188487869363 -0.10717734738006014 0 0 0 0
31697538 -0.3952607996018136 0.07895628006749936 0.21331471436128 -0.10739058704792076 0 0 0 0
31730484 -0.3952215664540465 0.07902097945418349 0.21300538694288468 -0.10737662283628152 0 0 0 0
31763430 -0.3954393674302487 0.07896242047865101 0.21302450843870205 -0.10736671664913514 0 0 0 0
31796376 -0.39515471802938423 0.07946879935328016 0.21310096597892644 -0.1077553145073731 0 0 0 0
31829322 -0.3953220246349707 0.07941045060629168 0.21307397884141244 -0.10763386319651946 0 0 0 0
31862268 -0.39503187639805076 0.07908761660887065 0.2129144741664283 -0.10765168810074337 0 0 0 0
31895214 -0.3954248891180607 0.07938901304463782 0.21285028325246716 -0.10798419103130111 0 0 0 0
31928160 -0.39548087696202333 0.07931483425054862 0.2128155756012617 -0.10809490398634485 0 0 0 0
31961106 -0.3951365193769871 0.07967900656735473 0.2126772334425285 -0.10806131584707326 0 0 0 0
31994052 -0.39506840043222524 0.07962457742573281 0.2125810194380159 -0.1081359292255933 0 0 0 0
32026998 -0.39517865231816424 0.07983532633440008 0.21266414872097247 -0.10842533473750225 0 0 0 0
32059944 -0.39496388580867764 0.07993882532318954 0.2126768938771161 -0.10836095065339287 0 0 0 0
32092890 -0.3950866610235106 0.07995143249557507 0.2125884467303114 -0.10854427394817537 0 0 0 0
32125836 -0.3954756540441318 0.08000618331207121 0.2125341666171958 -0.10868825157042857 0 0 0 0
32158782 -0.39509958743329165 0.08031679624474061 0.21244192962167038 -0.10878494183165034 0 0 0 0
32191728 -0.3948467497513897 0.08033914268977838 0.21230505246691095 -0.10876302377729506 0 0 0 0
32224674 -0.39488290762242445 0.08036988714658742 0.21230199791153564 -0.10897859548809484 0 0 0 0
32257620 -0.3947768769998002 0.08024651165001333 0.21215568350244216 -0.10895094164493754 0 0 0 0
32290566 -0.3950930817386845 0.08028525376910849 0.21216060529476394 -0.10912880420995158 0 0 0 0
32323512 -0.3947764775341581 0.0805968436819175 0.21203345544150679 -0.1092559990491075 0 0 0 0
32356458 -0.3948782679602099 0.08072540217312411 0.21210653981275937 -0.10928435829385888 0 0 0 0
32389404 -0.3949448565399157 0.08065742180961491 0.21192587702286236 -0.10933367929810306 0 0 0 0
32422350 -0.39510613791860805 0.08077472908228381 0.2119596566487992 -0.10958418405247988 0 0 0 0
32455296 -0.3950145115777125 0.08058624736203221 0.21194328737262816 -0.10958639836050404 0 0 0 0
32488242 -0.3949509525001765 0.08107140561338283 0.21185221838094956 -0.10984796925380506 0 0 0 0
32521188 -0.3948436789743106 0.08116354365592197 0.21181416081621363 -0.10978864390455878 0 0 0 0
32554134 -0.3948134798103149 0.08107987877795059 0.21174520876504158 -0.10987692731401479 0 0 0 0
32587080 -0.39497123315073984 0.08109627660418633 0.21182338619374325 -0.11008107220796869 0 0 0 0
32620026 -0.39487208207518365 0.08119993215727579 0.21156090882982836 -0.1101576821477126 0 0 0 0
32652972 -0.3947503977820113 0.08116716278928508 0.21144746681146692 -0.11008096645639201 0 0 0 0
32685918 -0.3949501488843859 0.0812681378964537 0.21152457894843255 -0.11037624643069738 0 0 0 0
32718864 -0.39475906093756874 0.08128508124173851 0.2113997442189166 -0.11035025070943279 0 0 0 0
32751810 -0.3947164031472965 0.08158706794960179 0.21134351238609705 -0.11053362722352356 0 0 0 0
32784756 -0.3948798362534798 0.08163244453910144 0.21143033694772156 -0.11072259848577523 0 0 0 0
32817702 -0.394491743699666 0.08137415399482131 0.2110613562705416 -0.11060949342729534 0 0 0 0
32850648 -0.3947068075574118 0.08159699402318081 0.21117505152317148 -0.11089703624568471 0 0 0 0
32883594 -0.39440699499498094 0.08193254312593538 0.21110826016928286 -0.11095526918536236 0 0 0 0
32916540 -0.39464217611124863 0.08206065049249057 0.21112295341129916 -0.11114447267247167 0 0 0 0
32949486 -0.3947672194157878 0.08210060683065053 0.21107076121952326 -0.11112904638481379 0 0 0 0
32982432 -0.3945382383048483 0.08204092502811908 0.210957691651438 -0.11130202357983876 0 0 0 0
33015378 -0.3943514252484758 0.08203653539663484 0.21082716891442924 -0.111336435782018 0 0 0 0
33048324 -0.3947336386196746 0.08212289467392908 0.21094736458059526 -0.11144510159385349 0 0 0 0
33081270 -0.39443126866808875 0.0825932360053316 0.210769179142985 -0.11164111085483887 0 0 0 0
33114216 -0.3943784492730664 0.08262787409819694 0.21075034306509466 -0.11162807013375117 0 0 0 0
33147162 -0.3944338759441945 0.0825655179102543 0.2106009581402458 -0.11169160440221829 0 0 0 0
33180108 -0.3943538586783325 0.08243663219959455 0.2105799225507303 -0.11182683734971365 0 0 0 0
33213054 -0.3947538468802747 0.08272836232103677 0.2104375235652195 -0.11199445339063534 0 0 0 0
33246000 -0.3946385286234 0.08279315749708342 0.21050453495700375 -0.11215830072897884 0 0 0 0
33278946 -0.39428139804840323 0.08285425285574331 0.2103747944976489 -0.11210345215863689 0 0 0 0
33311892 -0.39433520854971343 0.08310504744315267 0.21034697150579787 -0.11226951058301038 0 0 0 0
33344838 -0.3943696787940286 0.08325398021727269 0.21025445266671852 -0.11240305026960999 0 0 0 0
33377784 -0.39440253661765506 0.0833469770416691 0.21022423712736008 -0.11257922612187073 0 0 0 0
33410730 -0.3944163078562909 0.08319046869330278 0.2103669506274022 -0.11267370550784035 0 0 0 0
33443676 -0.394363999995375 0.08319557673025453 0.21016278561906082 -0.11279473365979348 0 0 0 0
33476622 -0.3943027775404722 0.08337381673457733 0.20994007862179614 -0.11274303620099085 0 0 0 0
33509568 -0.3945198355439801 0.08350391673170905 0.21010864138206373 -0.11296154398261493 0 0 0 0
33542514 -0.3940475738837153 0.08335839710800758 0.20995106246171383 -0.1129354770529752 0 0 0 0
33575460 -0.3943531799298657 0.08364508186550035 0.20986137039964214 -0.11313283758817395 0 0 0 0
33608406 -0.39428687297331816 0.08344609879977513 0.20986402884062358 -0.11307217663593115 0 0 0 0
33641352 -0.3942129835160056 0.08364131147598237 0.2098074472755412 -0.11340654778027898 0 0 0 0
33674298 -0.3943588151339392 0.08380744852852869 0.209675311248851 -0.11340344607140652 0 0 0 0
33707244 -0.39395031542541414 0.08388516453344345 0.20956670886500559 -0.11346563210962529 0 0 0 0
33740190 -0.3939376570911511 0.08416826452256673 0.2095035164820767 -0.11363498890646427 0 0 0 0
33773136 -0.39417216021183343 0.08405392729818213 0.20960338118622587 -0.11361307417774413 0 0 0 0
33806082 -0.39403211515642145 0.08374660593321463 0.20943951371638103 -0.11381601438584117 0 0 0 0
33839028 -0.3941874304751418 0.08426963972979458 0.2093208910233698 -0.11397791201676435 0 0 0 0
33871974 -0.39422277656662214 0.08428771889533071 0.2093747724229885 -0.11391385808722572 0 0 0 0
33904920 -0.39409445456678904 0.08428094929680742 0.20928228001806642 -0.11421716729820659 0 0 0 0
33937866 -0.393912851265282 0.0845291825370145 0.2093916497781914 -0.11407104364146292 0 0 0 0
33970812 -0.39380674342787264 0.08427771501483317 0.20903007215606623 -0.11415958364763092 0 0 0 0
34003758 -0.39416367948197223 0.08472264647711213 0.20915496961496038 -0.11447233888750195 0 0 0 0
34036704 -0.39390063161553096 0.08463990660293691 0.20898126625063881 -0.11445230239312734 0 0 0 0
34069650 -0.39393834628266455 0.08457128504701054 0.209015914948637 -0.1145765092156176 0 0 0 0
34102596 -0.3940198093330333 0.08494814362487835 0.20885715009672437 -0.11463030410372509 0 0 0 0
34135542 -0.3938194973383432 0.08499748153978826 0.208862411884795 -0.1148891704825836 0 0 0 0
34168488 -0.3938933669681759 0.08507038075915196 0.2088274656014717 -0.11486195641910969 0 0 0 0
34201434 -0.39381903587319816 0.0848042102977274 0.20871862583292847 -0.11511505783142277 0 0 0 0
34234380 -0.3942549182463358 0.08504449715184051 0.20881966882689484 -0.11514214244330202 0 0 0 0
34267326 -0.39390737893134553 0.08531314257136488 0.20860319124529483 -0.1151026532320323 0 0 0 0
34300272 -0.3938524015868881 0.08519613297873042 0.20863630529749358 -0.11531468344371776 0 0 0 0
34333218 -0.39377880445546853 0.08542327433042574 0.20841029806855385 -0.11534314767593855 0 0 0 0
34366164 -0.39391955020920966 0.08563022571848879 0.20856345593518313 -0.1156577950273649 0 0 0 0
34399110 -0.3939109719448549 0.08567318857838475 0.20850243666911253 -0.11581107199736985 0 0 0 0
34432056 -0.39364335172705006 0.08573036262135661 0.2083160958408435 -0.11566516131820949 0 0 0 0
34465002 -0.39386179492250734 0.08570503067760916 0.2083479197339573 -0.11575526224287613 0 0 0 0
34497948 -0.39357313551800027 0.08553877186810202 0.20814500666723618 -0.11588478565931294 0 0 0 0
34530894 -0.39367437010761297 0.08571870245349374 0.20800944264726157 -0.11591666105071387 0 0 0 0
34563840 -0.393640605806632 0.08601838055859011 0.20792867883195287 -0.11608128093173264 0 0 0 0
34596786 -0.39358706061976384 0.08588180395215195 0.20790951675077002 -0.11614935586595683 0 0 0 0
34629732 -0.3935912008977513 0.08614000918031184 0.20795185642325892 -0.11636465688754814 0 0 0 0
34662678 -0.3936956288165773 0.08629012321163083 0.20786947022467392 -0.11637684900683301 0 0 0 0
34695624 -0.3937474451473732 0.08612942939740983 0.20792210132123917 -0.11639165384191065 0 0 0 0
34728570 -0.39370458113513496 0.08615649321249666 0.20782357993934464 -0.11677862231146266 0 0 0 0
34761516 -0.39344260034013395 0.0863029903250261 0.2076421793670213 -0.11659477894963044 0 0 0 0
34794462 -0.39374282694031343 0.08653326080284453 0.2077744501659797 -0.11694699447547656 0 0 0 0
34827408 -0.3933914474743182 0.08658781256667901 0.2075587958010279 -0.11679641526565047 0 0 0 0
34860354 -0.39363036995622597 0.08689671783993198 0.20749148710563478 -0.1170592563081708 0 0 0 0
34893300 -0.3935866230413878 0.08703879357741634 0.20741344528973044 -0.11719616570488228 0 0 0 0
34926246 -0.3935235681225747 0.08708278681678812 0.2074226035283327 -0.1171426860428014 0 0 0 0
34959192 -0.3933277314752198 0.0866743233064972 0.20732127907715783 -0.11721781679425174 0 0 0 0
34992138 -0.3933906783339827 0.0869507559511577 0.20713506405409973 -0.11738702857537121 0 0 0 0
35025084 -0.3934744750459725 0.08714241207433196 0.20729238310951995 -0.11735822972671342 0 0 0 0
35058030 -0.3934408255853689 0.08748565462403798 0.20710517467656347 -0.11750293712857955 0 0 0 0
35090976 -0.3933441968340294 0.08708686477674392 0.2071513374016554 -0.11762327654928949 0 0 0 0
35123922 -0.39329555571350017 0.0873541631563506 0.2069437159698195 -0.117776947197874 0 0 0 0
35156868 -0.39345691052327786 0.08752433795712489 0.20695926992130426 -0.11803286703338098 0 0 0 0
35189814 -0.39327006569951145 0.08748850448818848 0.20680105748829483 -0.11799571167053663 0 0 0 0
35222760 -0.39328736619331134 0.08793406207159585 0.20683630403214937 -0.11825983210833477 0 0 0 0
35255706 -0.3934631032839582 0.08781997024999091 0.20666383740797328 -0.11826338919665554 0 0 0 0
35288652 -0.3934265057097724 0.08777023315240234 0.2067087384964247 -0.11839283902893905 0 0 0 0
35321598 -0.39342303696231123 0.08795027548273394 0.2067540124829646 -0.1184200380940894 0 0 0 0
35354544 -0.3932918055294586 0.08835156868372084 0.20667481866123666 -0.1186994173170771 0 0 0 0
35387490 -0.39345347925523944 0.0881130659079071 0.20654320401517368 -0.11856347660810773 0 0 0 0
35420436 -0.3932450440644233 0.08796205795426902 0.20641822320201908 -0.11873308174524114 0 0 0 0
35453382 -0.39337832683333773 0.08843042486440052 0.20642623011493053 -0.11897019333796144 0 0 0 0
35486328 -0.3932205856873986 0.08827851811814169 0.20634632741425413 -0.11888433352445878 0 0 0 0
35519274 -0.3930487395433284 0.08808734507119581 0.206389545626235 -0.11899176809368807 0 0 0 0
35552220 -0.39328012192085327 0.08823767852290103 0.20631481271186258 -0.11913449275991576 0 0 0 0
35585166 -0.3929872677587752 0.0885379443521913 0.2060264923154575 -0.11914199478315438 0 0 0 0
35618112 -0.39315835475898414 0.08890034160855033 0.2061351781988011 -0.11936807737721405 0 0 0 0
35651058 -0.3932235881943517 0.0884566058894215 0.20608427801765777 -0.11945167116254088 0 0 0 0
35684004 -0.39304808061270835 0.08844479528951582 0.20594738198272775 -0.11946264217191684 0 0 0 0
35716950 -0.39298636025355055 0.0887207913267347 0.20569695485548656 -0.11944995447299123 0 0 0 0
35749896 -0.3928095702927569 0.0888536728856565 0.20583695313387917 -0.11969554677293788 0 0 0 0
35782842 -0.3929941661899865 0.08912799627801675 0.205796707243843 -0.11991550891260955 0 0 0 0
35815788 -0.39291338695433176 0.08913406178360007 0.20571738942946785 -0.11975552595525542 0 0 0 0
35848734 -0.3931202215828943 0.08894536242577966 0.20567264511354003 -0.11996219073119493 0 0 0 0
35881680 -0.3929553905750442 0.08920510605445932 0.20549033884953244 -0.12000497641343885 0 0 0 0
35914626 -0.3928773170121851 0.08931379119631738 0.20556598057167233 -0.12041243189221514 0 0 0 0
35947572 -0.39284990694908034 0.08951295433799332 0.20548653857767304 -0.12025036301717185 0 0 0 0
35980518 -0.3928558517281529 0.089607690045445 0.20540939720342521 -0.12032965390009112 0 0 0 0
36013464 -0.3928649935288786 0.08975354353160124 0.20539096837085372 -0.12058766030839572 0 0 0 0
36046410 -0.39281467855695873 0.08921402120590322 0.20529740059060103 -0.12049027651128512 0 0 0 0
36079356 -0.39269641682782447 0.08962681656612223 0.20530222640195098 -0.12080890547088265 0 0 0 0
36112302 -0.3925571669894838 0.08971644186397723 0.205050818537782 -0.12071171400601409 0 0 0 0
36145248 -0.3925622568541488 0.08997091733843932 0.20495506042064426 -0.1208793872496629 0 0 0 0
36178194 -0.3927154206322853 0.08998831865242297 0.20507264596630698 -0.12091645241607794 0 0 0 0
36211140 -0.3929721213495293 0.09029362758806156 0.20498428880902936 -0.1210261545454153 0 0 0 0
36244086 -0.39260452724061173 0.08978773382117054 0.20498806285003698 -0.12117080966771206 0 0 0 0
36277032 -0.39287634350757766 0.08979534554974146 0.20485761444001227 -0.12132067078204624 0 0 0 0
36309978 -0.3927780263059357 0.09036689739294156 0.20488626818771624 -0.12153440950201856 0 0 0 0
36342924 -0.39280153752310243 0.0905277605096264 0.2047745661994975 -0.1215594523591609 0 0 0 0
36375870 -0.39280243479987387 0.09081237146953239 0.20468707814116835 -0.12158285099780294 0 0 0 0
36408816 -0.39290145212746064 0.09040952522360633 0.2046264324981691 -0.1216545141828426 0 0 0 0
36441762 -0.3922309874019114 0.09029631332315166 0.20438782106295134 -0.12157867252126932 0 0 0 0
36474708 -0.3925520048763018 0.0907212402700593 0.20446282890800643 -0.12196120589907672 0 0 0 0
36507654 -0.3924870669990829 0.09074915325035189 0.2043892397482113 -0.1218037968116363 0 0 0 0
36540600 -0.3923364727930291 0.09103121989849117 0.2043249123107984 -0.12202331723081161 0 0 0 0
36573546 -0.3924646013770726 0.09115852358948483 0.20425378811395928 -0.12224573233191433 0 0 0 0
36606492 -0.39223464408083225 0.09064390701577743 0.20420636306793102 -0.12220570644857302 0 0 0 0
36639438 -0.3924366999823107 0.09060210699074875 0.2041787569790965 -0.12247828472718447 0 0 0 0
36672384 -0.3921998914799026 0.09091096151002866 0.20409358700052666 -0.12238948238809726 0 0 0 0
36705330 -0.3921743090193452 0.09129205049297912 0.20399337396122516 -0.12265016904650156 0 0 0 0
36738276 -0.39213381146862636 0.09132405139060454 0.20396363544381083 -0.12252382849556591 0 0 0 0
36771222 -0.39245298487152747 0.09151674669146884 0.20395557876439704 -0.12277794454005929 0 0 0 0
36804168 -0.3925120179677118 0.09126756485705596 0.20380209146165942 -0.12290890813081724 0 0 0 0
36837114 -0.39253386629962 0.09140982151302354 0.20380132611969626 -0.12319190480526848 0 0 0 0
36870060 -0.3923997805717705 0.09200642627609824 0.20378509099912107 -0.12307800224275124 0 0 0 0
36903006 -0.39222952744915895 0.0913654939386403 0.20361212602055037 -0.12302874434400617 0 0 0 0
36935952 -0.3922852438662053 0.09184641346289843 0.2034742603408657 -0.12319752385766522 0 0 0 0
36968898 -0.3923080040024151 0.09182002852832204 0.20354096895304022 -0.12349861006540712 0 0 0 0
37001844 -0.39207474092281314 0.0919793718372712 0.20341130300547067 -0.12346415222637946 0 0 0 0
37034790 -0.39221953485878513 0.09213879170640642 0.20349047505377185 -0.12341043887650005 0 0 0 0
37067736 -0.39205368325727125 0.09176099716043884 0.20318167519540156 -0.12349253951480389 0 0 0 0
37100682 -0.39232678129544174 0.09221185481387292 0.20327426063255996 -0.12377708414078155 0 0 0 0
37133628 -0.3921554490394794 0.09234848609104569 0.2031562150899358 -0.12391758951015806 0 0 0 0
37166574 -0.3921159050187537 0.09247434135921974 0.20316808746386622 -0.12379127296983193 0 0 0 0
37199520 -0.39217216610641925 0.09259403836981543 0.20297583922107346 -0.12409299374246471 0 0 0 0
37232466 -0.39215441482537117 0.09224599914947765 0.2030464121297421 -0.12405622729788178 0 0 0 0
37265412 -0.392093517264259 0.09271180469805834 0.20287889983327925 -0.1243140139742615 0 0 0 0
37298358 -0.3920354103923103 0.09283766362009742 0.2027758280786708 -0.12431893790197604 0 0 0 0
37331304 -0.39199516721084726 0.09298838120793518 0.2027847169840451 -0.12447893192057441 0 0 0 0
37364250 -0.39208335845234604 0.0930600688637004 0.20269455534030228 -0.12451058157209047 0 0 0 0
37397196 -0.39213841102415786 0.09277154387562372 0.20269616755300576 -0.12473121679508997 0 0 0 0
37430142 -0.3916701488729919 0.09306861982748393 0.20252787838793884 -0.124688448590508 0 0 0 0
37463088 -0.3918876299009452 0.09310625907994811 0.2025617791435391 -0.12478975543791615 0 0 0 0
37496034 -0.39188292214768694 0.09329533186038612 0.20235758343087457 -0.12465605734411603 0 0 0 0
37528980 -0.3918455335996718 0.09350908477474207 0.20249151003809673 -0.12493085740458625 0 0 0 0
37561926 -0.3918152609119204 0.09343539843186505 0.2022817948980843 -0.12511635225283677 0 0 0 0
37594872 -0.3920044073648248 0.09330934558394381 0.2022540231982354 -0.12515387281773568 0 0 0 0
37627818 -0.3919093270407846 0.09332915958752735 0.20225024615277168 -0.12531370867574337 0 0 0 0
37660764 -0.39161479128675175 0.09342689386980732 0.20216219129011234 -0.12544737474103385 0 0 0 0
37693710 -0.39176618871235686 0.09375655761745368 0.20202965178126364 -0.12527148964816098 0 0 0 0
37726656 -0.3916623430931194 0.09384277963924581 0.20198173235087438 -0.12561187605886562 0 0 0 0
37759602 -0.3917262284867887 0.09370352122940877 0.2018506797920876 -0.12564752220623715 0 0 0 0
37792548 -0.3918650674679147 0.09364383518700957 0.20184032461131954 -0.12576027863357192 0 0 0 0
37825494 -0.3917617276773029 0.09413411425195911 0.20179549508157693 -0.12591662666128955 0 0 0 0
37858440 -0.39169272959250095 0.09400579641195828 0.20153015630815355 -0.12591658805471767 0 0 0 0
37891386 -0.39156857959002284 0.09421270468490706 0.20156389358541818 -0.12603595547708546 0 0 0 0
37924332 -0.39148023770086166 0.09431955206416857 0.20154827510094572 -0.12621646793639021 0 0 0 0
37957278 -0.3917804939878523 0.09428376653640115 0.20143436107487675 -0.1261275433692973 0 0 0 0
37990224 -0.39166587831470584 0.09415656938432997 0.20152857169696467 -0.1263964845105825 0 0 0 0
38023170 -0.39169452679903827 0.09435832294172783 0.20139268053751477 -0.12640701066584142 0 0 0 0
38056116 -0.39149843672659446 0.09478020513781725 0.20119988321808296 -0.1265873422596779 0 0 0 0
38089062 -0.39148889966744577 0.09465171154467114 0.20110927520678196 -0.12673174955528582 0 0 0 0
38122008 -0.3914079520207228 0.0948911299582288 0.20114340262635955 -0.12676772796178112 0 0 0 0
38154954 -0.39146211725880925 0.09502886871005924 0.20116545580250275 -0.12683501572101075 0 0 0 0
38187900 -0.39158686102842305 0.09501297642531133 0.2012560588042626 -0.1269220635194788 0 0 0 0
38220846 -0.39148520930506847 0.09513732987230085 0.2010057561956243 -0.127056884683785 0 0 0 0
38253792 -0.39146152710230253 0.09515600165797333 0.20098564211901374 -0.12709695557604572 0 0 0 0
38286738 -0.39124817202888046 0.09511342703160555 0.200752136189195 -0.12720511871700743 0 0 0 0
38319684 -0.39126865148231565 0.09517327203097277 0.20063079377458914 -0.12723803707792367 0 0 0 0
38352630 -0.39156375351072165 0.09524714503784866 0.20054817370508085 -0.12745878387317158 0 0 0 0
38385576 -0.39145776996183906 0.09505288086172188 0.20060909433596397 -0.12751135555857349 0 0 0 0
38418522 -0.39150762432681135 0.09521672365707294 0.2006643101963652 -0.12763765233079183 0 0 0 0
38451468 -0.3912962409333335 0.09540946787035129 0.20036724730333078 -0.12764168113031907 0 0 0 0
38484414 -0.3912240722143426 0.095590069073741 0.20044095704536086 -0.12767151385352885 0 0 0 0
38517360 -0.3910583659449291 0.09570401904111143 0.20031998450713973 -0.12789116858772587 0 0 0 0
38550306 -0.39141276828532656 0.0954757112587486 0.20034736412042858 -0.1280736295374831 0 0 0 0
38583252 -0.3909990850019991 0.09600892043052747 0.20025137485381952 -0.1280907958217305 0 0 0 0
38616198 -0.3911680892286293 0.09606955936260404 0.20022951793398439 -0.128086521496673 0 0 0 0
38649144 -0.39114010362534235 0.09590112329861836 0.20014730826271804 -0.12836969234674386 0 0 0 0
38682090 -0.3911096368655676 0.09587869314734224 0.20000973096256713 -0.12831808731770927 0 0 0 0
38715036 -0.39126885823842394 0.0961070303612719 0.19995504638724115 -0.128456128296616 0 0 0 0
38747982 -0.3908522216175151 0.09625021634957304 0.19993820490661943 -0.12852392468066504 0 0 0 0
38780928 -0.39101728342301534 0.09641790200952274 0.19969355400865157 -0.12864540132183547 0 0 0 0
38813874 -0.3910978385742204 0.09660282946797266 0.20001344091344864 -0.12870187915175407 0 0 0 0
38846820 -0.3909955070460208 0.0965861840436408 0.1996803422290968 -0.12889856639569702 0 0 0 0
38879766 -0.3909808628054458 0.09657758880234986 0.199570204383985 -0.12888228816566247 0 0 0 0
38912712 -0.3911487177710366 0.09648324583783274 0.1996259193539543 -0.12903283695686846 0 0 0 0
38945658 -0.39081247946847536 0.09674627643001736 0.19948876162446963 -0.12913209552383614 0 0 0 0
38978604 -0.39091709296666927 0.09706029581166492 0.1995082015924549 -0.12925381780140105 0 0 0 0
39011550 -0.3910002039340283 0.09668077566889931 0.19934384602251007 -0.12930042999262303 0 0 0 0
39044496 -0.39110876557284957 0.09693860364990513 0.19934516522357815 -0.12949408810329044 0 0 0 0
39077442 -0.39085717786710444 0.09723498954232909 0.19936240023740842 -0.12954434158467856 0 0 0 0
39110388 -0.390943246832539 0.09727979489103705 0.1991871157290741 -0.12950879399224274 0 0 0 0
39143334 -0.39110684895252495 0.09709813864166719 0.19908963228194887 -0.12970675769070902 0 0 0 0
39176280 -0.3908295227830811 0.09714936999643017 0.1990342381514108 -0.1298696343384906 0 0 0 0
39209226 -0.3906629030672014 0.09736921084079175 0.19901226450436585 -0.12976905928135696 0 0 0 0
39242172 -0.390720837076083 0.09758664792946686 0.19890153854517612 -0.12986869025925823 0 0 0 0
39275118 -0.39091451155074164 0.09738213402024629 0.19887450019389258 -0.1300877182030665 0 0 0 0
39308064 -0.39087696976661906 0.09747616971288674 0.19878943567480856 -0.1301218965447645 0 0 0 0
39341010 -0.39078983162846537 0.09751425003842808 0.19875765546679638 -0.13027984952636232 0 0 0 0
39373956 -0.39082683583937294 0.09779683085468122 0.1985821852001299 -0.13041192028143817 0 0 0 0
39406902 -0.3906849061255477 0.0978711749288865 0.19854191685920947 -0.13046991625151433 0 0 0 0
39439848 -0.39067930575285037 0.09821097549127943 0.1985436047118688 -0.13049831585779853 0 0 0 0
39472794 -0.3906253548394822 0.09794907947090926 0.19838803339384392 -0.1306547240196168 0 0 0 0
39505740 -0.39070894438543746 0.09785382858188803 0.1983536354955153 -0.13062719593539632 0 0 0 0
39538686 -0.3905954545143283 0.09822268329587035 0.1982160325879931 -0.13086421665398035 0 0 0 0
39571632 -0.39039427309674635 0.09842802573900097 0.19823401248550834 -0.13095349854117197 0 0 0 0
39604578 -0.3905027753692729 0.0986552809972492 0.19824617275757803 -0.13101138997103082 0 0 0 0
39637524 -0.3903581799949068 0.09853712886756213 0.19806600677464076 -0.13116287840415544 0 0 0 0
39670470 -0.39064397330041517 0.09837545611908839 0.19805472685592365 -0.13117502982978285 0 0 0 0
39703416 -0.39054746195665213 0.09859611951478918 0.19802781565036734 -0.1313457243089299 0 0 0 0
39736362 -0.39030289068375695 0.09885450468869195 0.1979243633492162 -0.1313896594624966 0 0 0 0
39769308 -0.3904698827707062 0.09879759638923206 0.19791071741036076 -0.13143235896435967 0 0 0 0
39802254 -0.39039486255935046 0.0988729535648722 0.19774988971438143 -0.13171403135733906 0 0 0 0
39835200 -0.3906618587717023 0.09874523289798658 0.19773345586849028 -0.13159500033163365 0 0 0 0
39868146 -0.39062301210628597 0.09914829758502312 0.19763995855035116 -0.1319708613439981 0 0 0 0
39901092 -0.39006989535069664 0.09920702228541545 0.19747697846212842 -0.1318430234452994 0 0 0 0
39934038 -0.3903777420157471 0.09920857239838617 0.19753983115420307 -0.13187837689954762 0 0 0 0
39966984 -0.3902444013265607 0.09909959784703062 0.1974282933429976 -0.13203516867456516 0 0 0 0
39999930 -0.39034520943236484 0.09910922966598912 0.19727207396560717 -0.13212190985021086 0 0 0 0
