# HZ S RI R 50
300000 -0.5596635646712722 -0.009288706115452204 0.29335865927698623 -0.007953226229899923 0 0 0 0
332946 -0.544507561819644 0.05654725620210698 0.2517543689938201 -0.09845993535095451 0 0 0 0
365892 -0.5058224639212602 0.08349858046697162 0.20005957654800866 -0.12256402716879859 0 0 0 0
398838 -0.4757588283334674 0.08645966223758295 0.16182443965223312 -0.12228245818905774 0 0 0 0
431784 -0.4747948798986289 0.06379834650593222 0.15971616668316732 -0.08857942938314342 0 0 0 0
464730 -0.4617960803278367 0.05925196988348874 0.14210007909608283 -0.08319731321877182 0 0 0 0
497676 -0.45159000410253536 0.05484870727482252 0.12921775567371382 -0.07684773943389407 0 0 0 0
530622 -0.4458422459896699 0.050430173951105814 0.12029414562331965 -0.0709331268818462 0 0 0 0
563568 -0.4415895773011268 0.047141499786996825 0.11363602979055468 -0.06577934772363112 0 0 0 0
596514 -0.4376734187586227 0.04456444173638422 0.10868848741390046 -0.06118575553767794 0 0 0 0
629460 -0.43470111402312916 0.04193573944275354 0.10479743550588697 -0.055537784391754864 0 0 0 0
662406 -0.43240738585349797 0.0398501842805396 0.10187300758439642 -0.05205809478071599 0 0 0 0
695352 -0.43044556370393183 0.03829867083226257 0.0992827320643955 -0.04897135643351204 0 0 0 0
728298 -0.42877484495320256 0.03649271597793439 0.09726304180226572 -0.046165587449575836 0 0 0 0
761244 -0.42700619201098855 0.03514841601004963 0.09541118531893912 -0.04367887153681022 0 0 0 0
794190 -0.42535048198785297 0.03381539746788484 0.09389716052307703 -0.0414174728837942 0 0 0 0
827136 -0.4241480722802256 0.03222143626751984 0.09277338978522387 -0.03935081233043423 0 0 0 0
860082 -0.4233917003431926 0.030960304724418432 0.0916078515981161 -0.03750319892051338 0 0 0 0
893028 -0.4224784383702745 0.0297893108315608 0.09067722269210743 -0.03573964807607373 0 0 0 0
925974 -0.4214535782478905 0.028910700384208964 0.08981342848936578 -0.0342074271917569 0 0 0 0
958920 -0.4203506492143562 0.027910270136996217 0.08908612105919804 -0.03277592006037405 0 0 0 0
991866 -0.41991289913610313 0.02716536293494548 0.08844215142397883 -0.03148733367587558 0 0 0 0
1024812 -0.41916037369744896 0.025953211040469933 0.08784768528796291 -0.030114848315410347 0 0 0 0
1057758 -0.41827954405908685 0.025327519348993906 0.08729894955888202 -0.028990818171592724 0 0 0 0
1090704 -0.4184744890207099 0.024138991395880757 0.08689983697194478 -0.0279198333817724 0 0 0 0
1123650 -0.418058369912059 0.023754162976852993 0.0864849936467245 -0.026859198706853445 0 0 0 0
1156596 -0.4175148686460604 0.023125690750423568 0.0861211693709585 -0.02593696843463944 0 0 0 0
1189542 -0.4164473136419935 0.02234286655662882 0.08571566362344438 -0.025023602893474852 0 0 0 0
1222488 -0.4159126687891711 0.021899703889442373 0.08546559228866116 -0.024147653721124096 0 0 0 0
1255434 -0.41609445361393477 0.021158989326091945 0.08516178941240211 -0.023407290530901077 0 0 0 0
1288380 -0.416093939519536 0.020258856761581102 0.08485368646675956 -0.022627518837462286 0 0 0 0
1321326 -0.41573212221881106 0.020097316481271943 0.08465363410068559 -0.021917837674266596 0 0 0 0
1354272 -0.41564556275744696 0.019706358029263647 0.08440898277304903 -0.021194577207718383 0 0 0 0
1387218 -0.415120413548306 0.019434133580686175 0.08411738589011786 -0.02063127308007409 0 0 0 0
1420164 -0.41495617156952513 0.01863573541051513 0.08398439990511906 -0.019956946096209717 0 0 0 0
1453110 -0.4147786999690481 0.017946745833318147 0.08384167661984 -0.019425490349910722 0 0 0 0
1486056 -0.41542574273312277 0.01750346396985815 0.08364726665335037 -0.018777869702890936 0 0 0 0
1519002 -0.41499412433104976 0.01745543705789678 0.08350211330655305 -0.018319282411537723 0 0 0 0
1551948 -0.4149400222957042 0.017185503954860067 0.08330960565605205 -0.017778095334463676 0 0 0 0
1584894 -0.41463473034817144 0.01685324165395088 0.08316611874859518 -0.017267533861264693 0 0 0 0
1617840 -0.41461696940881976 0.016350932058303787 0.0830835347578102 -0.01682529359743845 0 0 0 0
1650786 -0.4147866343780912 0.016135604845374008 0.08291129187024494 -0.016353474310749842 0 0 0 0
1683732 -0.41470807711346486 0.015750152141960204 0.08282969709783387 -0.015875238222483483 0 0 0 0
1716678 -0.4146091939795502 0.015539130204979492 0.0826984431696194 -0.015479540967705303 0 0 0 0
1749624 -0.41458372569480384 0.015675266630852735 0.08257885711496694 -0.01509056092253035 0 0 0 0
1782570 -0.4144730174323799 0.015494592935212501 0.08248734789793578 -0.014728319978472062 0 0 0 0
1815516 -0.4144260605170064 0.015157228965620297 0.08240287658685717 -0.014319860373497686 0 0 0 0
1848462 -0.4144934076653766 0.014618633719056627 0.0823703088626192 -0.013939444297494214 0 0 0 0
1881408 -0.4146064722516132 0.01438083417357587 0.08222139713607417 -0.013641551869893014 0 0 0 0
1914354 -0.41475984936472104 0.014370441069960535 0.08219258402069106 -0.01328566136851194 0 0 0 0
1947300 -0.414486308250291 0.014122262767498466 0.0820468924542993 -0.012873062678128476 0 0 0 0
1980246 -0.41501695310179465 0.014094154602558893 0.08200241673673836 -0.012630004501895461 0 0 0 0
2013192 -0.41454886245470896 0.013990078839753317 0.08191397005831365 -0.012318915404635663 0 0 0 0
2046138 -0.41459938419441855 0.014047713947362811 0.08187463145710223 -0.012025960958389596 0 0 0 0
2079084 -0.41468876400570076 0.013858647063400809 0.08180561533568555 -0.01172861585305224 0 0 0 0
2112030 -0.41463959016141844 0.013734618523583667 0.081824555552049 -0.011437616160405206 0 0 0 0
2144976 -0.41484542944217223 0.013593503006197358 0.08174962572132737 -0.011171469358094556 0 0 0 0
2177922 -0.4150968098653023 0.01342844437513256 0.08172548041760785 -0.010871050657848306 0 0 0 0
2210868 -0.41493987037055563 0.013669152456356777 0.08164201332151828 -0.010607440379719332 0 0 0 0
2243814 -0.41501062250579845 0.013524480551301205 0.08154056798648963 -0.0103904290721086 0 0 0 0
2276760 -0.4148405145911698 0.013513158102645263 0.08151099662874702 -0.010093538686652368 0 0 0 0
2309706 -0.41484476383364305 0.01331231726659091 0.08148267798349018 -0.009860637803568325 0 0 0 0
2342652 -0.4149585977798097 0.013292161723503414 0.08141332438237045 -0.009597696159391484 0 0 0 0
2375598 -0.41499221315301027 0.013183473668359012 0.08142292418762076 -0.009431449778605265 0 0 0 0
2408544 -0.41511440409049105 0.013168047833396484 0.08141899727410572 -0.009209468053047495 0 0 0 0
2441490 -0.4151802291558423 0.013426674626323333 0.08134307754118528 -0.00899891645178085 0 0 0 0
2474436 -0.41539749355005007 0.013408953511579513 0.08128244572912723 -0.008766779528695541 0 0 0 0
2507382 -0.4151618324696704 0.013384281349586585 0.08123745361829916 -0.008562532895113707 0 0 0 0
2540328 -0.41482374894373053 0.013244563043968382 0.08121596562205319 -0.00829305154129405 0 0 0 0
2573274 -0.41530257031548723 0.01310776901634276 0.08118419153653314 -0.008127052357379948 0 0 0 0
2606220 -0.415115878914614 0.01333872555169576 0.08111746597878178 -0.007971233655569612 0 0 0 0
2639166 -0.41545641546030154 0.013333304750536339 0.08112356857955663 -0.007774148810584028 0 0 0 0
2672112 -0.41490206071706465 0.01344566556064437 0.08109606280305383 -0.007606502682056763 0 0 0 0
2705058 -0.41489588589044835 0.013415590488350417 0.08105012290716355 -0.007435264864510987 0 0 0 0
2738004 -0.4150932067884752 0.013474813576050557 0.08105421651927422 -0.007210103743727597 0 0 0 0
2770950 -0.4150409972606281 0.013728141598131363 0.08103518125094862 -0.007047835155697431 0 0 0 0
2803896 -0.4153869654614347 0.013389412157395026 0.08096099732086698 -0.00685950055620533 0 0 0 0
2836842 -0.4155592434649533 0.01353262663701471 0.08099586128539855 -0.0067158205331485366 0 0 0 0
2869788 -0.4152557813315346 0.01381721015811462 0.0809396617711109 -0.006599124489583273 0 0 0 0
2902734 -0.4153385046733131 0.013760489441116344 0.0809064621553857 -0.006371180687645712 0 0 0 0
2935680 -0.41516547466376885 0.013591935779316024 0.0808611815627152 -0.0061895586171991715 0 0 0 0
2968626 -0.41531705279996345 0.013857471083889242 0.08087934249077267 -0.006084870391445776 0 0 0 0
3001572 -0.415565746105207 0.013948608732341872 0.08087854921193054 -0.0059492437932742006 0 0 0 0
3034518 -0.4151452209495821 0.014118753625602701 0.0808474972182114 -0.005836639660478853 0 0 0 0
3067464 -0.41517905092701135 0.014335319418444362 0.08076128929052641 -0.005673767761142668 0 0 0 0
3100410 -0.4153783529790632 0.014147537366101925 0.08078833036075292 -0.00546166041494687 0 0 0 0
3133356 -0.4153016235617873 0.0140869248778559 0.0808318197917684 -0.0053597540590083845 0 0 0 0
3166302 -0.41546139962090944 0.014145170481258003 0.08073032719920954 -0.005227405776790534 0 0 0 0
3199248 -0.41497803849994996 0.014193671966180408 0.08072887378423674 -0.005046295412869731 0 0 0 0
3232194 -0.4153984632043538 0.014339889965561613 0.0807413161898534 -0.004917982818012994 0 0 0 0
3265140 -0.4153250009669487 0.014718297139795456 0.08068328328725127 -0.004831227641151677 0 0 0 0
3298086 -0.41525296614621404 0.01437916901429719 0.08069514912876395 -0.004635527848755333 0 0 0 0
3331032 -0.41493240738624826 0.014580920854969199 0.08062967649209392 -0.0045746208563778356 0 0 0 0
3363978 -0.4148739502506855 0.014451823793671683 0.08060556614098907 -0.004381653599052172 0 0 0 0
3396924 -0.4149236314717007 0.015011794742517627 0.08062109627346482 -0.004303617416909075 0 0 0 0
3429870 -0.41511749365757983 0.014766230034163991 0.08063677843329473 -0.004193199612604193 0 0 0 0
3462816 -0.41521139873444424 0.014997839332671752 0.08059187256066033 -0.004050046334768078 0 0 0 0
3495762 -0.4151008178872933 0.015061135636872848 0.08062170612660112 -0.003958251750845366 0 0 0 0
3528708 -0.41518085687367956 0.015208902520973192 0.08055628956200607 -0.003862891352641982 0 0 0 0
3561654 -0.4148376018569706 0.01521604053760714 0.08052206052822637 -0.003711463041791037 0 0 0 0
3594600 -0.4150063167985238 0.015377820674294556 0.08053040700929882 -0.003585360440749098 0 0 0 0
3627546 -0.4150889755181001 0.015384614068934306 0.08058726862799157 -0.003536586766393396 0 0 0 0
3660492 -0.4152015041098683 0.015645128165626677 0.0805130447413592 -0.003333858999766547 0 0 0 0
3693438 -0.4154512133241453 0.015784445940818976 0.08055371339384362 -0.003303305917587147 0 0 0 0
3726384 -0.4151878938795956 0.01580760716173333 0.08051281980847769 -0.0031546691103576698 0 0 0 0
3759330 -0.4150357931977014 0.015598265525853621 0.08055439372711087 -0.0030757880986901865 0 0 0 0
3792276 -0.4151416840934913 0.01592351430474733 0.08052162557719099 -0.002992662618008223 0 0 0 0
3825222 -0.4145381290271138 0.015890692774623422 0.0804674880749125 -0.0028579510939174273 0 0 0 0
3858168 -0.4149652978386222 0.016063241769938688 0.08050050960313816 -0.002717579162604047 0 0 0 0
3891114 -0.41472441788434966 0.01620755594415225 0.0804377907216083 -0.002703554577953264 0 0 0 0
3924060 -0.4149181250897339 0.016188563625143898 0.0804810291634552 -0.0025856907818414794 0 0 0 0
3957006 -0.41504821118205143 0.016423235622841648 0.0804287534062937 -0.0024935631686342405 0 0 0 0
3989952 -0.4147904832038346 0.016450110996875683 0.08040152823951281 -0.002366467115761231 0 0 0 0
4022898 -0.41470176536433817 0.01666846298378479 0.08042367724715659 -0.00231534128461312 0 0 0 0
4055844 -0.4146390803141861 0.016697978278394775 0.08045635152101985 -0.0021989570180429856 0 0 0 0
4088790 -0.41481455973221665 0.016814467690401975 0.080460922234265 -0.002140616380145981 0 0 0 0
4121736 -0.4145376121096164 0.016617646752083992 0.08040461509183038 -0.002031518944683839 0 0 0 0
4154682 -0.41473986055409906 0.016958797378541425 0.08042274234433458 -0.0019329392084518576 0 0 0 0
4187628 -0.41449251012781585 0.017053766600956068 0.08034475742356512 -0.0018253883850714654 0 0 0 0
4220574 -0.41444307500549277 0.01707759151327173 0.08034745634670679 -0.0017234806161042595 0 0 0 0
4253520 -0.4144233026745296 0.017046630791419652 0.08038679430672344 -0.0016502355670868604 0 0 0 0
4286466 -0.4150334302955177 0.01748225658416042 0.0804050306720425 -0.0016303954264889 0 0 0 0
4319412 -0.41463484980719595 0.017395684395709005 0.08035894194088808 -0.0015279308580600517 0 0 0 0
4352358 -0.41440875172696207 0.01756437210109682 0.0803329882561234 -0.0013847705756955086 0 0 0 0
4385304 -0.41445379010700584 0.017443235994259537 0.08036926227244252 -0.0012709352055242187 0 0 0 0
4418250 -0.4145542761821477 0.01776455682494084 0.08032535383244747 -0.0013253785351525268 0 0 0 0
4451196 -0.4139749313259537 0.017688671978410564 0.08031606918152026 -0.0011577326188226126 0 0 0 0
4484142 -0.4143270851869863 0.017899966971981075 0.08039602926793932 -0.001080133335886744 0 0 0 0
4517088 -0.4142342123094765 0.01785938263137183 0.0803546159870549 -0.001020405264214477 0 0 0 0
4550034 -0.41429312716838446 0.017916778779535004 0.08028504962900641 -0.0009516170203571575 0 0 0 0
4582980 -0.41426441268622416 0.018030428879876433 0.08031333071403118 -0.0008571726342110371 0 0 0 0
4615926 -0.414093803848072 0.017989606204994436 0.08029747337193939 -0.0008005758186636917 0 0 0 0
4648872 -0.41416736486521105 0.01832437709095269 0.08024273340937764 -0.000743741351266772 0 0 0 0
4681818 -0.41410903986530107 0.018566057514976343 0.08024746420222996 -0.0007171183026648064 0 0 0 0
4714764 -0.4141083262449731 0.018348388269070683 0.08026819484320599 -0.0006249743527171876 0 0 0 0
4747710 -0.4141154598671894 0.018498821045255524 0.08026777884829567 -0.00047747398495481244 0 0 0 0
4780656 -0.4140236125959124 0.018630551395147583 0.08027343649805074 -0.0005083828320984702 0 0 0 0
4813602 -0.4141397795629472 0.01882933563402599 0.08030016670852835 -0.0004449525733993188 0 0 0 0
4846548 -0.4137397477771829 0.018790834472123652 0.08023014964006274 -0.00032075726411717325 0 0 0 0
4879494 -0.4137758708145859 0.01882494095775664 0.0802912664888016 -0.0002493585867042448 0 0 0 0
4912440 -0.41386577511512357 0.01905778257097272 0.0802583265926139 -0.00015839984747666248 0 0 0 0
4945386 -0.41373960049216635 0.01893859883580356 0.08024513123229719 -0.00019120513072497168 0 0 0 0
4978332 -0.4136336698913583 0.01910916889668012 0.08023631477167502 -5.392420411062015e-05 0 0 0 0
5011278 -0.41357712816660974 0.019093121585264675 0.08017887595106837 -4.451780190097303e-05 0 0 0 0
5044224 -0.41367322963391057 0.019415924387152946 0.08017979776916744 -2.5339538869218272e-05 0 0 0 0
5077170 -0.41351263206308225 0.01912286607815809 0.08016308493336326 0.00011783512071045759 0 0 0 0
5110116 -0.4136220039190733 0.01950140144029311 0.08018692887641317 0.0001975485280915165 0 0 0 0
5143062 -0.4133431924246057 0.019592404410325587 0.08014792875390715 0.00019896279665460829 0 0 0 0
5176008 -0.41340531583755896 0.01954228620240555 0.0801615648288061 0.0003047130352701558 0 0 0 0
5208954 -0.4134259145898002 0.01956888485871754 0.08012437434290072 0.00029571490649498333 0 0 0 0
5241900 -0.4132240273627971 0.019690203072101963 0.08009561196937837 0.0003437077645784967 0 0 0 0
5274846 -0.4133556045984885 0.019817812579564505 0.08017615222144414 0.0003869316614892984 0 0 0 0
5307792 -0.4134137132961487 0.019822879127271396 0.08012804242303957 0.0004788969639650714 0 0 0 0
5340738 -0.41365653930377655 0.02024572015640104 0.08014658642907585 0.0004670494391981606 0 0 0 0
5373684 -0.4134732592197063 0.01995418414149741 0.08018702556146869 0.0005725368885039921 0 0 0 0
5406630 -0.4133179726232396 0.020219276877120662 0.08013816000430067 0.0006034609376554302 0 0 0 0
5439576 -0.4132724894620748 0.020374713899832825 0.08016316283949566 0.0006125152131177743 0 0 0 0
5472522 -0.413066514781439 0.020100282087347994 0.08010598048891314 0.0006666085903716674 0 0 0 0
5505468 -0.41294493177138375 0.020182222788457105 0.08003863967602773 0.0007042646499037492 0 0 0 0
5538414 -0.41344674626843003 0.020239125353938087 0.08013293327132719 0.0007651139554160399 0 0 0 0
5571360 -0.41308606823197624 0.02066613795708907 0.08007486044126849 0.0008585730251651539 0 0 0 0
5604306 -0.4131563254064355 0.020452334725909405 0.08003731951987703 0.0008457722001538087 0 0 0 0
5637252 -0.4131673074945889 0.020669954714960467 0.08006060349572844 0.0008430083214668126 0 0 0 0
5670198 -0.4128711955232294 0.020461035882821766 0.08006144382264743 0.0009288647195510292 0 0 0 0
5703144 -0.41307282678137563 0.02076339189301518 0.08006670353604455 0.0009797478335739995 0 0 0 0
5736090 -0.4131420105268115 0.020862747757612776 0.08004303841721232 0.00097997411898429 0 0 0 0
5769036 -0.4129145501393578 0.020699153525504815 0.08002817048976492 0.0008943592046349385 0 0 0 0
5801982 -0.41286551906777025 0.02081889595172186 0.07996195192853837 0.0010195708632208024 0 0 0 0
5834928 -0.4130356373887676 0.020861815283841872 0.0799863656060375 0.0009851511938988068 0 0 0 0
5867874 -0.41305513601060406 0.02094949803407419 0.07996046512035664 0.0010041712676827931 0 0 0 0
5900820 -0.4127266505166551 0.02101966023053134 0.07995044979785887 0.0010756990263972698 0 0 0 0
5933766 -0.41290348820277245 0.020874918082154817 0.07990713195008109 0.001059741452330961 0 0 0 0
5966712 -0.41284473239622577 0.02090245907064996 0.07987522189797591 0.0010423315525663788 0 0 0 0
5999658 -0.4126132806115517 0.021197783049913214 0.07985173551055241 0.001051029138526155 0 0 0 0
6032604 -0.41268735114647387 0.021078244167596 0.07983516462390804 0.0010980134685016582 0 0 0 0
6065550 -0.412696839199873 0.02107303917601327 0.07983108301457355 0.0010934140298265854 0 0 0 0
6098496 -0.41299690593292543 0.02129940243697668 0.07981190424109011 0.001054059325878343 0 0 0 0
6131442 -0.4124335124486657 0.021284949608207242 0.07973826789780962 0.0009910981148116616 0 0 0 0
6164388 -0.41262304833034846 0.021275092761273887 0.07967652019691922 0.0010203932884453998 0 0 0 0
6197334 -0.4127414997023254 0.021262388728957998 0.07963109927756674 0.001048137851496395 0 0 0 0
6230280 -0.41254320792983934 0.02136664497450051 0.07966915910835905 0.0010159601151138128 0 0 0 0
6263226 -0.41288089911267484 0.021270721002990513 0.07959369057392049 0.0009527825716743641 0 0 0 0
6296172 -0.4126629398199788 0.021358631201383732 0.0795558362544863 0.0008839262308666645 0 0 0 0
6329118 -0.4125888870215121 0.0211899874728093 0.07946209267084449 0.0008098009184322593 0 0 0 0
6362064 -0.4125634797370466 0.021223905070057492 0.07943873074004232 0.0008037858346672474 0 0 0 0
6395010 -0.41271142831937335 0.021370740465839543 0.07931579802651548 0.0007260443313216285 0 0 0 0
6427956 -0.41269041350247937 0.02118501548686372 0.07925768443419734 0.0006548933807305757 0 0 0 0
6460902 -0.41324493146257707 0.021104658317055117 0.07915953483857589 0.0005146002636655262 0 0 0 0
6493848 -0.41289080856517024 0.02103354411716954 0.07904786082183117 0.0004774767912587148 0 0 0 0
6526794 -0.41310274681323467 0.02091018998434539 0.07890380513451953 0.0003507769458142824 0 0 0 0
6559740 -0.4131559100259553 0.020933487989398168 0.07870158725340674 0.0001942856632676978 0 0 0 0
6592686 -0.41316838546712836 0.020723159368677614 0.078559592922448 2.8111210924996682e-05 0 0 0 0
6625632 -0.41326210153710147 0.02069234368226479 0.07835711389446391 -3.7653435856636156e-05 0 0 0 0
6658578 -0.4135202175540795 0.020435083121049497 0.07803390403247408 -0.00024125490581630835 0 0 0 0
6691524 -0.41379943709154093 0.020289021895494922 0.07777934905958114 -0.00045829734835561994 0 0 0 0
6724470 -0.4143935360833825 0.02018067241930303 0.0773448205279623 -0.0007511408473274493 0 0 0 0
6757416 -0.41468935535700363 0.019898908253140894 0.0769549933687185 -0.0009649402780607661 0 0 0 0
6790362 -0.41493899473760065 0.019717499266566463 0.07633812938976035 -0.0011770256996202016 0 0 0 0
6823308 -0.4157540093628124 0.019507842800330955 0.07569968593263204 -0.0014077644576052312 0 0 0 0
6856254 -0.4166782024666264 0.019473039886991613 0.07482788880901747 -0.0016348792780581062 0 0 0 0
6889200 -0.4176838580552014 0.01937035635430909 0.07379164457512885 -0.001687917311829638 0 0 0 0
6922146 -0.41755541280760095 0.017169792613606665 0.07263859540112708 -0.0019264459683152409 0 0 0 0
6955092 -0.4187697608665571 0.017732602570786658 0.07106957752804065 -0.0014435458443354575 0 0 0 0
6988038 -0.42042774702178504 0.018315661009314674 0.06943696922398451 -0.00045476785110426683 0 0 0 0
7020984 -0.4218352498951979 0.020045983009106406 0.06780934044677096 0.0011613749934806113 0 0 0 0
7053930 -0.4228116932583821 0.022173983369511326 0.06675089741212517 0.0035467473438226004 0 0 0 0
7086876 -0.422897208398653 0.025139693941425595 0.06660827573122742 0.006308437046373913 0 0 0 0
7119822 -0.4223408654236547 0.027743536794269805 0.06749225180367531 0.008853936113999174 0 0 0 0
7152768 -0.42071231367829437 0.029446623590175445 0.06907517300520388 0.010939146705866359 0 0 0 0
7185714 -0.41902712907433737 0.030835940062708567 0.07087186858822689 0.012068706419171626 0 0 0 0
7218660 -0.41721158770396666 0.03133049933435449 0.07267319880287773 0.012655252449025252 0 0 0 0
7251606 -0.4158816657137895 0.03150344028056005 0.07415368857993623 0.012731473734600068 0 0 0 0
7284552 -0.4144751370083524 0.03133196971537079 0.07537961148413183 0.012583765719021589 0 0 0 0
7317498 -0.41333525443443003 0.031085381665696663 0.07633506830959948 0.012332156369172339 0 0 0 0
7350444 -0.41281453038156773 0.03068918012285729 0.0771246129377892 0.012026653387982155 0 0 0 0
7383390 -0.41212520064006375 0.030421796057405505 0.07771209253361817 0.011640301924578557 0 0 0 0
7416336 -0.41151777498453357 0.03038694005651118 0.07824901456316548 0.011320384107221164 0 0 0 0
7449282 -0.41122436102289533 0.030085279679901624 0.07858402103432478 0.011024369275801083 0 0 0 0
7482228 -0.4107732141251105 0.029870983215968823 0.0789236953268864 0.010775431422750576 0 0 0 0
7515174 -0.41068003646846724 0.029789240151473304 0.07919653027722459 0.010479929908766315 0 0 0 0
7548120 -0.41041541117453056 0.029443754855171558 0.07937980679292211 0.010246877847698314 0 0 0 0
7581066 -0.4100789488185777 0.029571492258598828 0.07957263820024817 0.01005962163677226 0 0 0 0
7614012 -0.4098310057207151 0.029362007834874828 0.07972115843648454 0.009887220460881939 0 0 0 0
7646958 -0.40994859598458616 0.029156131098558417 0.07985112820337896 0.009736200127790234 0 0 0 0
7679904 -0.40966312611405364 0.02901767592713632 0.07991576780352272 0.009595512203674213 0 0 0 0
7712850 -0.4096483486619135 0.028978053243194368 0.0800166762813073 0.009480034442668598 0 0 0 0
7745796 -0.40947247623237515 0.028746309203549016 0.08011282223180635 0.00941870557533022 0 0 0 0
7778742 -0.40927544527831666 0.028659410905946037 0.08014160531693765 0.009278834691462632 0 0 0 0
7811688 -0.40919949897626356 0.02837884032859943 0.08022145749451 0.009152820718161566 0 0 0 0
7844634 -0.40917423673044984 0.02857380054328182 0.08029503623877392 0.009125628129106042 0 0 0 0
7877580 -0.409056026844501 0.028710780038182702 0.08032212829382135 0.009034822084489273 0 0 0 0
7910526 -0.40903555636364114 0.02877105062232681 0.08032253204673008 0.0089792396273848 0 0 0 0
7943472 -0.4091862847319389 0.028726561862222933 0.08042204047379577 0.00889986658325326 0 0 0 0
7976418 -0.4086966107163174 0.028488430839610623 0.08038104501835412 0.008898884675865559 0 0 0 0
8009364 -0.4086568722107063 0.02861085211219574 0.08049935775109933 0.008839274111635351 0 0 0 0
8042310 -0.4086234529435106 0.0287818885205108 0.08049742777990578 0.008820988107801847 0 0 0 0
8075256 -0.40866945023462237 0.028572082132146716 0.08050756381889056 0.008834451371967623 0 0 0 0
8108202 -0.40857179173812375 0.02875973744547566 0.08053599363208017 0.00877850969538344 0 0 0 0
8141148 -0.4087338466380076 0.028751704787516163 0.08058345187930861 0.00877505528358511 0 0 0 0
8174094 -0.40817338982071244 0.02865389360296275 0.08054837983131269 0.008763841790544576 0 0 0 0
8207040 -0.4083261257111778 0.02874068776277517 0.080631360105108 0.008765025864894862 0 0 0 0
8239986 -0.408213150416434 0.028501310237583826 0.08056830688599764 0.008743963931534591 0 0 0 0
8272932 -0.4084097896917704 0.02905537219258565 0.08061691405572204 0.008686296182050293 0 0 0 0
8305878 -0.40825433567083347 0.028805358796238665 0.08062810127378148 0.008723428185847247 0 0 0 0
8338824 -0.40846632237352537 0.028914712635347874 0.08072462705054695 0.008710603774072134 0 0 0 0
8371770 -0.4080433453014889 0.028810840312736175 0.08068113824297239 0.008717286901456497 0 0 0 0
8404716 -0.4083216473828471 0.029181241774390385 0.08067632059160915 0.008721735463708413 0 0 0 0
8437662 -0.40807154483896607 0.028964943177426396 0.08064667239448685 0.008738911220257772 0 0 0 0
8470608 -0.4080565711308371 0.0285865993477027 0.08073144387888051 0.00880063980729351 0 0 0 0
8503554 -0.4079827789646464 0.028904107734623666 0.08069747141149386 0.008768668292845574 0 0 0 0
8536500 -0.40792238733719305 0.029119766712816558 0.08072563534964235 0.008742851915939315 0 0 0 0
8569446 -0.4079387671934649 0.029295804218644875 0.08075237656884475 0.008734507188988902 0 0 0 0
8602392 -0.40802743662113455 0.029229711096693128 0.08071770025913745 0.008761716986854717 0 0 0 0
8635338 -0.40790198262943433 0.02927931498575267 0.08076525501295359 0.008785031599188631 0 0 0 0
8668284 -0.4079773695750398 0.02955098456883403 0.08075129805395105 0.008792669685328077 0 0 0 0
8701230 -0.40772011182720225 0.029204875066626706 0.08077087874828687 0.008822699361498921 0 0 0 0
8734176 -0.4076966165981584 0.029381042630093175 0.08080798320618056 0.00886750738772301 0 0 0 0
8767122 -0.4077638044070779 0.029457017547998243 0.08078828783023903 0.008891231168475877 0 0 0 0
8800068 -0.4075508248255179 0.029528110648423235 0.08075634852084868 0.008918762834612702 0 0 0 0
8833014 -0.40751713714602206 0.029425328190853882 0.08078388816314103 0.008904523686719056 0 0 0 0
8865960 -0.4074917452129763 0.029837073302416847 0.08082512930491187 0.008939601124355153 0 0 0 0
8898906 -0.40772381335747215 0.029807094280878993 0.08085126087083391 0.008990214718033095 0 0 0 0
8931852 -0.4074760483748408 0.029710208901798076 0.08077129664656332 0.00894937218841314 0 0 0 0
8964798 -0.4073103616617434 0.029996482397666568 0.08084530915373901 0.008994703888661804 0 0 0 0
8997744 -0.407563287669847 0.029938832994487772 0.08084523122152527 0.009051444284297779 0 0 0 0
9030690 -0.4073130385821035 0.02977865194099829 0.08082984010606009 0.009087452077722633 0 0 0 0
9063636 -0.40733721757347363 0.02998685431629904 0.08083483633402196 0.009081722715390563 0 0 0 0
9096582 -0.4075181893840907 0.03014773609065337 0.08086216224422034 0.009155327866519191 0 0 0 0
9129528 -0.4073191142357705 0.030182713742936497 0.080895300027988 0.009132179077186239 0 0 0 0
9162474 -0.4070749217982203 0.03018115880271523 0.08087402754691597 0.009165369957195097 0 0 0 0
9195420 -0.4072474591141748 0.03034691352931957 0.08090521184174228 0.009194377273519138 0 0 0 0
9228366 -0.4071972429424167 0.030484535511604485 0.08086602435652719 0.009216027693503409 0 0 0 0
9261312 -0.407230667188289 0.030551163738347414 0.08089648177026915 0.009242249339792608 0 0 0 0
9294258 -0.407150483138236 0.030538698908361663 0.08091148838051453 0.009267244096312303 0 0 0 0
9327204 -0.40690888171114103 0.030649316658105604 0.08086850135865974 0.009318946859749185 0 0 0 0
9360150 -0.4070197223991565 0.030591004757710767 0.08092237202353796 0.009342843966942679 0 0 0 0
9393096 -0.4071768444006676 0.030876667159610436 0.08091950917704942 0.009385994400612985 0 0 0 0
9426042 -0.4070877168147918 0.03057630658972858 0.08093384851986206 0.009415954604094813 0 0 0 0
9458988 -0.407109346467118 0.03100159688133451 0.08091960475289647 0.009457202439098955 0 0 0 0
9491934 -0.4070078918130449 0.03096729543487854 0.08096454821698273 0.009491180992003872 0 0 0 0
9524880 -0.4068444727822042 0.03102947796133248 0.08094079469596152 0.009513671033157312 0 0 0 0
9557826 -0.40678160631030835 0.030996186442944784 0.08098997501461255 0.009539005562888121 0 0 0 0
9590772 -0.40696219055325444 0.031266840821574486 0.08098496255247317 0.00951230327252135 0 0 0 0
9623718 -0.4069026626499514 0.031042394384415726 0.08096399694756704 0.00961678024183422 0 0 0 0
9656664 -0.4067261902738062 0.03133595221928544 0.0809789769254374 0.009666794527558914 0 0 0 0
9689610 -0.4066585723402981 0.03131920629900965 0.08094739458025023 0.009680686692367341 0 0 0 0
9722556 -0.40665868389168647 0.03135933809599209 0.08098003805696376 0.009713264367895371 0 0 0 0
9755502 -0.4067073039524195 0.03153967923486647 0.08098240476824647 0.009741536013520099 0 0 0 0
9788448 -0.4067816752169494 0.03163186017862813 0.0809669849894294 0.0097902392065806 0 0 0 0
9821394 -0.4065501560637423 0.031529118786333604 0.08099651940677932 0.009809061285758385 0 0 0 0
9854340 -0.406493216432262 0.03161070232821374 0.0810227870899186 0.009826368533805148 0 0 0 0
9887286 -0.4066686718827571 0.03184783045498106 0.08101783943506152 0.009868817698609643 0 0 0 0
9920232 -0.40656757312486214 0.03188988688468349 0.08107779469869889 0.009893889027801873 0 0 0 0
9953178 -0.4066270859047035 0.032093843948558666 0.08105560435667308 0.009934859276235981 0 0 0 0
9986124 -0.40655091085092965 0.032077920119623085 0.08106461157062268 0.010021954858841317 0 0 0 0
10019070 -0.406659316994237 0.03225391368031643 0.0810279964516364 0.010005400360305245 0 0 0 0
10052016 -0.40629123528082334 0.03210906186732084 0.08100563395787244 0.010067432846245013 0 0 0 0
10084962 -0.4063912997785115 0.03219313301384113 0.08105646560668793 0.010084964363803255 0 0 0 0
10117908 -0.40652579766195673 0.03242282045183524 0.08108098583846969 0.010095452956940284 0 0 0 0
10150854 -0.40630863363827435 0.03233987363420232 0.08108366404139593 0.01014274533145591 0 0 0 0
10183800 -0.4065459346793722 0.03265670460482475 0.08108971312501409 0.010202903451671191 0 0 0 0
10216746 -0.4064358756553153 0.0327859584175573 0.08111259448904515 0.010217857380962692 0 0 0 0
10249692 -0.4063334595813002 0.032740822964686875 0.08111283134875824 0.010264972969021376 0 0 0 0
10282638 -0.4061222241035957 0.032658727593652334 0.08108192840483908 0.010276643096784067 0 0 0 0
10315584 -0.40625156577921434 0.032809366462800825 0.08114774628050486 0.010338893869520437 0 0 0 0
10348530 -0.40633590236643324 0.03293518709246458 0.08112390777394558 0.010407129305460566 0 0 0 0
10381476 -0.40597704957400227 0.032885841605249544 0.08111162632750052 0.010377290371804682 0 0 0 0
10414422 -0.4061634391475747 0.03281921760856959 0.08112693877327586 0.010435040232199521 0 0 0 0
10447368 -0.4061645262239599 0.03304250428146918 0.08115664044098019 0.010485366807841838 0 0 0 0
10480314 -0.40606090516909776 0.03325833512074754 0.0811432280477574 0.010545776294405186 0 0 0 0
10513260 -0.4061650240498868 0.033217366127847606 0.08115023910813018 0.010519957938349868 0 0 0 0
10546206 -0.40622931068748824 0.03350816452606685 0.0811848424906763 0.01052227427445055 0 0 0 0
10579152 -0.40608768746930096 0.033581241164736764 0.08119087289166917 0.010596428640284879 0 0 0 0
10612098 -0.4059858081627543 0.03354477351897907 0.08120163776168653 0.010684923311010628 0 0 0 0
10645044 -0.405751929720288 0.03354122435562258 0.08113367023362798 0.01070951987001904 0 0 0 0
10677990 -0.40603034649839287 0.03384623549559746 0.0812137969257685 0.010733406990289091 0 0 0 0
10710936 -0.40603411519552357 0.03385886684335877 0.0812347721038349 0.01073442940872144 0 0 0 0
10743882 -0.40577758065836234 0.03385401443684473 0.08120054963904123 0.010804168848141919 0 0 0 0
10776828 -0.4056664181683079 0.03388022905013831 0.0811808257097985 0.010865538435098153 0 0 0 0
10809774 -0.40588229738019366 0.034142068893124454 0.08123316532959979 0.010880863941927476 0 0 0 0
10842720 -0.40587763523382625 0.03417471359133203 0.08123689796084596 0.010923021921249994 0 0 0 0
10875666 -0.4058150458328281 0.03408117495052383 0.08120592530528105 0.010947973316658742 0 0 0 0
10908612 -0.4059905074476133 0.03409796804818282 0.08124068797969124 0.01098216855866015 0 0 0 0
10941558 -0.4054851868950925 0.03424265964300511 0.08122036968295047 0.011049373501507365 0 0 0 0
10974504 -0.40565388738424324 0.034403701023134 0.08120252139010792 0.011064763703079168 0 0 0 0
11007450 -0.40575862518868067 0.034535020711934275 0.0812237616213121 0.01111827476940411 0 0 0 0
11040396 -0.40561197762947393 0.03443844860646462 0.08128704056611794 0.011159480307959803 0 0 0 0
11073342 -0.4058060086691622 0.034839909338715586 0.0812947425187427 0.011135998185741729 0 0 0 0
11106288 -0.4056402346967593 0.03487959607298455 0.08126847528145215 0.011185817835650449 0 0 0 0
11139234 -0.4055508774987172 0.034660483793197194 0.08128819387149654 0.011280084562286912 0 0 0 0
11172180 -0.4054891094732981 0.03460652819536959 0.08131821067987166 0.01129507666863641 0 0 0 0
11205126 -0.4053622994086189 0.034824891862750604 0.08126328570242418 0.011350295839609266 0 0 0 0
11238072 -0.4054558198596173 0.034963212464886935 0.08125220434873426 0.011344676924256865 0 0 0 0
11271018 -0.4056461812943457 0.03524573951087522 0.08135733299259948 0.011394291366414143 0 0 0 0
11303964 -0.4053635469066505 0.035057415009981656 0.08134274319637458 0.01143512333591955 0 0 0 0
11336910 -0.4055278347819944 0.035372752280916415 0.0813518829461705 0.011462183341421616 0 0 0 0
11369856 -0.40557428352857755 0.035407801320137995 0.08132753989295487 0.011541979681565827 0 0 0 0
11402802 -0.40527189384643675 0.035095538462603305 0.08132627513660334 0.011594130619656761 0 0 0 0
11435748 -0.4053104657620205 0.035086491335429994 0.08137897623829338 0.011626452517143573 0 0 0 0
11468694 -0.4053700728952978 0.03542274424710248 0.08134464698475508 0.01166515858259888 0 0 0 0
11501640 -0.4050815271069636 0.03543462163676679 0.08133377113686198 0.011669334705594808 0 0 0 0
11534586 -0.4053792459240216 0.03580831173274953 0.0813822231717847 0.01169849509907697 0 0 0 0
11567532 -0.4053972984523919 0.035771178682350684 0.08138355374016273 0.0117441741616368 0 0 0 0
11600478 -0.40516994868162926 0.0357189151557086 0.08135964404467763 0.011815920377918364 0 0 0 0
11633424 -0.40520130404755916 0.0358284350212002 0.08138310453744065 0.011832459734264377 0 0 0 0
11666370 -0.4048422881261638 0.035986063690525774 0.08132368781457511 0.011814828717153609 0 0 0 0
11699316 -0.4054365530621738 0.03628187155716765 0.08143624761867312 0.01185824927115016 0 0 0 0
11732262 -0.4052162381796835 0.036122325403297774 0.08141133574578861 0.011940803119794938 0 0 0 0
11765208 -0.40516667499445247 0.03625334220110334 0.0814314709519637 0.011967086213580067 0 0 0 0
11798154 -0.40499769651189704 0.036325072376744046 0.0814223396576384 0.012038362315736465 0 0 0 0
11831100 -0.4047739051188511 0.036340441524064064 0.08136837060221391 0.012057063455654346 0 0 0 0
11864046 -0.40518922780746175 0.03651588414475748 0.08148194611051315 0.012074137513598314 0 0 0 0
11896992 -0.40527680196554866 0.036535292224890194 0.08147368799413489 0.012130001638985428 0 0 0 0
11929938 -0.40530338291621576 0.036946809505687954 0.08143753726861802 0.012134611837633818 0 0 0 0
11962884 -0.4051247430712735 0.036725746432693704 0.08149023340482972 0.01218191827007456 0 0 0 0
11995830 -0.4049421038752025 0.03650614125059899 0.0814847619906561 0.0122715991740973 0 0 0 0
12028776 -0.404608578419492 0.03674074054593952 0.08144957567366988 0.012301613311854484 0 0 0 0
12061722 -0.4049692719336236 0.037000917832727145 0.0814437751429367 0.012329918151389162 0 0 0 0
12094668 -0.40458935382581823 0.03702817605087214 0.08144214527815265 0.012363240719752052 0 0 0 0
12127614 -0.4049394590782877 0.03729195632867481 0.08151150368814251 0.012384914143008428 0 0 0 0
12160560 -0.4050501516631835 0.03717089829506118 0.08157107334467162 0.012429011463840805 0 0 0 0
12193506 -0.4050383073293172 0.03751195096538287 0.08155344058865466 0.012469929424613212 0 0 0 0
12226452 -0.4046230017357183 0.03718904309082573 0.081530273066932 0.012493412551056555 0 0 0 0
12259398 -0.40490462866308913 0.03745007253163535 0.08153493328114672 0.012524372653507152 0 0 0 0
12292344 -0.4049349492261316 0.037725930440242625 0.08153571961864246 0.012539750855089331 0 0 0 0
12325290 -0.40466286264374174 0.037467072732601 0.08155608923226074 0.012602028503379686 0 0 0 0
12358236 -0.4047755865710598 0.03752304961546872 0.08158140231778542 0.012631535205897841 0 0 0 0
12391182 -0.40439985545229756 0.03757517191437151 0.08155548315923497 0.012693456485125945 0 0 0 0
12424128 -0.40445431131936 0.037772765626768325 0.08155831951828971 0.012667893853495737 0 0 0 0
12457074 -0.40469273579546833 0.03782031116030678 0.08161120816543076 0.012749392461667137 0 0 0 0
12490020 -0.4049053115703993 0.038355230643577605 0.08160807613467327 0.012777036537818027 0 0 0 0
12522966 -0.40486873827534436 0.038500145847931794 0.08158848923760254 0.01277999380214294 0 0 0 0
12555912 -0.4047648527559847 0.03847017688284675 0.08160621806555834 0.012826772660186132 0 0 0 0
12588858 -0.40478244289214504 0.038501144620815074 0.08164583707500868 0.01289087277871192 0 0 0 0
12621804 -0.4047053383098592 0.0379600950773345 0.08165703307610242 0.012933103259266245 0 0 0 0
12654750 -0.4046013008700597 0.0384067579836228 0.08162787686251428 0.013027588169994959 0 0 0 0
12687696 -0.4041289147458677 0.03825352531784892 0.08160575066060086 0.013008497249784286 0 0 0 0
12720642 -0.4042611619938426 0.03855246306232544 0.08165147419353075 0.013046031533918818 0 0 0 0
12753588 -0.40433057407101836 0.03877943860580177 0.08167179496608529 0.013100282936404167 0 0 0 0
12786534 -0.4045836386732848 0.03888607271144806 0.08163271363594085 0.013144457585493097 0 0 0 0
12819480 -0.40462865515469226 0.03910851760731518 0.08173390363829891 0.013182193836265123 0 0 0 0
12852426 -0.40438533007417354 0.038951052154489234 0.08174507004825958 0.013180056903678548 0 0 0 0
12885372 -0.4042207039404388 0.0389411574902507 0.08169975019543886 0.013256337440563945 0 0 0 0
12918318 -0.4038895259614345 0.03911265863604108 0.08168928467924641 0.013303585342195855 0 0 0 0
12951264 -0.40423782413296644 0.03915815461132636 0.08168644350305648 0.013301885212070838 0 0 0 0
12984210 -0.40441226816400383 0.039317332968522335 0.08175461505439245 0.013360929166502574 0 0 0 0
13017156 -0.404251906576006 0.0394252911468486 0.08172767623052145 0.013352920567781982 0 0 0 0
13050102 -0.40425997161128185 0.039468695682693664 0.0817990846749099 0.013427387673408273 0 0 0 0
13083048 -0.4042469673084991 0.039113915599034106 0.0817526096732763 0.01348775378740921 0 0 0 0
13115994 -0.404073457933748 0.03960249200145202 0.08180481728799348 0.013480433755010757 0 0 0 0
13148940 -0.40426686234628656 0.03962915493018117 0.0817842199969231 0.013540361740112758 0 0 0 0
13181886 -0.40422013213374713 0.039930632996198485 0.08180495709427978 0.013541374053191918 0 0 0 0
13214832 -0.40414078297707956 0.03958809786458523 0.08181902579565253 0.013606983207603092 0 0 0 0
13247778 -0.40413111438884114 0.03985052438602981 0.08179413607164354 0.013666937384993721 0 0 0 0
13280724 -0.4041730860162988 0.040025674160621985 0.08183315616438187 0.013690908939395834 0 0 0 0
13313670 -0.40411483670033543 0.039957186532083716 0.08181863727192797 0.013749308086325405 0 0 0 0
13346616 -0.4037530045737718 0.0402310872565333 0.08183345102538933 0.013749556369341331 0 0 0 0
13379562 -0.4039486135519454 0.04036535813205651 0.08179568002734795 0.013805834713197209 0 0 0 0
13412508 -0.4039501578412297 0.04042645269726807 0.08186945649907673 0.013810918888788975 0 0 0 0
13445454 -0.40415464831124903 0.04059023778312275 0.08184208231849063 0.013896611442609244 0 0 0 0
13478400 -0.40406515910154917 0.04051925208525963 0.08191803098836549 0.013883119752617041 0 0 0 0
13511346 -0.40396830664543204 0.0407371535185735 0.08192446101063967 0.013917207920393701 0 0 0 0
13544292 -0.403930976611823 0.040626449325176305 0.08188465742421183 0.013970276468392183 0 0 0 0
13577238 -0.40394078153760266 0.04082854542941439 0.08188942764186288 0.013970399130967431 0 0 0 0
13610184 -0.4038785376621031 0.04071946569047572 0.08187898973946975 0.014052535204880678 0 0 0 0
13643130 -0.4039170147936409 0.04083648239071897 0.08191519659073636 0.014094299937211235 0 0 0 0
13676076 -0.403918521303809 0.04087487952977738 0.08198908842993537 0.01416503036638753 0 0 0 0
13709022 -0.4037040912071541 0.04106377008018027 0.0819275728049619 0.014204937718015731 0 0 0 0
13741968 -0.40359326527911515 0.04117043318565332 0.08186559762943524 0.014211117204748736 0 0 0 0
13774914 -0.40355214134823053 0.041255453067504576 0.0819112422133385 0.01424334911462773 0 0 0 0
13807860 -0.40348916975173854 0.04118224560308407 0.08194325902181934 0.014301371040697588 0 0 0 0
13840806 -0.40384205890917046 0.04153986293580117 0.08200333542441617 0.014286147987972493 0 0 0 0
13873752 -0.4037815387807736 0.041359082504555396 0.08195648304967655 0.014375638571728378 0 0 0 0
13906698 -0.40350600072996584 0.041509496636705334 0.08193076654246091 0.014410585371378619 0 0 0 0
13939644 -0.40375618785532513 0.04161698303304548 0.08200544416778424 0.014423105678921506 0 0 0 0
13972590 -0.40344080495569057 0.04161725938184827 0.08201184634084344 0.01447373173664185 0 0 0 0
14005536 -0.40385437784435557 0.0420832806510112 0.08208731181424356 0.014453748674760092 0 0 0 0
14038482 -0.4034341241182757 0.041840060033015374 0.08205764985810887 0.014551834504957055 0 0 0 0
14071428 -0.4037711667130643 0.04199955127096153 0.08210639963557333 0.014600171990423405 0 0 0 0
14104374 -0.40352495843241015 0.041981088815767814 0.08203450020073633 0.014619432116601192 0 0 0 0
14137320 -0.4035332678923165 0.042219247211223325 0.08207193177587666 0.014638278748202505 0 0 0 0
14170266 -0.40380519216561855 0.04229590575933366 0.08209471783449529 0.014676369491156475 0 0 0 0
14203212 -0.4034955467388425 0.042333527754292055 0.08204652842986863 0.014719733748842086 0 0 0 0
14236158 -0.40371800356075904 0.04270749262557327 0.08209021251023409 0.014711131478138363 0 0 0 0
14269104 -0.40354429620255033 0.04269628870061601 0.08211932138478042 0.01477327988252251 0 0 0 0
14302050 -0.40366128046906974 0.0424898117954325 0.08215229462557161 0.014836272557102652 0 0 0 0
14334996 -0.4034951290124073 0.042912656870761026 0.08209523315008557 0.014883594012805474 0 0 0 0
14367942 -0.40333759479372805 0.042781575160635105 0.08209411663372837 0.014891543534362053 0 0 0 0
14400888 -0.40328385723150645 0.04281798557675892 0.08214602456880908 0.01494110548948095 0 0 0 0
14433834 -0.40355314486825744 0.04295020123192741 0.08219141189041763 0.01497143230927485 0 0 0 0
14466780 -0.4036394503535063 0.04287913217599419 0.0822254283312206 0.015042458058825264 0 0 0 0
14499726 -0.4035452216070634 0.043093790737666574 0.08226401826417408 0.015071642970192317 0 0 0 0
14532672 -0.4034901336256486 0.043392776742393106 0.08227390933300224 0.01508552384405655 0 0 0 0
14565618 -0.40292468113788965 0.04325630406788643 0.08216651654698498 0.015146834713733133 0 0 0 0
14598564 -0.40343931904526414 0.04323066193348126 0.08216205445794633 0.015168877889104088 0 0 0 0
14631510 -0.4033670179733462 0.043549603229073065 0.0822783098015708 0.015181128776954033 0 0 0 0
14664456 -0.4032616770803749 0.04338326014729243 0.08223854954970426 0.01520599794948349 0 0 0 0
14697402 -0.4033974308490922 0.043756201744683386 0.0822631510052253 0.015288352364744648 0 0 0 0
14730348 -0.40294914011473193 0.04365584444930047 0.0822179159875668 0.015308021836368944 0 0 0 0
14763294 -0.40300751974813903 0.04383021466632826 0.08221786393738723 0.015323446267053979 0 0 0 0
14796240 -0.40347981948631795 0.04403774734956388 0.08229962627501601 0.015352976481574902 0 0 0 0
14829186 -0.402931070395861 0.044007524432724265 0.08226662787820407 0.015391780792499013 0 0 0 0
14862132 -0.40319653836245456 0.04419581461942956 0.08226919902287905 0.0154178461269037 0 0 0 0
14895078 -0.40318164877217644 0.04421403403419809 0.08231361573377786 0.015519873645269 0 0 0 0
14928024 -0.40290004772835436 0.04413633034199027 0.08229602598564421 0.015518591061472123 0 0 0 0
14960970 -0.4032217218367903 0.04426830284427596 0.08234723443563469 0.015588846904664265 0 0 0 0
14993916 -0.403040188232251 0.044425816091248856 0.08235629603223621 0.015576915556648804 0 0 0 0
15026862 -0.40322602117401735 0.044583003524759246 0.08239819138592543 0.0155901823826485 0 0 0 0
15059808 -0.40324030294682206 0.04489401276154539 0.08241196994722043 0.015600457094807618 0 0 0 0
15092754 -0.40320347213133645 0.044683481663173714 0.08243743035432255 0.01569236811849863 0 0 0 0
15125700 -0.4031657631468293 0.044690647654109336 0.08247217492132457 0.015724657365192504 0 0 0 0
15158646 -0.40300108007043495 0.04476298715431558 0.08239606391009413 0.01579833903331825 0 0 0 0
15191592 -0.4028231658145938 0.04497313478872525 0.08238982976197241 0.015835527220227824 0 0 0 0
15224538 -0.40299402834612863 0.0449175020241285 0.08240474161918782 0.015830282170490637 0 0 0 0
15257484 -0.4031280519562929 0.04514842886860208 0.0824977861836034 0.015835476977322144 0 0 0 0
15290430 -0.4030470052160436 0.04483282564851466 0.08244815266842954 0.015948057479563862 0 0 0 0
15323376 -0.40296569970774926 0.045261247143466625 0.08243968196869408 0.015967740188126748 0 0 0 0
15356322 -0.4025324467032696 0.045355540571118264 0.08242356884329884 0.015958886484465938 0 0 0 0
15389268 -0.4025874995619635 0.04540619558808668 0.08239749159412546 0.016031570011168617 0 0 0 0
15422214 -0.40278470509314385 0.04536269253220933 0.08249046293678113 0.016061922730764955 0 0 0 0
15455160 -0.4027162124308038 0.04565276403679529 0.08250883947653802 0.016100196073188904 0 0 0 0
15488106 -0.40282810990533385 0.04559745168188746 0.08251740682488741 0.016155329130086597 0 0 0 0
15521052 -0.40256229861246157 0.04576935101807176 0.08249091407516142 0.01618286170051009 0 0 0 0
15553998 -0.4028307037028241 0.045905735048244634 0.08253618249970268 0.016161512636952403 0 0 0 0
15586944 -0.4026251623417085 0.045861509575794074 0.08250892313485354 0.016243063206576494 0 0 0 0
15619890 -0.40277558175663186 0.04619324592626769 0.0825459484048434 0.01628807947247204 0 0 0 0
15652836 -0.4027070784812885 0.046024550494190984 0.0825653145232498 0.016371475503490957 0 0 0 0
15685782 -0.4027961291822173 0.04607860683952322 0.08255786340978004 0.016324566869503662 0 0 0 0
15718728 -0.4023223542325482 0.04621833888122634 0.08245619035794724 0.016416437928069804 0 0 0 0
15751674 -0.4026391635542589 0.04634170054557309 0.08271582135066724 0.01640604368177119 0 0 0 0
15784620 -0.4027761394456367 0.04661844038638184 0.0826082488090553 0.016433492443789454 0 0 0 0
15817566 -0.4027161921261317 0.04644216958770121 0.08254302196957006 0.016488661070659178 0 0 0 0
15850512 -0.40240381944625125 0.0465184929218422 0.08266458411027447 0.016578701988937773 0 0 0 0
15883458 -0.40271192652485266 0.04674854041534667 0.08263999564158067 0.01644604855988337 0 0 0 0
15916404 -0.40256459844748593 0.046730718082528315 0.08266390792664095 0.016548997328140417 0 0 0 0
15949350 -0.40265344040949236 0.046952239643301794 0.0826922983840076 0.01663343558775297 0 0 0 0
15982296 -0.4022062150816142 0.04681299546194279 0.08271173791482474 0.016672005201052977 0 0 0 0
16015242 -0.40240207873655703 0.04704420295300224 0.0827034145352384 0.016707184745330495 0 0 0 0
16048188 -0.40235693928100946 0.04711885602929868 0.0826884847331021 0.016726305408630012 0 0 0 0
16081134 -0.40254565194904235 0.04744230059561706 0.08270437003401686 0.016770931675191704 0 0 0 0
16114080 -0.4023621435949684 0.0473335941063561 0.08278554375260534 0.01679045912123887 0 0 0 0
16147026 -0.40246026729852075 0.047316649971446995 0.08278377089989217 0.016819202657445242 0 0 0 0
16179972 -0.4024137897177252 0.0474171189698093 0.08275545618766661 0.01689187005442363 0 0 0 0
16212918 -0.4023154247465498 0.04760200148984612 0.08272528441491803 0.016924891283064552 0 0 0 0
16245864 -0.40221477277352924 0.04744539572961082 0.08277996746086864 0.016965031107756084 0 0 0 0
16278810 -0.4021140145206503 0.04753137682646405 0.0828468152424785 0.017000949497709823 0 0 0 0
16311756 -0.40230425204124703 0.047858971184514786 0.08277295276337014 0.016977145669695087 0 0 0 0
16344702 -0.4022979317953992 0.04765198382685499 0.08278652976519815 0.0170992020459429 0 0 0 0
16377648 -0.4023440506480188 0.048117640116459436 0.08279993516585187 0.01713701980175043 0 0 0 0
16410594 -0.4022489884804571 0.048125255911913085 0.08284567226796723 0.017069382223844708 0 0 0 0
16443540 -0.4022545458428288 0.048352023569261424 0.08286854533160243 0.017144497411438663 0 0 0 0
16476486 -0.4021685643751619 0.04817204554248366 0.08285944336381669 0.017175899105437733 0 0 0 0
16509432 -0.40218060591813104 0.04832013356417305 0.08292494725516603 0.01722988153273656 0 0 0 0
16542378 -0.40208144103547033 0.04829658027846283 0.08283918419767311 0.017265212125297594 0 0 0 0
16575324 -0.40217142729024175 0.048620634977847556 0.08286370063870972 0.017296021900082118 0 0 0 0
16608270 -0.4020629652244795 0.048817826085122196 0.08291006858563646 0.01733801528025136 0 0 0 0
16641216 -0.4019707703107245 0.048556111358343645 0.08289754462497231 0.017325812648225625 0 0 0 0
16674162 -0.40210482029348055 0.04878917664988058 0.08295251418977037 0.017449004254880798 0 0 0 0
16707108 -0.40174082867843414 0.049010153282606446 0.08293034713097469 0.017446077110340828 0 0 0 0
16740054 -0.4020716198020343 0.04897520241192597 0.0829910289848227 0.017472273960285646 0 0 0 0
16773000 -0.40207428260193256 0.04907047252182812 0.08294535762924983 0.017506011598829887 0 0 0 0
16805946 -0.4018290627034936 0.049195861100884024 0.08297331724431774 0.0175206929969248 0 0 0 0
16838892 -0.4020160646573197 0.048813280513612445 0.08304407304368452 0.017566914212098574 0 0 0 0
16871838 -0.4024251876175491 0.04942695379223275 0.08300489524998579 0.017640168904630008 0 0 0 0
16904784 -0.4017841575906997 0.049342135833713 0.0830462336174477 0.017641519045434997 0 0 0 0
16937730 -0.4017898954367567 0.049433397202185834 0.08303444886301363 0.017668730980795477 0 0 0 0
16970676 -0.4020684312371929 0.04991516976678752 0.08303962783195934 0.017694735683016462 0 0 0 0
17003622 -0.40193911002861404 0.049768359527120984 0.08309539382465214 0.017726380330857723 0 0 0 0
17036568 -0.4019019515665921 0.04975160586264933 0.08307637727735838 0.017726004115326925 0 0 0 0
17069514 -0.40173075316885587 0.04983096631628225 0.08310992853343602 0.017870425876024658 0 0 0 0
17102460 -0.4017103637551192 0.049910712255473146 0.0831157476324552 0.01786181602105185 0 0 0 0
17135406 -0.4018470109562372 0.05009969787376086 0.08310727336391559 0.017881987663639572 0 0 0 0
17168352 -0.40171947336687513 0.04991389608401478 0.0831397875639272 0.01789956541302059 0 0 0 0
17201298 -0.40174436219515175 0.05010666676935472 0.08318797821005602 0.017965988568251722 0 0 0 0
17234244 -0.4017714143170026 0.050312167901165675 0.08313851625955848 0.017994472211956533 0 0 0 0
17267190 -0.40176141577810853 0.05025825892220709 0.08314690718164462 0.018056806346097933 0 0 0 0
17300136 -0.40159208352607306 0.05056146661149653 0.08315915749500444 0.018042498314114187 0 0 0 0
17333082 -0.40169342036769656 0.05069448941224531 0.0831585845915592 0.018089499883021717 0 0 0 0
17366028 -0.40179477919917245 0.05066482887980229 0.08321904287065604 0.0181078442276828 0 0 0 0
17398974 -0.40162877709959177 0.05093625722356051 0.0832614777159756 0.018152518863188364 0 0 0 0
17431920 -0.4015516946913945 0.05073115879490474 0.08315254884445875 0.01825126736907482 0 0 0 0
17464866 -0.40168763179107825 0.050919071191149495 0.08307796244406311 0.018337713924948564 0 0 0 0
17497812 -0.40146415848687705 0.05116053951050634 0.08339428568891376 0.018439253113532332 0 0 0 0
17530758 -0.401042457441358 0.05091111488322154 0.083143190626416 0.01839632696127873 0 0 0 0
17563704 -0.4015371806592638 0.05098465527209543 0.08339572413702157 0.018466573866811498 0 0 0 0
17596650 -0.4015837276922141 0.05126750903985164 0.08341723947728392 0.018352772748948153 0 0 0 0
17629596 -0.4014692641933589 0.05135451376299799 0.08328608044056801 0.018397264364012584 0 0 0 0
17662542 -0.40163630398713446 0.05183080295928842 0.08327405495767283 0.018554779008555712 0 0 0 0
17695488 -0.40153869895523425 0.05173938096691828 0.08334416184117951 0.018463577170768845 0 0 0 0
17728434 -0.4014292527607947 0.05148262882809762 0.08330549483287038 0.01854706631322961 0 0 0 0
17761380 -0.4017785151922929 0.051463096832027815 0.08342890114765593 0.018523251438857587 0 0 0 0
17794326 -0.40132219082034004 0.05173361938469782 0.08340985907795578 0.018603885859984553 0 0 0 0
17827272 -0.4012240040904572 0.051976868009134466 0.08340216242811214 0.018608423757710983 0 0 0 0
17860218 -0.401247678051138 0.052119552479132435 0.08338780184668028 0.018657867863298018 0 0 0 0
17893164 -0.40130015741105585 0.051988106779156606 0.08335442987898457 0.018706363911549107 0 0 0 0
17926110 -0.4013660589100248 0.05212565029021115 0.08338926853341941 0.018731298784478084 0 0 0 0
17959056 -0.40131951847807384 0.052011760091489515 0.08349808700036845 0.018735498925156364 0 0 0 0
17992002 -0.401274345733017 0.052348713871149276 0.08346918683427951 0.01881095808677137 0 0 0 0
18024948 -0.4014548489496758 0.05223795912811224 0.0834320331352055 0.018863016262670604 0 0 0 0
18057894 -0.4012428376698129 0.05223477339385101 0.08347985407055981 0.018834517423102586 0 0 0 0
18090840 -0.40156208967227947 0.052772121699340015 0.08354298918854056 0.018874842299788478 0 0 0 0
18123786 -0.4011714713159908 0.052567155844959065 0.08350672299721341 0.018935061651845955 0 0 0 0
18156732 -0.4010283615811234 0.052884859807267176 0.08348271242134273 0.018973048706120155 0 0 0 0
18189678 -0.40117760816031983 0.05288859340924363 0.08347142061898624 0.018995691541100257 0 0 0 0
18222624 -0.4011241546319561 0.0527292784909154 0.08352337381720683 0.019013364700303022 0 0 0 0
18255570 -0.40099891519372854 0.05319094053686379 0.0834835380611955 0.019001301704541496 0 0 0 0
18288516 -0.400975252151029 0.05277902502485768 0.08350415917880673 0.019119751055555904 0 0 0 0
18321462 -0.4014474351039923 0.05298394433183439 0.08359439653260246 0.01915393933322393 0 0 0 0
18354408 -0.40097635692514066 0.05312314362053089 0.08367319806786842 0.019202128625721328 0 0 0 0
18387354 -0.4005092727458611 0.05307917638343904 0.08355793709384517 0.019217687452772362 0 0 0 0
18420300 -0.40099830023483624 0.05345389634774718 0.08355673235453039 0.019238484972871 0 0 0 0
18453246 -0.4007878552604571 0.05334519341025904 0.08364510081686106 0.019242535806043556 0 0 0 0
18486192 -0.4011322739690027 0.05343107607052726 0.08366553866478078 0.01931194558030161 0 0 0 0
18519138 -0.40090117916023293 0.05353514338756044 0.08365448977934327 0.019372473190391443 0 0 0 0
18552084 -0.40088811513247136 0.053761398890808686 0.08363303382708387 0.019390309675545985 0 0 0 0
18585030 -0.40088986464471243 0.05408138230311679 0.08370044760079455 0.019371939250246724 0 0 0 0
18617976 -0.4008562968013157 0.05400282191018689 0.0836655470598007 0.019426812712189812 0 0 0 0
18650922 -0.4008539056441124 0.053980731472292716 0.08365511269690735 0.019436743046052567 0 0 0 0
18683868 -0.40090243467327674 0.053946230896547605 0.08376042202298599 0.01948820959652508 0 0 0 0
18716814 -0.4007690963145844 0.054289906913130764 0.08373715011956642 0.019562218117054917 0 0 0 0
18749760 -0.40097415987199586 0.05419468704263643 0.08372965221755546 0.019628142279085034 0 0 0 0
18782706 -0.40050747139304693 0.05440548859372141 0.0837752000140546 0.01962973067971519 0 0 0 0
18815652 -0.4007233088043323 0.054719534918134125 0.08375130417572721 0.019637383905356614 0 0 0 0
18848598 -0.4009252802720501 0.054684876544856105 0.08376427917476716 0.0196955070787808 0 0 0 0
18881544 -0.4007212540789559 0.05466102533171302 0.08378355118334575 0.01967390909205849 0 0 0 0
18914490 -0.400954425603289 0.054550825193117984 0.08388658808623155 0.0197636564529461 0 0 0 0
18947436 -0.40068369516894103 0.05488493016274749 0.08387842660157893 0.01977803334787633 0 0 0 0
18980382 -0.40054924499081246 0.0548362327124886 0.08377227392651583 0.019816525218698863 0 0 0 0
19013328 -0.4006855589266451 0.05518027144220183 0.08384500516672047 0.019815262224180025 0 0 0 0
19046274 -0.4008085881194027 0.055044683058650644 0.08388412280398454 0.01988665423149625 0 0 0 0
19079220 -0.40069581226902623 0.05504412560084822 0.08388557072816363 0.019892327951927843 0 0 0 0
19112166 -0.40065256857965825 0.05515628243807539 0.08387797945306955 0.019952615242455174 0 0 0 0
19145112 -0.40031117719544673 0.05543502655184263 0.0839178186641827 0.019967961177772522 0 0 0 0
19178058 -0.40077826579499726 0.055502582539099336 0.08396166171850077 0.019995428946104954 0 0 0 0
19211004 -0.40050868324750083 0.0555309167205459 0.08389229507815464 0.020022295647369976 0 0 0 0
19243950 -0.40047715696612096 0.0556226415186633 0.08396549635433931 0.02006741438044594 0 0 0 0
19276896 -0.40064481772408117 0.05549028368239519 0.08400466509024418 0.020063235578052296 0 0 0 0
19309842 -0.4004189882159402 0.055770711206327504 0.08399783049235783 0.02014146781629289 0 0 0 0
19342788 -0.4005327082739831 0.05600654536625187 0.08398867084993371 0.02017494319090243 0 0 0 0
19375734 -0.4004772964014531 0.05604408821274009 0.08398627830790635 0.02020352169351292 0 0 0 0
19408680 -0.4005267247784408 0.05589214711382037 0.08402397728104437 0.020248715078509644 0 0 0 0
19441626 -0.4005498036791112 0.055976735183934104 0.08405425567295942 0.02032714681658309 0 0 0 0
19474572 -0.4003648032119599 0.0563356800471817 0.08407610311474191 0.020304497000340527 0 0 0 0
19507518 -0.4002556527393942 0.056540945977472334 0.08404326792582985 0.020370886389860537 0 0 0 0
19540464 -0.40057214559566584 0.0565734957837301 0.0841372729562214 0.02034671170427074 0 0 0 0
19573410 -0.4002308237709698 0.05658394807339931 0.08405985674736131 0.020362651803746232 0 0 0 0
19606356 -0.40055928465849333 0.05648371472877712 0.08413751623919448 0.02043812043027995 0 0 0 0
19639302 -0.40044032922073336 0.0564748956906732 0.08412917169421176 0.02047778249279635 0 0 0 0
19672248 -0.40024225594490015 0.05669817261114081 0.08411143771656325 0.0205324863609053 0 0 0 0
19705194 -0.40011357329959646 0.05690416249770293 0.0841290256965096 0.02056562832924846 0 0 0 0
19738140 -0.4003396429643892 0.05708861983454181 0.08408837756000394 0.02060447059341143 0 0 0 0
19771086 -0.40004307043618725 0.05690043398397461 0.08418404817113248 0.02060167485099581 0 0 0 0
19804032 -0.4002571051068499 0.05693615191278822 0.08422450419815042 0.020628280667407437 0 0 0 0
19836978 -0.40013696943833343 0.0571427649344846 0.0841355266206737 0.020717311975543454 0 0 0 0
19869924 -0.40024912948497066 0.05750609848869821 0.08424357383446875 0.020723399308154655 0 0 0 0
19902870 -0.40014771082292405 0.0575258773296501 0.08427071470161013 0.020742166815748045 0 0 0 0
19935816 -0.39997539576682084 0.05752918170459439 0.08424019067707693 0.020771972432384985 0 0 0 0
19968762 -0.400120426674187 0.057489367948904656 0.08428489254828996 0.02080920393704939 0 0 0 0
20001708 -0.39996345109902764 0.057673000371419016 0.08433268769177846 0.020847291437449553 0 0 0 0
20034654 -0.39993254699176317 0.05771295262239556 0.08430138033482222 0.020856541935688817 0 0 0 0
20067600 -0.3997618076882517 0.05787325984265467 0.08424779345540041 0.0209135616653787 0 0 0 0
20100546 -0.3999284652693021 0.05795275642621937 0.08431175969282044 0.02091815122407266 0 0 0 0
20133492 -0.39990972567216365 0.05790354427330301 0.08435007808682495 0.020971368464936177 0 0 0 0
20166438 -0.4000285011670495 0.05799439712082368 0.0843892932338208 0.02101370231416955 0 0 0 0
20199384 -0.39979375246778376 0.05828106192297284 0.08434331932628836 0.02105547941171295 0 0 0 0
20232330 -0.40001629511031184 0.05853112166009213 0.08440896546260795 0.021068578742584054 0 0 0 0
20265276 -0.40015121649593877 0.05819311930847577 0.0843494676119749 0.021070876324530453 0 0 0 0
20298222 -0.4001029470391273 0.058330467922647185 0.0844753391669468 0.021127440153427927 0 0 0 0
20331168 -0.3997250598724911 0.058607062656412766 0.08440400650502528 0.021148749427268132 0 0 0 0
20364114 -0.399756852843078 0.05856965554897172 0.08444367101457731 0.02119231964633838 0 0 0 0
20397060 -0.3997913455444711 0.05892181320536697 0.08443639131978319 0.021258921318517723 0 0 0 0
20430006 -0.40007313140580214 0.05893507505133404 0.0845161525291057 0.021245139509453607 0 0 0 0
20462952 -0.39951461239494557 0.05873541657106307 0.08444185987225859 0.021292233908949063 0 0 0 0
20495898 -0.39971526722980943 0.058998357404968824 0.08455542324502531 0.02135577110537074 0 0 0 0
20528844 -0.3994703761211626 0.05903837974094716 0.08450635917765358 0.021326689240996354 0 0 0 0
20561790 -0.3996680864258394 0.059456812532406915 0.08457603910437042 0.021393674971476567 0 0 0 0
20594736 -0.39991801600224425 0.05938148086091656 0.08456506355998254 0.021378235054056366 0 0 0 0
20627682 -0.39949721309973846 0.05935354555551259 0.0845153865032716 0.021469771021655405 0 0 0 0
20660628 -0.39966465553913744 0.0594357961521188 0.08463959236535423 0.02147476393516951 0 0 0 0
20693574 -0.3993815920679828 0.059531264610315694 0.08463321134710601 0.021483822661006187 0 0 0 0
20726520 -0.3993597145190973 0.059481798713731555 0.08461096824376957 0.021570136786638987 0 0 0 0
20759466 -0.3993177930279994 0.05943562285757364 0.0845739284595655 0.02161687455955744 0 0 0 0
20792412 -0.39972150341568957 0.059936250699184755 0.08466462855621948 0.021600027437318786 0 0 0 0
20825358 -0.3999386661296419 0.05997831879955521 0.08463008245551107 0.021634246509451456 0 0 0 0
20858304 -0.3994099187308374 0.059881961614658585 0.08466915781814197 0.021686461255050672 0 0 0 0
20891250 -0.39930082689161656 0.060070114606358714 0.0846578595294187 0.021715076382308043 0 0 0 0
20924196 -0.39910614523475135 0.05997320874286534 0.08467340544282516 0.021754357177722523 0 0 0 0
20957142 -0.39954311702527057 0.060377257041670615 0.08471982662038946 0.021778749929061474 0 0 0 0
20990088 -0.399822651767097 0.06043406233572905 0.08476823139634823 0.02181724700272518 0 0 0 0
21023034 -0.39935885927862197 0.06024169995489756 0.0847773768547705 0.021818051713588724 0 0 0 0
21055980 -0.3993749873859781 0.06038320262184238 0.08478012615341404 0.021922801794781694 0 0 0 0
21088926 -0.39919449072850793 0.06055040039985642 0.08485569274178202 0.02194641686212273 0 0 0 0
21121872 -0.3992762516926227 0.06070399258082421 0.08477804262090159 0.021996398434350622 0 0 0 0
21154818 -0.39946010234270046 0.0611079783745436 0.08489023545125042 0.02197516736652392 0 0 0 0
21187764 -0.3993536883119458 0.06102140355720924 0.08488106305308356 0.02203062002025979 0 0 0 0
21220710 -0.39922468338808703 0.061066699881029564 0.08481271834962055 0.02208047531405483 0 0 0 0
21253656 -0.39967536026795375 0.06111400642380522 0.08485458529014751 0.022049172675399686 0 0 0 0
21286602 -0.3992792450009246 0.0610143784141541 0.08485110133259757 0.022125634607832033 0 0 0 0
21319548 -0.39913859442320493 0.06127735716886668 0.08489063807730352 0.022149389744653553 0 0 0 0
21352494 -0.39908896243273606 0.06130065951482876 0.08481547077991661 0.022232630288178082 0 0 0 0
21385440 -0.39899131829638296 0.06155707846993942 0.08483226320008871 0.022249964797264175 0 0 0 0
21418386 -0.3993086774715686 0.06179907511604663 0.0849665327386807 0.022231577623132538 0 0 0 0
21451332 -0.3990172361935974 0.06153399821810677 0.0848904667202885 0.022299390316578502 0 0 0 0
21484278 -0.39947294923474225 0.06167026035803572 0.084959662244728 0.02232217497665498 0 0 0 0
21517224 -0.3993048385352388 0.06176210866716128 0.0850135746336228 0.022320833949695074 0 0 0 0
21550170 -0.3991748947486646 0.06196453312030784 0.08501502226155912 0.022371651066303216 0 0 0 0
21583116 -0.3989912545486631 0.06204377653002959 0.08495337470941934 0.022405528352693903 0 0 0 0
21616062 -0.3990763880531336 0.06212482328318727 0.0850677991116555 0.022415938091961983 0 0 0 0
21649008 -0.39901314123776044 0.06203954464228581 0.08496146643324454 0.02245862010671725 0 0 0 0
21681954 -0.39896181557590193 0.062049797687278606 0.08499158797614874 0.022491812346802097 0 0 0 0
21714900 -0.3992140484618723 0.06219503531839452 0.08513415550903747 0.02252044892606643 0 0 0 0
21747846 -0.3987293929126079 0.06237794717081229 0.08509256243789873 0.02255798668742178 0 0 0 0
21780792 -0.399091909349248 0.06275349341971587 0.08511429943437593 0.022609022830972342 0 0 0 0
21813738 -0.39891050393253674 0.06242272071991845 0.08507255534223201 0.022648150154647374 0 0 0 0
21846684 -0.39914399288149216 0.06265435485249451 0.08512357896949536 0.02267434643152315 0 0 0 0
21879630 -0.3987354136798642 0.0625630536369432 0.08512959197649111 0.022696267910195543 0 0 0 0
21912576 -0.398829899280559 0.06276753285518533 0.08518884884764083 0.022715943873490557 0 0 0 0
21945522 -0.3986879545388228 0.06277251617509637 0.08511397701365016 0.022750837091966437 0 0 0 0
21978468 -0.3987696046896909 0.06289089577847845 0.08516825903985491 0.02283134286495321 0 0 0 0
22011414 -0.3987489386658365 0.06311438548666187 0.08521503063157095 0.022830521458452793 0 0 0 0
22044360 -0.39862073813188587 0.06313763331585699 0.08522168019245904 0.02291193562978725 0 0 0 0
22077306 -0.3990775194719552 0.06316461255253004 0.08525017146682932 0.022920134105140006 0 0 0 0
22110252 -0.3985645857785909 0.0633291310291904 0.0852619551551697 0.02294451122783945 0 0 0 0
22143198 -0.39871833327966916 0.06375144554775115 0.08532017649971803 0.022919887537800932 0 0 0 0
22176144 -0.3987008308235232 0.06376741570605099 0.0853044107199834 0.022986809100294645 0 0 0 0
22209090 -0.39886048440153377 0.06348652881277246 0.0852945999894262 0.023033776977027014 0 0 0 0
22242036 -0.3986377374834252 0.06378463713483101 0.08536799555942559 0.02300389339028587 0 0 0 0
22274982 -0.39850223842003385 0.06368388164400846 0.08531777490101494 0.02310860916273787 0 0 0 0
22307928 -0.39864741243298896 0.06396369150467128 0.08542124055269316 0.023098349018469397 0 0 0 0
22340874 -0.398316799054659 0.06413735303780929 0.08532558396914286 0.023146389631485905 0 0 0 0
22373820 -0.3983853255325474 0.06428575235971334 0.08535626124906244 0.023201736833074478 0 0 0 0
22406766 -0.3984321208742673 0.06414504568977396 0.08536942871931755 0.023228170130862102 0 0 0 0
22439712 -0.39864595647640594 0.06404200459457934 0.08539389127988525 0.02327120552887356 0 0 0 0
22472658 -0.39851427162252406 0.06431396093247517 0.08545793355253505 0.023268948930254926 0 0 0 0
22505604 -0.39835067387330425 0.06436712269999534 0.08542388820417614 0.023287787183936735 0 0 0 0
22538550 -0.3984159421162471 0.06447271414099257 0.08548625674225634 0.023349906371030172 0 0 0 0
22571496 -0.39832257376828983 0.06470843653151616 0.08547615400718506 0.023460381131108814 0 0 0 0
22604442 -0.3985731544014845 0.06510298967296914 0.08554633854708218 0.023398684099160565 0 0 0 0
22637388 -0.39837313699509613 0.06471185979711067 0.08552460761801936 0.023436413104782106 0 0 0 0
22670334 -0.3986477250370563 0.06502112145206462 0.0855424904787274 0.023414166043598326 0 0 0 0
22703280 -0.3983770622836119 0.0649035032191348 0.08559012263624041 0.02349628692543123 0 0 0 0
22736226 -0.3983325160260878 0.06503750704476645 0.08557039317652214 0.023528068394910204 0 0 0 0
22769172 -0.39808851280272334 0.06507907697636127 0.08554486156102974 0.023612762517981088 0 0 0 0
22802118 -0.3983863565385462 0.06525262315621196 0.08563326162904056 0.023603441946234673 0 0 0 0
22835064 -0.39864384723291674 0.06538794352897291 0.08567397237813319 0.023570009286148767 0 0 0 0
22868010 -0.39822896058761686 0.06544593720813008 0.08562342111578276 0.023655593622292536 0 0 0 0
22900956 -0.39789443458340984 0.06547429836935767 0.08562930904183484 0.023705811465207907 0 0 0 0
22933902 -0.39798384689121197 0.06565056259177406 0.0856671670787219 0.023764011249623244 0 0 0 0
22966848 -0.39813969916539177 0.06581326206646246 0.0857330977867869 0.023772410026093746 0 0 0 0
22999794 -0.3981239660473033 0.06572160949587372 0.08568612704706034 0.023817734337378528 0 0 0 0
23032740 -0.39838758772735805 0.06579164395970573 0.08573830603474042 0.023822288027675352 0 0 0 0
23065686 -0.39776314910275473 0.06598119435192447 0.0857836160703183 0.02386413672287992 0 0 0 0
23098632 -0.39794791425140796 0.0659627981638996 0.0857568894712226 0.023877934975043848 0 0 0 0
23131578 -0.39806969250221325 0.06629929477735713 0.08581129122645903 0.023926001658868323 0 0 0 0
23164524 -0.3979896673182192 0.06625886525339121 0.08581690967584511 0.023995393851045772 0 0 0 0
23197470 -0.39778090627723084 0.06629454225489281 0.08576451836447091 0.02400993294103595 0 0 0 0
23230416 -0.3981418884224168 0.06652456850341118 0.0858011695363674 0.024045616860019714 0 0 0 0
23263362 -0.3979460155989305 0.0662991293473433 0.08585123158196696 0.02403203692786867 0 0 0 0
23296308 -0.3979760106521929 0.06647439856033432 0.08584517669883117 0.02410825911679955 0 0 0 0
23329254 -0.39806869027033726 0.06666910261107256 0.08589050357960303 0.024106501462234933 0 0 0 0
23362200 -0.3976929832738317 0.06665962074883677 0.0858972402784597 0.024164202173456276 0 0 0 0
23395146 -0.3976473371725917 0.06685859980070435 0.08589153813088715 0.024173782423609902 0 0 0 0
23428092 -0.3979310098868583 0.06705683261568679 0.08597341915518442 0.02420297496477585 0 0 0 0
23461038 -0.3983094214279797 0.06713017560891973 0.08601282160772683 0.02422179527237797 0 0 0 0
23493984 -0.39757798480185425 0.06705454512097163 0.08598733189558183 0.024279106599128162 0 0 0 0
23526930 -0.3978449853753351 0.0673979139149346 0.08597454680719493 0.024316231317771258 0 0 0 0
23559876 -0.3977181237731898 0.06734758174925408 0.08600669513121398 0.024324694076056586 0 0 0 0
23592822 -0.3980836358949933 0.06752093018425942 0.08603253523560778 0.024326471508384264 0 0 0 0
23625768 -0.3977944486101601 0.06751516855233972 0.0861080656033385 0.02435113547744254 0 0 0 0
23658714 -0.39748930742143823 0.06760137499113744 0.08603398761298331 0.024439931202972442 0 0 0 0
23691660 -0.39734406481273155 0.06772629300946965 0.08608350436308994 0.024444169624859274 0 0 0 0
23724606 -0.3974248491592301 0.06776546265097504 0.08606567254142258 0.02448380145445745 0 0 0 0
23757552 -0.3974694703477756 0.06789415193897531 0.0860589483464715 0.024527969250053197 0 0 0 0
23790498 -0.39768071584046916 0.06789899220433696 0.0861173565670803 0.024545871042792215 0 0 0 0
23823444 -0.3977373238097769 0.06808647713761987 0.08616774989576174 0.024580773961249164 0 0 0 0
23856390 -0.397611832339886 0.06827266293756969 0.08619676522842003 0.02465528466723431 0 0 0 0
23889336 -0.39737322040985384 0.06808329595692139 0.08616644356495218 0.02465434604872267 0 0 0 0
23922282 -0.3973703370516234 0.06861431626114327 0.0861876978783694 0.024666535257932092 0 0 0 0
23955228 -0.39740618631074176 0.06830152513112793 0.08620399235185482 0.024742680395843875 0 0 0 0
23988174 -0.3976861595495661 0.06857342753753781 0.08624096854644155 0.02471114766224524 0 0 0 0
24021120 -0.39749784533645405 0.06869604443542442 0.08628661686782269 0.024713032200699554 0 0 0 0
24054066 -0.39707470548401824 0.06864826519430599 0.08627381571092448 0.02479685392448779 0 0 0 0
24087012 -0.397318909741731 0.06878115135909725 0.08625872009018815 0.024866018342691608 0 0 0 0
24119958 -0.3975908921691065 0.06906024258389716 0.08633503566633274 0.02483069743365712 0 0 0 0
24152904 -0.3974180070451128 0.06865138664642355 0.08631654867322185 0.024917107993694232 0 0 0 0
24185850 -0.39756128688109726 0.06888733852978848 0.08632289893407764 0.02490730658022191 0 0 0 0
24218796 -0.39708252439326386 0.06906941990277211 0.08634539828790222 0.024953695797222366 0 0 0 0
24251742 -0.3973042055356992 0.06902246469287641 0.08638494746918224 0.025022646491626634 0 0 0 0
24284688 -0.3970765345745962 0.06953947599684783 0.08635677414751632 0.025024505988327506 0 0 0 0
24317634 -0.39735273917695957 0.0690499184700443 0.08639674578530813 0.025047965736777082 0 0 0 0
24350580 -0.3975746498964401 0.06958049663038589 0.08651490663124506 0.02507022020258063 0 0 0 0
24383526 -0.39699071854015605 0.06946300284967177 0.08641326777139553 0.02512437687145567 0 0 0 0
24416472 -0.3970756226889313 0.06976939646666504 0.08643884153128813 0.02514473818780427 0 0 0 0
24449418 -0.39729316727842523 0.0698307982780772 0.0865430495862774 0.02517478328588544 0 0 0 0
24482364 -0.3971678583684161 0.06993006934648874 0.08652674550591767 0.025197859659562113 0 0 0 0
24515310 -0.3974278203211081 0.06976362308402939 0.08654317039445647 0.025254455079790333 0 0 0 0
24548256 -0.39715179480398566 0.07012027349100124 0.08657943415733373 0.025231621689410837 0 0 0 0
24581202 -0.3967627305550012 0.07005092885583626 0.08655977029672166 0.025307974085801127 0 0 0 0
24614148 -0.39704348888116336 0.07016563986672603 0.0865937987875227 0.025315333268108253 0 0 0 0
24647094 -0.3967355613729848 0.07034958043614632 0.08656075561980826 0.02535612770819597 0 0 0 0
24680040 -0.3967965027748794 0.07045146534559721 0.08654335005149781 0.025379235867429312 0 0 0 0
24712986 -0.3966362351895243 0.07059820851938631 0.08661908742688247 0.025434602175863866 0 0 0 0
24745932 -0.39692504767750036 0.07050811652084965 0.08667731881732321 0.025478668219717386 0 0 0 0
24778878 -0.3970310606463761 0.07043652259623015 0.08665594896344232 0.025476490314798567 0 0 0 0
24811824 -0.3970601701325461 0.07077226010727912 0.08677286354975522 0.02547754334970968 0 0 0 0
24844770 -0.3966563217458162 0.07078825673805196 0.0867091403745332 0.02553851803935589 0 0 0 0
24877716 -0.396800225409288 0.07087484096126902 0.08672807087917321 0.02558092840240939 0 0 0 0
24910662 -0.3969260700969221 0.07104730179053055 0.086728900611964 0.02563866084894943 0 0 0 0
24943608 -0.39687979133125373 0.0709546928551365 0.08673529297945351 0.025635704903880566 0 0 0 0
24976554 -0.3968609050329882 0.07090575629592018 0.08678118771402529 0.025664175319908066 0 0 0 0
25009500 -0.39682405137872107 0.07089812059874954 0.08676899226155671 0.025687236649568214 0 0 0 0
25042446 -0.3967738197893489 0.0715526323573789 0.0868415621495158 0.02569906557828441 0 0 0 0
25075392 -0.3966664673537005 0.07137803112232922 0.08686654491604531 0.025773602663619364 0 0 0 0
25108338 -0.39639850297059853 0.07153886883411556 0.08681275755784272 0.0257842493097652 0 0 0 0
25141284 -0.3964966357291795 0.07165926137522373 0.08684452004402576 0.025840947644172278 0 0 0 0
25174230 -0.3968781057331393 0.07159955422374426 0.08689776473964445 0.02585761973961158 0 0 0 0
25207176 -0.3965884969167782 0.07186099734078488 0.08693676683948896 0.025884080661173852 0 0 0 0
25240122 -0.3962435457895729 0.07188600715487785 0.08693777462865016 0.025894172545574336 0 0 0 0
25273068 -0.39654638116526425 0.07209019855941476 0.08698931903890801 0.02590421482834285 0 0 0 0
25306014 -0.3964661875546163 0.07187511870914381 0.08691578147611179 0.025982070745068718 0 0 0 0
25338960 -0.39650454337934 0.07209466433261945 0.087043475416151 0.02601097436277068 0 0 0 0
25371906 -0.3966762501913085 0.07211761134582648 0.08699170211373175 0.02603021765654276 0 0 0 0
25404852 -0.3965792736995827 0.07254250992289786 0.08706168443055098 0.02601584255693439 0 0 0 0
25437798 -0.3963045321052223 0.0723706812389527 0.08709683582181744 0.026080294040808295 0 0 0 0
25470744 -0.3962373073343451 0.07257413383886707 0.08697597159216726 0.026136445165523756 0 0 0 0
25503690 -0.3966100346151506 0.0726236547641782 0.08711214322927953 0.026145255896343447 0 0 0 0
25536636 -0.396412783860122 0.07255940146505 0.08708397650524179 0.026162095878334353 0 0 0 0
25569582 -0.39659783021599204 0.07257995615901403 0.08708420374403596 0.026231406341056196 0 0 0 0
25602528 -0.3966682706226402 0.07297396951248986 0.08720985728997019 0.026234203832013907 0 0 0 0
25635474 -0.39606172877976187 0.07288146100110673 0.08716541806843853 0.02629043752982254 0 0 0 0
25668420 -0.3960987030036082 0.07296930706732853 0.08717852296592435 0.026360829484126734 0 0 0 0
25701366 -0.39601653990679786 0.07308335933757598 0.08718766475916621 0.02636692819859718 0 0 0 0
25734312 -0.39624572255825474 0.07312020726691146 0.08718855958798251 0.026384440575264654 0 0 0 0
25767258 -0.39624549826160915 0.07312773213133004 0.08723710586464054 0.026384986345974595 0 0 0 0
25800204 -0.39589426332208766 0.07327027099165337 0.0872446512142762 0.026442129788929063 0 0 0 0
25833150 -0.3959375480927114 0.07365979259530235 0.08721579696663348 0.026425715104232483 0 0 0 0
25866096 -0.39605742126356835 0.07356878374672784 0.08728625436367866 0.026508926645401696 0 0 0 0
25899042 -0.39624199756220474 0.07368851564213497 0.08728914275398508 0.026508164061797693 0 0 0 0
25931988 -0.39618204524564254 0.07384318383967978 0.08734416362335673 0.026526256449799345 0 0 0 0
25964934 -0.39634942380588445 0.07406632871708241 0.08741660013376394 0.026591659050451983 0 0 0 0
25997880 -0.39633679359572144 0.07392761256445211 0.08742836507157682 0.026613832264308065 0 0 0 0
26030826 -0.3960100513650792 0.07374030319437642 0.08735108455223008 0.02665431772017204 0 0 0 0
26063772 -0.3958839722685717 0.07419500500655138 0.08742944523661161 0.026634340745389302 0 0 0 0
26096718 -0.39574069813435164 0.0742019533120169 0.08743050881224161 0.026668368141282008 0 0 0 0
26129664 -0.3956241792917212 0.07428666299522942 0.08741784940244697 0.02674171430799364 0 0 0 0
26162610 -0.3957778617471956 0.07442309655191319 0.08749062965209894 0.026761538913659514 0 0 0 0
26195556 -0.3957588320807378 0.07456705373202359 0.0874425974140792 0.026778748562330146 0 0 0 0
26228502 -0.3960975424425887 0.07466460974960164 0.0875084807171093 0.026816539962887485 0 0 0 0
26261448 -0.3957804197796362 0.07461866816988467 0.08751363266455477 0.026839141757781387 0 0 0 0
26294394 -0.3959483943596046 0.07444090139943199 0.08754237654460359 0.02689158575344673 0 0 0 0
26327340 -0.395950310343476 0.07494040654628385 0.08758275555023491 0.02686303704660843 0 0 0 0
26360286 -0.3955530953506287 0.0748346349514396 0.08756979555670191 0.026905965061294553 0 0 0 0
26393232 -0.39566066614610257 0.07504856452530201 0.08765498651057484 0.02695736155014422 0 0 0 0
26426178 -0.39568092721613934 0.07515230603691708 0.08767816308370176 0.027008424760329688 0 0 0 0
26459124 -0.3955908118904921 0.0753651691806095 0.08761090738777996 0.027002786769648998 0 0 0 0
26492070 -0.39546263874806103 0.07535984995031489 0.0876566888602869 0.027098389400549632 0 0 0 0
26525016 -0.39591186418871943 0.07533074389666403 0.08772867179958255 0.02708297966565589 0 0 0 0
26557962 -0.3955596128899628 0.07537172263174927 0.08771417854699785 0.027096126470713456 0 0 0 0
26590908 -0.3957948121007427 0.07567003321724504 0.0877485624616355 0.027063641242363875 0 0 0 0
26623854 -0.3955197809599715 0.07551133866941727 0.08779181492539083 0.02716093462754926 0 0 0 0
26656800 -0.39556250506046414 0.075819591656464 0.08779673361835118 0.02718004096313723 0 0 0 0
26689746 -0.3953767102975254 0.07561743071636133 0.08777648993374045 0.027226966061863832 0 0 0 0
26722692 -0.39549934432948564 0.07601373024038759 0.0878054083485128 0.02725611401684205 0 0 0 0
26755638 -0.39548020057016514 0.07595007653918437 0.08780923393952314 0.0272835082341602 0 0 0 0
26788584 -0.39545037756545987 0.07616479769853353 0.0878725814157453 0.027254636203294873 0 0 0 0
26821530 -0.39538997023270656 0.07601289160288137 0.08782880244750527 0.027368239652737398 0 0 0 0
26854476 -0.39530355785131677 0.07604027847114304 0.0878592006168448 0.027360121621474488 0 0 0 0
26887422 -0.3952842346435468 0.07634095474327308 0.08789989963569889 0.027382367317713218 0 0 0 0
26920368 -0.39510994600023297 0.07635791526964446 0.08794032994032061 0.027428914946733975 0 0 0 0
26953314 -0.3954108180921679 0.07675764395882868 0.08791777042123716 0.027428231842566535 0 0 0 0
26986260 -0.3950835452469383 0.07656941232107309 0.08796117089094074 0.0275032948254162 0 0 0 0
27019206 -0.395620432867582 0.07673002287116111 0.08798260113691082 0.027484662419889092 0 0 0 0
27052152 -0.3956181472376085 0.07680344192315017 0.0880422321077583 0.02752107859653809 0 0 0 0
27085098 -0.39525951086043654 0.07678291311882292 0.08799201777208261 0.027569706325258216 0 0 0 0
27118044 -0.3952199649731596 0.07696771006689591 0.0880608459885867 0.027602366907872794 0 0 0 0
27150990 -0.39512675234019234 0.07715527327045044 0.08807888147613668 0.027659310224901496 0 0 0 0
27183936 -0.39493818207383313 0.07715581131398742 0.08808418571902585 0.0276599366814402 0 0 0 0
27216882 -0.39509883884084224 0.07746483914156477 0.08811333139130328 0.027702531052845557 0 0 0 0
27249828 -0.3950207848963943 0.0772752308700255 0.08808133471035097 0.027763788614116002 0 0 0 0
27282774 -0.3952968320163586 0.07729650844687659 0.0881461798766715 0.027765736650958276 0 0 0 0
27315720 -0.39498662506189797 0.07724455256325953 0.08813865745663438 0.02779466240651394 0 0 0 0
27348666 -0.39479983792382267 0.07757477136567309 0.08814832601214975 0.02780674508047671 0 0 0 0
27381612 -0.3951047230707004 0.07779810385826955 0.08825640530360063 0.027850094492802187 0 0 0 0
27414558 -0.39513079150754055 0.07808458193477247 0.08822636558536588 0.027809282591773524 0 0 0 0
27447504 -0.39482932590480047 0.0778750155752326 0.08824493596288913 0.027922517425938567 0 0 0 0
27480450 -0.3952269324386226 0.07780899551208394 0.08827631424374006 0.027952636361527203 0 0 0 0
27513396 -0.39496124853971964 0.07795932177915445 0.08828604438489161 0.027957168324663266 0 0 0 0
27546342 -0.39484051216346755 0.07822409810660268 0.08828286201550824 0.027990209450212484 0 0 0 0
27579288 -0.39471307115147625 0.07825606857908754 0.08831350543175018 0.02799312068970591 0 0 0 0
27612234 -0.3946277285424453 0.07817159904883524 0.08833106167005085 0.028018598754759493 0 0 0 0
27645180 -0.3949625205286359 0.07816847467200559 0.08840845035621503 0.02811704640784552 0 0 0 0
27678126 -0.39480708538419124 0.07888326583169979 0.0884098452015097 0.028131400185982213 0 0 0 0
27711072 -0.3945860655975438 0.0784814172812879 0.08838919476144864 0.028163800308203504 0 0 0 0
27744018 -0.3946471821422512 0.07879227094280476 0.08847140008718157 0.028146419675277135 0 0 0 0
27776964 -0.3949568743227069 0.07869532159399692 0.08847031335279451 0.028158814251186954 0 0 0 0
27809910 -0.3947227173193568 0.07909389902072986 0.08847951067226852 0.02822498693265045 0 0 0 0
27842856 -0.39458176525257965 0.0787520911429687 0.08850709432274645 0.02825120859827654 0 0 0 0
27875802 -0.3946672105683933 0.07893746368361722 0.08851002335147792 0.02825210497683907 0 0 0 0
27908748 -0.3944614456385703 0.07881777780526932 0.08848560521919721 0.028358278536271247 0 0 0 0
27941694 -0.3946678319588022 0.07906145057361076 0.0885555141422568 0.028333625324853652 0 0 0 0
27974640 -0.3948120841561474 0.07922107255463487 0.08856489107345458 0.028361101334270215 0 0 0 0
28007586 -0.3944287960628489 0.07923832089286359 0.08858121881333783 0.028381528532363857 0 0 0 0
28040532 -0.39452574592471445 0.07967429659854926 0.088593186411633 0.02840599137185887 0 0 0 0
28073478 -0.39434048886986334 0.07949726174717806 0.08861762418551934 0.028433152042019325 0 0 0 0
28106424 -0.39441500311121286 0.07951738224788842 0.08867949408352296 0.028513157837840655 0 0 0 0
28139370 -0.39439567194935177 0.07963147210588194 0.08867958763605042 0.02850628027849471 0 0 0 0
28172316 -0.3943319272061183 0.079890870682918 0.08873017900621269 0.028539433258883203 0 0 0 0
28205262 -0.39422667994889365 0.07990913624980081 0.08876068421288988 0.02855759211531612 0 0 0 0
28238208 -0.3943210625476673 0.08018964167102616 0.08878346681008138 0.028546249066626884 0 0 0 0
28271154 -0.3941830362583046 0.07989959470874035 0.08875529400509202 0.028632706366841967 0 0 0 0
28304100 -0.3946216589000385 0.08028244985260664 0.08884437510277518 0.028635981071708616 0 0 0 0
28337046 -0.3944382259106383 0.08016647540095455 0.08882936513174948 0.028673351738090252 0 0 0 0
28369992 -0.39430778422570234 0.08035243959755901 0.08886600879662625 0.028687061805924632 0 0 0 0
28402938 -0.39400196642307755 0.08044478660292277 0.088839730979303 0.0287535777176643 0 0 0 0
28435884 -0.3943261495656062 0.08056402721619348 0.08881841939659918 0.028781121250123973 0 0 0 0
28468830 -0.39409881398934116 0.08059310790966001 0.08889937747662073 0.02879461135967596 0 0 0 0
28501776 -0.39383955278884497 0.0805464794757133 0.08886807066193343 0.02879986250420307 0 0 0 0
28534722 -0.39437472122543793 0.08081698078230916 0.0889957250368569 0.02885183369481111 0 0 0 0
28567668 -0.39427849233424206 0.08118849278275994 0.0890431057118293 0.0288732926172981 0 0 0 0
28600614 -0.39430846309729806 0.08118093843768717 0.08908236251399396 0.02887276260114988 0 0 0 0
28633560 -0.39385593616938896 0.08075290546593128 0.08895532398705738 0.028923646272105336 0 0 0 0
28666506 -0.3938752300712115 0.08092579624256802 0.08898108934986643 0.028994439952811778 0 0 0 0
28699452 -0.39399955690982924 0.08128118840010665 0.08903047586374091 0.02899721249812022 0 0 0 0
28732398 -0.39412698005345637 0.08163824978146751 0.08909341053493997 0.028992648733432685 0 0 0 0
28765344 -0.3936619173516449 0.08130402970247391 0.08906473971726529 0.029010245865105783 0 0 0 0
28798290 -0.39401317145563347 0.08156878637261837 0.08915368113227536 0.029068891915136803 0 0 0 0
28831236 -0.39386537666247184 0.08153886765473 0.08912598413330937 0.029103059266489175 0 0 0 0
28864182 -0.39384175785087133 0.08152915339179342 0.08911284897078964 0.029161226913416334 0 0 0 0
28897128 -0.393695914259519 0.08184884570653564 0.08917362271771517 0.029089169953055546 0 0 0 0
28930074 -0.39410434208497946 0.0818792274073676 0.08921463384908446 0.029191018531414235 0 0 0 0
28963020 -0.39379249829924806 0.08184258317260432 0.08924068728268761 0.029232258700760103 0 0 0 0
28995966 -0.393872012880722 0.08225929965860425 0.08923226841080122 0.029234827335003443 0 0 0 0
29028912 -0.3936124483250768 0.08197499322705613 0.08922469442633703 0.02930999024801632 0 0 0 0
29061858 -0.3935730013669486 0.08203443502143537 0.08925210045828558 0.029246200732985644 0 0 0 0
29094804 -0.39405787792535885 0.08236709597886864 0.08933816173217766 0.02931616024087935 0 0 0 0
29127750 -0.39374778398542376 0.08219721987825616 0.08933278310545098 0.029397928506786367 0 0 0 0
29160696 -0.39374383260725054 0.08258862371885833 0.08938562054123354 0.02937918739586571 0 0 0 0
29193642 -0.3936954510432908 0.08276756651837097 0.08944896984320949 0.029343986271419705 0 0 0 0
29226588 -0.39361489756483053 0.08264307983579436 0.08945628182558212 0.029420841651884685 0 0 0 0
29259534 -0.39374392681883363 0.08274543067207593 0.08950498008683783 0.029402122055938652 0 0 0 0
29292480 -0.3934400528785446 0.08273068107610515 0.08939886902485447 0.029516218535579033 0 0 0 0
29325426 -0.39344319382810405 0.08279315551171577 0.08941875968998068 0.02953185824799332 0 0 0 0
29358372 -0.3936117726022238 0.08324732937385963 0.08951236855511818 0.029490217970998548 0 0 0 0
29391318 -0.39328337782176925 0.08300505186081078 0.08950294305781777 0.029523905598692585 0 0 0 0
29424264 -0.3932430247044505 0.08290938717160924 0.08950510336083771 0.029579717535325328 0 0 0 0
29457210 -0.3937388921106307 0.08319823834938125 0.08963961159940219 0.02958717838156386 0 0 0 0
29490156 -0.39322992903409915 0.0832773805895259 0.08952927357474458 0.02966491060435421 0 0 0 0
29523102 -0.39334640462327286 0.08336338607746899 0.08958670928333222 0.029697489938149628 0 0 0 0
29556048 -0.3934239641005353 0.08377526883644765 0.08965584430426267 0.02969228276403808 0 0 0 0
29588994 -0.3931935616572661 0.0834546397118374 0.08958649357839547 0.02975880855181569 0 0 0 0
29621940 -0.3933986541013735 0.08377352234942399 0.08965407336034126 0.029715150414142428 0 0 0 0
29654886 -0.3933478971379831 0.08388110022069521 0.08976100429033627 0.02975962018214297 0 0 0 0
29687832 -0.3930941967601976 0.0839334971747636 0.08969842393112779 0.029823295889811776 0 0 0 0
29720778 -0.39335931588663303 0.08398464183346163 0.08975605742911066 0.02985386502383797 0 0 0 0
29753724 -0.3930182031542855 0.08444533072446177 0.08979292913202779 0.02982368270045412 0 0 0 0
29786670 -0.39328971237322047 0.08409574900169918 0.08988829573408245 0.02992688715317832 0 0 0 0
29819616 -0.39311314763866484 0.08434148822090595 0.08979513156000213 0.02994804329923612 0 0 0 0
29852562 -0.39294523782671353 0.0841557710038675 0.0897692659202159 0.029991297188890556 0 0 0 0
29885508 -0.3929551025610047 0.08431862497822591 0.08981724202818889 0.029897325029590152 0 0 0 0
29918454 -0.39278225059317323 0.08437104035718417 0.08979830368258707 0.0299426366224214 0 0 0 0
29951400 -0.39330327690520034 0.08463215154178604 0.08996683151794457 0.030022697123086525 0 0 0 0
29984346 -0.39288239927338714 0.08481987823923567 0.08991383556951137 0.030059304965319982 0 0 0 0
30017292 -0.3927454036310759 0.08459478691515769 0.08987877231933758 0.030090448285641468 0 0 0 0
30050238 -0.39272658465718446 0.08463799326142528 0.0899355543295478 0.030089880416696226 0 0 0 0
30083184 -0.3927304237553232 0.08463124517724127 0.08990996140709322 0.030098722155892293 0 0 0 0
30116130 -0.3927679427380047 0.08488898730372754 0.08998427983408094 0.03014747247606736 0 0 0 0
30149076 -0.3929710162247396 0.08509131941653482 0.09010875910178298 0.03020159743161645 0 0 0 0
30182022 -0.3928130154392823 0.08539634648776158 0.09012802177659165 0.030200957308968986 0 0 0 0
30214968 -0.39274682592802396 0.08535772291238558 0.08998190599229534 0.030273515583164722 0 0 0 0
30247914 -0.39247294642974545 0.08526088221839048 0.0901145319901195 0.030238766459992676 0 0 0 0
30280860 -0.39278788212206134 0.08545058685486528 0.0900956168716863 0.030236549787628072 0 0 0 0
30313806 -0.39302571304908246 0.08556162552780239 0.0902085377320771 0.030335407384661003 0 0 0 0
30346752 -0.3926506330460714 0.08549651929966479 0.09016234151865428 0.03033870466191093 0 0 0 0
30379698 -0.392514691510793 0.08588637081803632 0.0902349875428033 0.030393883698467343 0 0 0 0
30412644 -0.39249192471651784 0.08584871774698272 0.09026516509264872 0.030397735432785757 0 0 0 0
30445590 -0.3926778189997093 0.08608825149666527 0.09030081257992632 0.030416613078497565 0 0 0 0
30478536 -0.3924011318818597 0.08584504875284901 0.0902384438551343 0.030402212046166575 0 0 0 0
30511482 -0.39247074016655037 0.08589187015455825 0.09024846332062726 0.03045577663586649 0 0 0 0
30544428 -0.39269672237346226 0.08622630081164205 0.09040066632817477 0.030463722389302332 0 0 0 0
30577374 -0.3924530913967523 0.08612443972305094 0.09030527000526724 0.03059366583624886 0 0 0 0
30610320 -0.39256463619373166 0.08653534625284688 0.09042805006720679 0.030575573000618302 0 0 0 0
30643266 -0.39257070876032774 0.0866628105704142 0.09035989358841023 0.03057900244985855 0 0 0 0
30676212 -0.39222031112260725 0.08657194364277418 0.09042611128652775 0.03059970881871603 0 0 0 0
30709158 -0.3923445635250008 0.08671523605524988 0.09042557167293756 0.030626472980575716 0 0 0 0
30742104 -0.3921554757076975 0.08639069333240329 0.09038889907798951 0.030625427354617683 0 0 0 0
30775050 -0.3922435635686396 0.08655080595939481 0.0904247772484393 0.030688837770323496 0 0 0 0
30807996 -0.39261156796868407 0.08687198907699979 0.09058950757832206 0.030731489451218636 0 0 0 0
30840942 -0.3922830142867539 0.08702209975022938 0.09052318716632163 0.030722012013362155 0 0 0 0
30873888 -0.3921791969577902 0.08694365214339245 0.09051993838680612 0.030782062779624184 0 0 0 0
30906834 -0.3920808201133632 0.08732506557181333 0.09053391327943605 0.03077614930710835 0 0 0 0
30939780 -0.39214518322691894 0.08706402996438613 0.09059039380446317 0.030769503359308028 0 0 0 0
30972726 -0.3923623373502373 0.08728121102374808 0.0906670943249652 0.030859049179539095 0 0 0 0
31005672 -0.39220961701562745 0.0872902798995822 0.09065557260684633 0.03087540275333655 0 0 0 0
31038618 -0.3921416626553097 0.08759255026858351 0.09068512003340985 0.03094971048819218 0 0 0 0
31071564 -0.3921226231905811 0.08763316247672673 0.09066800826659388 0.030879015505254254 0 0 0 0
31104510 -0.39212365795377313 0.08749665852098708 0.09071629889788779 0.03096389428822298 0 0 0 0
31137456 -0.39236755305770465 0.08755956997155506 0.09085127197461389 0.03099455932732108 0 0 0 0
31170402 -0.3918110097629595 0.08786336308071394 0.09074372219144748 0.030980681049672415 0 0 0 0
31203348 -0.3919217173802588 0.08811608144885148 0.09073570250855933 0.031058449625792555 0 0 0 0
31236294 -0.39188438759449906 0.08784525092121216 0.09075777610093042 0.030992249222833206 0 0 0 0
31269240 -0.3921198811150661 0.08806774231988497 0.09095277056572502 0.031051940580778814 0 0 0 0
31302186 -0.39161655649078153 0.08823973921285402 0.09083636454702254 0.031121810156627894 0 0 0 0
31335132 -0.39179491234452973 0.08837763091283746 0.09084603309404488 0.0311197510430598 0 0 0 0
31368078 -0.3919619312783592 0.08819282764775306 0.09089124091262073 0.031130765696529658 0 0 0 0
31401024 -0.39170781565139123 0.08829098315517225 0.09084959538844078 0.031132086967841328 0 0 0 0
31433970 -0.3915262147868081 0.0885000419522688 0.090931231034632 0.031200523025305356 0 0 0 0
31466916 -0.3916139688734298 0.08871730309132624 0.09093299354092234 0.031170153297789955 0 0 0 0
31499862 -0.3916392112064112 0.08851680317510947 0.09100772764447036 0.03114969426989566 0 0 0 0
31532808 -0.39173566513633834 0.08856934349455237 0.09097282514020588 0.031186823113718273 0 0 0 0
31565754 -0.39148728206680217 0.08886942678537076 0.09103706362705162 0.03130452908491349 0 0 0 0
31598700 -0.39145207465094706 0.08916034889041044 0.0910917755957766 0.03130609772289786 0 0 0 0
31631646 -0.39156935249940356 0.08912479750752343 0.09115331260656104 0.031287928362615805 0 0 0 0
31664592 -0.39151469258598137 0.08890006641837038 0.09115643737399437 0.03140692195281176 0 0 0 0
31697538 -0.39178046953155 0.08925438481028404 0.09117019814344093 0.03138584663787837 0 0 0 0
31730484 -0.39134812924283496 0.08939146416184217 0.09117281135607481 0.031427109971003855 0 0 0 0
31763430 -0.39133586791438774 0.08934923411253975 0.09118673846391066 0.031350096520792535 0 0 0 0
31796376 -0.3914184247656548 0.08950005343370158 0.09129302860305939 0.03145251418816266 0 0 0 0
31829322 -0.39134314561653993 0.08945972661896984 0.09121180705210444 0.0314164387611806 0 0 0 0
31862268 -0.39122610705116123 0.08959638610535868 0.09125754912489578 0.03153229268656898 0 0 0 0
31895214 -0.3912766624604223 0.0899509267085762 0.09134167259102584 0.03149954899670586 0 0 0 0
31928160 -0.3914374480687525 0.09000602367619072 0.0913738826611995 0.0314945080713113 0 0 0 0
31961106 -0.3912661024075542 0.0899546990367774 0.09127966611392584 0.03159370483472749 0 0 0 0
31994052 -0.39131088598796526 0.09012125176784246 0.09132856761525987 0.03158333148909582 0 0 0 0
32026998 -0.39117531500876546 0.09006973550085474 0.0913387280568216 0.03159007724245722 0 0 0 0
32059944 -0.3912036982724956 0.0900120383021386 0.0914105408658216 0.031622016209177393 0 0 0 0
32092890 -0.39153925361520037 0.09036793852091374 0.09153627726981732 0.031650149800852505 0 0 0 0
32125836 -0.3909875536403257 0.09040932770394339 0.09146569959705105 0.031707046518041404 0 0 0 0
32158782 -0.3911984592565249 0.09041924536757111 0.0914622053237114 0.0317485316180162 0 0 0 0
32191728 -0.39109859195098434 0.09051444487397585 0.09151637477209623 0.031725112482197185 0 0 0 0
32224674 -0.39102570884684384 0.09027881259367589 0.09152747067884817 0.03173283107799061 0 0 0 0
32257620 -0.3911006089913943 0.09069229933182825 0.09159018301701738 0.0317805405443675 0 0 0 0
32290566 -0.3911145847577633 0.09089981313048409 0.09164242303164388 0.03181416401039538 0 0 0 0
32323512 -0.3908580095108478 0.09089576306948276 0.09153471419757224 0.0318057822576919 0 0 0 0
32356458 -0.3908575283919655 0.09079729681599238 0.09157580412018189 0.03182863318002067 0 0 0 0
32389404 -0.3908077090144882 0.0910632049223862 0.09163984555249656 0.031913919620028146 0 0 0 0
32422350 -0.39070605687092663 0.09106245417797626 0.0916738095743485 0.031924274239143006 0 0 0 0
32455296 -0.3908476886463547 0.09133984822160417 0.09173387399282085 0.0319098834127346 0 0 0 0
32488242 -0.390951142530894 0.09127029439746377 0.09175599083546956 0.031925392476421566 0 0 0 0
32521188 -0.3908056373801401 0.09120309383538182 0.09177983169855884 0.03194740026630205 0 0 0 0
32554134 -0.3906209284245745 0.09131133114528678 0.09168596762288506 0.03189637109433236 0 0 0 0
32587080 -0.3909237207339477 0.09143884467232143 0.09183966319501044 0.0319777713525065 0 0 0 0
32620026 -0.390685318784572 0.09155501702111289 0.09184294003314825 0.03206222621939695 0 0 0 0
32652972 -0.39058930496061134 0.09166945476320976 0.09182870550476654 0.032104900342726256 0 0 0 0
32685918 -0.3907349150744529 0.09182438120757196 0.09188324443173228 0.032035381458914824 0 0 0 0
32718864 -0.39071955667858566 0.0916936718458223 0.09182951971528532 0.032106506273012723 0 0 0 0
32751810 -0.3906169205050902 0.09179347474888415 0.09190393340420752 0.032035199515426126 0 0 0 0
32784756 -0.39103931868321073 0.09215642406343832 0.09201787127080115 0.03212562127638116 0 0 0 0
32817702 -0.39028384727155285 0.09186126072767745 0.09189675421469073 0.032170747326266666 0 0 0 0
32850648 -0.3904973019121904 0.0922717673822828 0.09202160048874461 0.032138840925621213 0 0 0 0
32883594 -0.3903254298370481 0.09211666705704448 0.09198527970274771 0.03222277524032994 0 0 0 0
32916540 -0.39035714278430095 0.09209120229698495 0.09203166232438784 0.032223653781552904 0 0 0 0
32949486 -0.39054939360307805 0.09222283628169926 0.09204863053615335 0.032169853771766954 0 0 0 0
32982432 -0.3903610610954222 0.09237881660511442 0.09207710383324923 0.032226490356805165 0 0 0 0
33015378 -0.3904535362732502 0.09258795521088063 0.09212770622459647 0.032269028691325814 0 0 0 0
33048324 -0.3904984131745209 0.0928096842954727 0.09217326135791509 0.03228138833803238 0 0 0 0
33081270 -0.3902076427723065 0.09266823217175761 0.09210139752377419 0.03232951015308047 0 0 0 0
33114216 -0.39027360687524293 0.09270040830105863 0.09216437786995181 0.03235975124321788 0 0 0 0
33147162 -0.39028760238214216 0.09282329413611658 0.09211063836604089 0.032325159794514884 0 0 0 0
33180108 -0.39023690187335497 0.09294797704738447 0.092262230194586 0.032380824208391945 0 0 0 0
33213054 -0.39019728808785586 0.09332821245015327 0.09223807160630783 0.032357365536631065 0 0 0 0
33246000 -0.39023619414878347 0.09347645779185054 0.09230396314564102 0.03241169306406377 0 0 0 0
33278946 -0.39030675894981764 0.09330148035203197 0.0922648599564769 0.03248158257674105 0 0 0 0
33311892 -0.39010525241981536 0.09331622738073414 0.09227579709426219 0.03246100574295238 0 0 0 0
33344838 -0.3900079147190429 0.0931816599391635 0.0922667966474533 0.032499661159632376 0 0 0 0
33377784 -0.39018293241069923 0.09331390467156704 0.09236396996970755 0.032518057369807174 0 0 0 0
33410730 -0.39020011952171013 0.09359087060283579 0.09242220200917602 0.03249877133949766 0 0 0 0
33443676 -0.3901907128133739 0.09347045989898828 0.09242577853150591 0.032556122098752784 0 0 0 0
33476622 -0.39003387852859955 0.09364800746225724 0.09233942927180673 0.03257700904544082 0 0 0 0
33509568 -0.39009061075258505 0.09396371794760607 0.09248377537525347 0.03255820700282074 0 0 0 0
33542514 -0.38979172045250365 0.09398576633666574 0.09246151660242657 0.03261929185572217 0 0 0 0
33575460 -0.3899896566323918 0.09420614693743276 0.09251514907089506 0.03262583469038896 0 0 0 0
33608406 -0.39000316931920975 0.09419083127802459 0.09247153661948485 0.03262025406079129 0 0 0 0
33641352 -0.38983836160706203 0.09404036701955024 0.09254593111598679 0.0326398937668762 0 0 0 0
33674298 -0.38983152354139944 0.09416747504520805 0.09254772923331817 0.03267144909989727 0 0 0 0
33707244 -0.38962763525311267 0.09428551961767703 0.09252780091073946 0.032721687803034916 0 0 0 0
33740190 -0.38969846680180215 0.0945955707435683 0.09261398826463924 0.032663653273311555 0 0 0 0
33773136 -0.3897554793007119 0.09462982190520301 0.09258975072747026 0.032714773667047066 0 0 0 0
33806082 -0.38970721380792445 0.09421083194999864 0.09264150467983012 0.03277861175682312 0 0 0 0
33839028 -0.3896692141331248 0.09481716729950847 0.09261405541082836 0.032716884315439974 0 0 0 0
33871974 -0.38983749935997314 0.09469371843535715 0.09264061157750283 0.03283840926322246 0 0 0 0
33904920 -0.3898517510055678 0.0949866597254624 0.09274777287794939 0.03285303088015689 0 0 0 0
33937866 -0.3896342000294477 0.09507526972297459 0.09270138769290003 0.03286306971218066 0 0 0 0
33970812 -0.3898068064331899 0.09498923538550515 0.09265163171984182 0.03282973658132535 0 0 0 0
34003758 -0.38993671805503793 0.09504204705483715 0.0927702874271224 0.0328801789565277 0 0 0 0
34036704 -0.389811343250708 0.09509496542564658 0.09280195771618034 0.032895481042272516 0 0 0 0
34069650 -0.3895423221465494 0.09502083552079178 0.0927917174111418 0.032968167181147125 0 0 0 0
34102596 -0.3893205216660067 0.09525706071572836 0.0927563792680193 0.032981950350582434 0 0 0 0
34135542 -0.38943976524955437 0.09554937705615149 0.0928701969828703 0.03288611984996633 0 0 0 0
34168488 -0.38955109156491985 0.09547249197224975 0.09285641807438401 0.03303049657195904 0 0 0 0
34201434 -0.38952659225540087 0.09530079450067411 0.09293296266871737 0.033009614773428 0 0 0 0
34234380 -0.38964699308618866 0.09556613819680697 0.09293859727210425 0.03301765096216074 0 0 0 0
34267326 -0.389423283771761 0.09580526451171974 0.09289532598725346 0.033084175379628135 0 0 0 0
34300272 -0.3893745409428142 0.09551468643736351 0.0929268014055095 0.03309592501738856 0 0 0 0
34333218 -0.3894061777524877 0.09582786144939634 0.09291055052976636 0.03306777953771296 0 0 0 0
34366164 -0.3894747104100229 0.0961767207760732 0.09303581080638353 0.033094390619457625 0 0 0 0
34399110 -0.38945447445261566 0.09619778257964244 0.0930918042999258 0.03310574234030058 0 0 0 0
34432056 -0.38905206943764237 0.09613148136928736 0.09297244673465468 0.03319583621991138 0 0 0 0
34465002 -0.3893720337629306 0.09615195642893269 0.09302732883649871 0.033202031489401616 0 0 0 0
34497948 -0.38923268668173205 0.0962027063288579 0.09304106959164377 0.03318317585965159 0 0 0 0
34530894 -0.38910278615399846 0.09617150831695075 0.09303436500747363 0.03321591327907336 0 0 0 0
34563840 -0.38917875085883763 0.0964463224067345 0.09303826274642425 0.033223789131375955 0 0 0 0
34596786 -0.38918340635077486 0.09643848628997001 0.09308114379982384 0.033225274316262474 0 0 0 0
34629732 -0.38929840546852357 0.0966834934546668 0.09314258742609302 0.03328356181840625 0 0 0 0
34662678 -0.38910602642503683 0.09671443267831041 0.09312963968411823 0.03333389508939343 0 0 0 0
34695624 -0.3892098765114807 0.09671588335420767 0.09316464843315075 0.033337069265216325 0 0 0 0
34728570 -0.38916911680113664 0.09666838175211424 0.09323462498228939 0.03331365268099728 0 0 0 0
34761516 -0.3890317712042213 0.0968198730731204 0.09314662721901736 0.03341084507024632 0 0 0 0
34794462 -0.3892192153806479 0.097105168293754 0.09324456416943387 0.033374930839357136 0 0 0 0
34827408 -0.3889485845355793 0.09717593842369207 0.09325470728259928 0.033436972864796605 0 0 0 0
34860354 -0.3890810960505591 0.09731579935587951 0.09324710556499635 0.03343621652430097 0 0 0 0
34893300 -0.38901401939466274 0.09746968489428928 0.09328870170932724 0.03341855837600994 0 0 0 0
34926246 -0.3890243289950566 0.09757501448048674 0.0933080108012145 0.03346906478081851 0 0 0 0
34959192 -0.38877896436239334 0.09713227992610558 0.09328022957444154 0.033545476633819696 0 0 0 0
34992138 -0.3888122841288598 0.09761457519282225 0.09327491004377901 0.033525142877641925 0 0 0 0
35025084 -0.3888984747837915 0.09756448495869062 0.09333066985702426 0.03369128832757955 0 0 0 0
35058030 -0.3888234852066042 0.09806430065676897 0.09330325459513215 0.03355308118763391 0 0 0 0
35090976 -0.3887983629447299 0.09772493137391229 0.09343389330374094 0.03363102624976953 0 0 0 0
35123922 -0.3889726453751898 0.09773739112744052 0.09339939569385093 0.03369976795169618 0 0 0 0
35156868 -0.3891808590156885 0.0979335881434731 0.09347763855302914 0.03364441886304673 0 0 0 0
35189814 -0.3889413255228386 0.09816539209647318 0.09346509422420812 0.03366356577973175 0 0 0 0
35222760 -0.3886131153891054 0.09828739581464174 0.09351229125356712 0.03367891562495302 0 0 0 0
35255706 -0.388755494281034 0.0985948665681771 0.09345941353856183 0.033606293175385125 0 0 0 0
35288652 -0.3887842514583181 0.09819998539722269 0.09350226685993447 0.03374410177573137 0 0 0 0
35321598 -0.3887996433495952 0.09832386546747683 0.09351436749693313 0.03376440521974951 0 0 0 0
35354544 -0.38861675621159547 0.09880308195942875 0.09362666196252882 0.03369978225726685 0 0 0 0
35387490 -0.3885151216934475 0.09840301324115515 0.09352958076660606 0.03380256913508371 0 0 0 0
35420436 -0.3886642002699888 0.09859266287986906 0.09353104027991312 0.03383161753029039 0 0 0 0
35453382 -0.38878768653101614 0.09900409657780387 0.09366059002389682 0.0338659261538385 0 0 0 0
35486328 -0.38860181900245583 0.0989587984543352 0.09360783085228447 0.03386003571559364 0 0 0 0
35519274 -0.38854155601181695 0.0987468120718526 0.09367881800063421 0.03396744766353519 0 0 0 0
35552220 -0.3886859040498766 0.09885044249087353 0.09372060033341961 0.033948565123060395 0 0 0 0
35585166 -0.3884607866649892 0.0992693364038877 0.09367864201124562 0.0339420317741753 0 0 0 0
35618112 -0.38863450858021614 0.09949978353075338 0.09369931868914964 0.03395732931624968 0 0 0 0
35651058 -0.3886795543277286 0.09912161459960424 0.09373245207925177 0.03400543657726523 0 0 0 0
35684004 -0.38852970882687304 0.09907817435915538 0.09376067919835988 0.03402441114951144 0 0 0 0
35716950 -0.3884371541143766 0.09936382940530913 0.09368896293835129 0.03403770299469738 0 0 0 0
35749896 -0.38814522280906444 0.09951964592489536 0.09380989375782632 0.03408125633658688 0 0 0 0
35782842 -0.38837274516315173 0.09999093364138295 0.09383554182481443 0.03403973534356149 0 0 0 0
35815788 -0.388487384715945 0.09976777292063749 0.09377088870592114 0.034154315166111573 0 0 0 0
35848734 -0.38852496330880065 0.09957535984964017 0.093852234096228 0.03418525379685887 0 0 0 0
35881680 -0.38849824659578147 0.10003082267045256 0.09382984005564898 0.0341773809099571 0 0 0 0
35914626 -0.38835441698510187 0.10004370935225747 0.09397681044645792 0.03417080810268468 0 0 0 0
35947572 -0.38820081534379824 0.10016387559911949 0.09389504781560042 0.03423957897625621 0 0 0 0
35980518 -0.3881124121906383 0.10026807489928698 0.0939159467478961 0.03426257280904341 0 0 0 0
36013464 -0.3881889012267375 0.10061017736753747 0.09397123659150812 0.034204739629822 0 0 0 0
36046410 -0.3881130115656911 0.09999051743889534 0.09393490977186951 0.03434322030362776 0 0 0 0
36079356 -0.3880769371015559 0.10048165087146499 0.09406089419436742 0.03428753684383059 0 0 0 0
36112302 -0.3880294310872879 0.10034594042650595 0.09398418834169005 0.03438067315074987 0 0 0 0
36145248 -0.3879520751741382 0.10062125546094729 0.09401734176343828 0.03436733180557011 0 0 0 0
36178194 -0.38799123714265765 0.10077327387596914 0.09406857964039175 0.03441110041939702 0 0 0 0
36211140 -0.38813011445555634 0.101075940335803 0.0940781774602119 0.034400179633894835 0 0 0 0
36244086 -0.3879108343482801 0.10052657268307448 0.09410254578958567 0.03447989431630476 0 0 0 0
36277032 -0.3882957033847894 0.10060793360946133 0.09413180661055426 0.034478117455468256 0 0 0 0
36309978 -0.3880250638575799 0.1012380498656957 0.09418690672722535 0.034490128595457664 0 0 0 0
36342924 -0.3879688994325421 0.10140347836804188 0.09416696502232554 0.03447971930423322 0 0 0 0
36375870 -0.3881553398077885 0.1016572297221863 0.09420385775681747 0.03451513254941973 0 0 0 0
36408816 -0.38811447920705267 0.10112861633261187 0.09419734560610787 0.03462837469130935 0 0 0 0
36441762 -0.38752102319999576 0.10132785278226253 0.09413709598468106 0.03459978564253069 0 0 0 0
36474708 -0.38788776030443534 0.10157743473322357 0.09431264369209018 0.03465987071490101 0 0 0 0
36507654 -0.3876551546484137 0.10147340132495403 0.09420536338997436 0.03469142304736814 0 0 0 0
36540600 -0.3875118444644367 0.10173097396332699 0.0942700558071727 0.03467974710440518 0 0 0 0
36573546 -0.38764245255188595 0.10205183074038462 0.09431326816579709 0.03470359340828874 0 0 0 0
36606492 -0.3876040534211139 0.101656301647005 0.09432229905484939 0.03470109767208032 0 0 0 0
36639438 -0.3878479743036198 0.10163563012809361 0.09438368875742936 0.03478795501612562 0 0 0 0
36672384 -0.3874747360812558 0.10188304627583705 0.09435301553284034 0.034769093427169974 0 0 0 0
36705330 -0.387786728254153 0.10215910971839047 0.09449326183120814 0.03483172598053599 0 0 0 0
36738276 -0.387208403799796 0.10205764050982633 0.09437824493022255 0.034856398150118276 0 0 0 0
36771222 -0.38777101606237196 0.10238559455425675 0.09441281304540462 0.0348217821896718 0 0 0 0
36804168 -0.3876755523586185 0.10200850537441859 0.09447548263480114 0.03486400924171751 0 0 0 0
36837114 -0.3874365458990702 0.1023885099061368 0.09444326641682126 0.03490506139643597 0 0 0 0
36870060 -0.387362046190742 0.10264451699865702 0.09450711828839958 0.03494372663291408 0 0 0 0
36903006 -0.3875020068302113 0.10233333364406418 0.09451617025403028 0.03499527360527979 0 0 0 0
36935952 -0.38761180191961686 0.10299167963991869 0.09459603486062733 0.034955624635413705 0 0 0 0
36968898 -0.3874439225137125 0.10272530290249741 0.09454751325343885 0.034988465312765074 0 0 0 0
37001844 -0.3872062267020386 0.10310150072252755 0.09462993812884427 0.03500081973949898 0 0 0 0
37034790 -0.38727764293610706 0.10309851332091692 0.0946095996419235 0.03507606942485142 0 0 0 0
37067736 -0.3873347190276749 0.1028914650553825 0.0945868720485468 0.03507816512818786 0 0 0 0
37100682 -0.3877377998394666 0.10332742390266715 0.09470569683741364 0.03508979603010108 0 0 0 0
37133628 -0.38716679295905676 0.1033189607528132 0.09463258204139076 0.035128274963947596 0 0 0 0
37166574 -0.3874511571378925 0.10349665406537224 0.09469764865147336 0.0351758270622141 0 0 0 0
37199520 -0.38740876085176995 0.1038179844008289 0.09474984066664902 0.0351431960232548 0 0 0 0
37232466 -0.38751791652789197 0.10344197758869618 0.09481029158991171 0.035239197811877024 0 0 0 0
37265412 -0.38711362773299085 0.10360140128527731 0.09479898550592238 0.03519187826460082 0 0 0 0
37298358 -0.38723043679636554 0.10374785402130154 0.0948314996669717 0.035265026139375856 0 0 0 0
37331304 -0.3871821522176076 0.10430395891234508 0.09486741555531926 0.035248707730763086 0 0 0 0
37364250 -0.38728063041389815 0.10412424642305257 0.0948882195750766 0.03532100855055293 0 0 0 0
37397196 -0.3872546628045707 0.10391812383699071 0.0949226055555537 0.035320557767822884 0 0 0 0
37430142 -0.38685668357026176 0.10393453168599429 0.0948528309007997 0.035401600592512905 0 0 0 0
37463088 -0.3871614022543278 0.10412082195971409 0.09494662241012371 0.03539413252728431 0 0 0 0
37496034 -0.38709834423390393 0.10447484082455162 0.09495461997778488 0.03542563594042236 0 0 0 0
37528980 -0.3870790427020811 0.10459137011875412 0.09500229800185304 0.03545306556159938 0 0 0 0
37561926 -0.3870263385806615 0.1047487764063615 0.09501784570489921 0.03540209745577271 0 0 0 0
37594872 -0.38688833231900394 0.10418565589296798 0.09497807558463577 0.03548977466760259 0 0 0 0
37627818 -0.38713254125859786 0.10436338491625925 0.0950597949451417 0.03554001936901807 0 0 0 0
37660764 -0.38674556100190116 0.10453382969249014 0.09509797388777909 0.035537959481250755 0 0 0 0
37693710 -0.38691133908126263 0.10501175773968403 0.09504655499804937 0.0355512565991139 0 0 0 0
37726656 -0.38687503214198726 0.10517042360317877 0.09514000283264096 0.035543877696462535 0 0 0 0
37759602 -0.38687622491446394 0.10488794707661765 0.0951140442683121 0.035615354899830795 0 0 0 0
37792548 -0.386736726970089 0.10479236992336464 0.09507438028036391 0.03567250746675751 0 0 0 0
37825494 -0.386804299268412 0.1052748741921171 0.09517427805827282 0.03566912583159724 0 0 0 0
37858440 -0.38668236754619345 0.10522030218827397 0.09512612479682012 0.035646171586499756 0 0 0 0
37891386 -0.3867739233726382 0.10535026002715711 0.0952572272140962 0.03569979679133472 0 0 0 0
37924332 -0.3865813611096557 0.10571356363949776 0.09527311025265603 0.03572264284664849 0 0 0 0
37957278 -0.3866714293309062 0.105572143528294 0.09523410850136861 0.035757348043932755 0 0 0 0
37990224 -0.38666450931340407 0.10538215571909686 0.09532602473016799 0.03578876758329687 0 0 0 0
38023170 -0.3867604943510526 0.10564956879691753 0.09535937693136202 0.03582441825307539 0 0 0 0
38056116 -0.38655188619467906 0.10603465801479556 0.09535579196507826 0.035834390627904146 0 0 0 0
38089062 -0.38665967224790504 0.1058937084874883 0.09537055785520687 0.03580849659781801 0 0 0 0
38122008 -0.38639794181137194 0.10610011306121815 0.09539275373640373 0.035877034870278296 0 0 0 0
38154954 -0.3863275258635072 0.10626962908192467 0.09538431068904756 0.03594005733806877 0 0 0 0
38187900 -0.3865171201391718 0.1063821334112666 0.09546737864228477 0.0359404580114642 0 0 0 0
38220846 -0.3863757138124104 0.10633090332320724 0.09547763744740365 0.035968562819536205 0 0 0 0
38253792 -0.38650092508287937 0.10655078561486683 0.09551373062989452 0.03595521808903477 0 0 0 0
38286738 -0.3863420626334141 0.1066132958241057 0.09553094508457514 0.03596773978795563 0 0 0 0
38319684 -0.38632370591243004 0.1066627163343084 0.09557481761147049 0.03600155551125786 0 0 0 0
38352630 -0.38638838034033585 0.10667372387180596 0.09557150603334875 0.03598958933180802 0 0 0 0
38385576 -0.3862128984744102 0.10651377887438641 0.09555176176875065 0.036076045340163565 0 0 0 0
38418522 -0.38631401508430485 0.10646027093187062 0.0956561113819326 0.03615203704696082 0 0 0 0
38451468 -0.3863061661526575 0.10687142813116182 0.09561246227463797 0.036103324845207174 0 0 0 0
38484414 -0.38617282467745323 0.10715547715087495 0.09568936459472106 0.036108871099534014 0 0 0 0
38517360 -0.38609640788059285 0.10712545986955571 0.09572733971535421 0.03613226667810309 0 0 0 0
38550306 -0.3860076314005087 0.10677373007345078 0.09566522159117778 0.0361956710310228 0 0 0 0
38583252 -0.38573880342099426 0.10729246621424372 0.09573450904487256 0.03620960646746998 0 0 0 0
38616198 -0.3860903773959858 0.10756237538095619 0.09581030054743471 0.03623375745270728 0 0 0 0
38649144 -0.38604574063182584 0.10765390831818179 0.0957950322165832 0.03625325641250173 0 0 0 0
38682090 -0.38597937412636857 0.10743273646804674 0.09579982168220724 0.03628070682221134 0 0 0 0
38715036 -0.38635492180223385 0.10739837236337743 0.09587287695910232 0.036378767602991115 0 0 0 0
38747982 -0.38572335339892466 0.10749593193888594 0.09582250682628024 0.03633793669790555 0 0 0 0
38780928 -0.3859386976136108 0.10790488416720491 0.09585710589239331 0.03636526643035298 0 0 0 0
38813874 -0.386013522361077 0.10792949526807191 0.0959621782495534 0.03642233058353504 0 0 0 0
38846820 -0.3859589181403315 0.10832901260633872 0.09595882139268282 0.0363787219770642 0 0 0 0
38879766 -0.38578517664429796 0.10802361465026653 0.09601090293353652 0.03644487664464629 0 0 0 0
38912712 -0.38610054852698034 0.10804090611187221 0.09605371534415344 0.03649076261641762 0 0 0 0
38945658 -0.3855383291452164 0.1081122924059755 0.09602605601308749 0.03646061979446359 0 0 0 0
38978604 -0.3855667882413716 0.10838457215230525 0.09602890635645757 0.03653020221010751 0 0 0 0
39011550 -0.38566847061541426 0.10816522688935472 0.09607366617441927 0.036508958662175614 0 0 0 0
39044496 -0.38605680991333036 0.1083849875445201 0.09612975805162294 0.03658786952553809 0 0 0 0
39077442 -0.38581722503884325 0.10879643843151626 0.09622200606694521 0.036578587699733184 0 0 0 0
39110388 -0.38553433673810944 0.10866429172699123 0.09611684286525331 0.03662411946290894 0 0 0 0
39143334 -0.38562605549002715 0.1082945158029507 0.09611121953022123 0.0366643834999681 0 0 0 0
39176280 -0.3858617502657963 0.10880595477527724 0.0962810323783823 0.03665861797233841 0 0 0 0
39209226 -0.38546371533007273 0.10911940860316727 0.09627454713900979 0.036677916099643396 0 0 0 0
39242172 -0.3853041913266705 0.10906021738053041 0.09617770470576362 0.036755367568054705 0 0 0 0
39275118 -0.3854385491030644 0.10912691280708647 0.09628938084244333 0.03668450546152577 0 0 0 0
39308064 -0.38543959617524043 0.10891678105036831 0.09625365399772916 0.03679902332474114 0 0 0 0
39341010 -0.38546890519234034 0.10900821098893243 0.09633715257798117 0.0368337771771948 0 0 0 0
39373956 -0.38564260671606027 0.1093732894132092 0.09639341195566188 0.036822127255768534 0 0 0 0
39406902 -0.3853745796321274 0.10943999475216096 0.09637669189505402 0.03681756584640873 0 0 0 0
39439848 -0.3854072888167177 0.10950935775197641 0.09637769325338623 0.03691192524870716 0 0 0 0
39472794 -0.38539623897295733 0.109811500539303 0.09647874436676908 0.036881457771275925 0 0 0 0
39505740 -0.38521851869156604 0.10934734197462168 0.09640134475660056 0.03692050005620105 0 0 0 0
39538686 -0.38545304122458807 0.10983374536539697 0.096524957458616 0.036941374704281514 0 0 0 0
39571632 -0.38487005185097817 0.10973727065712587 0.09645199455841634 0.03693360978749261 0 0 0 0
39604578 -0.38522140909999447 0.11009005728357484 0.0965605872332626 0.03699969893795959 0 0 0 0
39637524 -0.38501739614969177 0.11011837450724224 0.09654503263021007 0.03700233310829538 0 0 0 0
39670470 -0.3849661260322571 0.10978910583440628 0.0964925707757506 0.03703224185161631 0 0 0 0
39703416 -0.3853612871611902 0.11033088452189685 0.0967094451526948 0.03706072325459959 0 0 0 0
39736362 -0.3848181513667069 0.11023675899506398 0.09660448985470368 0.03708585193295613 0 0 0 0
39769308 -0.38499617779292866 0.11043130564283252 0.09664093580929599 0.03710475984513478 0 0 0 0
39802254 -0.38489254366508374 0.11055547640060294 0.09678381871447134 0.03709419126151751 0 0 0 0
39835200 -0.3849909334176025 0.11030035032703044 0.09665154765906615 0.037215919041357556 0 0 0 0
39868146 -0.38517477559594654 0.11067951658679905 0.09679578849597274 0.03711792369789388 0 0 0 0
39901092 -0.3845583787748654 0.11072701694417401 0.09671282800017406 0.037164626717141 0 0 0 0
39934038 -0.38469494053195863 0.11079960997721763 0.09679395567205833 0.037219625512763005 0 0 0 0
39966984 -0.3848107419363559 0.11095581907189635 0.09687000737172051 0.0372212897802818 0 0 0 0
39999930 -0.3846307268016751 0.11073212439916999 0.09681950929461691 0.0372123417018283 0 0 0 0
