# HZ S RI R 50
300000 -0.5599827909282266 -0.010171808049300804 -0.03294597691159912 -0.009903468522338416 0 0 0 0
332946 -0.5449749682366726 0.05629739350555641 -0.07987516790408619 -0.04324063745836607 0 0 0 0
365892 -0.5060486829043894 0.08363820988049751 -0.12279884465386658 -0.04126142084703363 0 0 0 0
398838 -0.4758501877266327 0.08680639226948957 -0.14914791643022657 -0.026559319439402963 0 0 0 0
431784 -0.4747812785875019 0.0641958266125178 -0.157790125676805 -0.13083351440337054 0 0 0 0
464730 -0.45807567003851746 0.059889528100223355 -0.17643038359927263 -0.12265591975423847 0 0 0 0
497676 -0.45190173636069114 0.05470261106862342 -0.18893392969874206 -0.11419068035760623 0 0 0 0
530622 -0.4457410040916609 0.0504558864151235 -0.19809316949541195 -0.10621893487953006 0 0 0 0
563568 -0.44161681014081106 0.04725920733504573 -0.20516239100265696 -0.09911146631897615 0 0 0 0
596514 -0.4377711551138677 0.04467321844057091 -0.2103634416756924 -0.09295260065433927 0 0 0 0
629460 -0.43478950374126585 0.0417443819108415 -0.2144403118977044 -0.08727829695532247 0 0 0 0
662406 -0.4323662113094761 0.0398723553080197 -0.21775983857625256 -0.0823624245583231 0 0 0 0
695352 -0.4305081243454124 0.03778500102421563 -0.220535477734761 -0.07795132594674581 0 0 0 0
728298 -0.4282402592356113 0.036311308746715086 -0.22251831530669666 -0.07391132256776929 0 0 0 0
761244 -0.42666544939483997 0.03495853262644943 -0.22427211243872316 -0.07020210861643449 0 0 0 0
794190 -0.42558074156427145 0.0336000836798006 -0.22568702942789623 -0.06676633744374111 0 0 0 0
827136 -0.42360751834611304 0.03206742138856531 -0.22715672320033192 -0.06391349721437475 0 0 0 0
860082 -0.42315344836118857 0.03068529975516201 -0.22842240519530815 -0.06125875546406525 0 0 0 0
893028 -0.42201335102437193 0.029706791827162956 -0.22916845576322495 -0.05861997273554822 0 0 0 0
925974 -0.4210770910450214 0.028880956014270386 -0.23014700703082228 -0.056139570988271464 0 0 0 0
958920 -0.4204649378818029 0.027393643197420534 -0.23090377248858576 -0.05421564960057574 0 0 0 0
991866 -0.4201138959928081 0.02641246090936266 -0.23160336224203956 -0.052022129055758044 0 0 0 0
1024812 -0.4186505684522344 0.02583745222073877 -0.2318600544070282 -0.05018439009524467 0 0 0 0
1057758 -0.4185847881070881 0.024883833593016765 -0.23262467095694253 -0.048550408518355265 0 0 0 0
1090704 -0.41833284740782634 0.024035267536564625 -0.23316136672643858 -0.046805176555054395 0 0 0 0
1123650 -0.41787011036863997 0.023372085244239574 -0.23341308225202043 -0.04543207792409338 0 0 0 0
1156596 -0.41705986842377996 0.02263613438503017 -0.23386211715105126 -0.043815133605060126 0 0 0 0
1189542 -0.4164280036120415 0.02188366155185034 -0.2341134904444556 -0.04252250934183496 0 0 0 0
1222488 -0.4161790846827051 0.021237094147776095 -0.23442299319540746 -0.04137096056920987 0 0 0 0
1255434 -0.4162768838408488 0.02047690247530353 -0.23484855584233033 -0.04008287417990204 0 0 0 0
1288380 -0.4160338187727532 0.020054245152722812 -0.2350253360689045 -0.03884295317078685 0 0 0 0
1321326 -0.41532304925076974 0.02004553896009376 -0.23533098803366134 -0.03771640982946431 0 0 0 0
1354272 -0.4155328212621485 0.019408663362776107 -0.23553264648362512 -0.03674967001511098 0 0 0 0
1387218 -0.41521366536874255 0.018808696754728123 -0.23566035715225056 -0.035554748180466694 0 0 0 0
1420164 -0.4149471434512981 0.018204667626581437 -0.2358959242938187 -0.03472481697056443 0 0 0 0
1453110 -0.4147243793189655 0.017813681305255798 -0.2361428248777876 -0.03377914983829711 0 0 0 0
1486056 -0.4152661283424644 0.017501776637042832 -0.23622777596569575 -0.032917163063007536 0 0 0 0
1519002 -0.4150437629356105 0.01717841887666188 -0.23649677123279436 -0.03203361640335426 0 0 0 0
1551948 -0.414829427056165 0.016729183652798605 -0.2366737231987298 -0.031235823959106325 0 0 0 0
1584894 -0.41474187198488627 0.016346471459882973 -0.2366947416420815 -0.030486847626815406 0 0 0 0
1617840 -0.4148795439729118 0.01604424553141413 -0.23682706895570924 -0.029753092823048072 0 0 0 0
1650786 -0.4144095144965409 0.015800519775602442 -0.2369441027213048 -0.02888124919628812 0 0 0 0
1683732 -0.41473965056100687 0.015382229306475943 -0.23708376521290195 -0.028287609094116633 0 0 0 0
1716678 -0.41462099653100654 0.015283904142089204 -0.2371109170047891 -0.027575446036734494 0 0 0 0
1749624 -0.41451547940123545 0.015216047796770665 -0.23729063002724643 -0.02686689132566973 0 0 0 0
1782570 -0.4143511250310811 0.01521727357754835 -0.23733628396882278 -0.026082621165064677 0 0 0 0
1815516 -0.4145022975296474 0.014545149600406607 -0.23736634136183593 -0.02571454860085233 0 0 0 0
1848462 -0.4146169853324286 0.014426473670271627 -0.23758654538255017 -0.02503148986728619 0 0 0 0
1881408 -0.4144642195268472 0.013808517502223396 -0.23760723893799737 -0.024494479791037135 0 0 0 0
1914354 -0.41472552449170735 0.014161559532252947 -0.23761781385258432 -0.02389575946585986 0 0 0 0
1947300 -0.41460717897633276 0.01398478535520107 -0.23782642588503483 -0.02345689657517147 0 0 0 0
1980246 -0.4147489973450425 0.013828963138921107 -0.23784913900995042 -0.02279687718809645 0 0 0 0
2013192 -0.4147736317136584 0.013599809555225016 -0.23794585443693192 -0.02230529211863587 0 0 0 0
2046138 -0.41463188114459787 0.013444502280328516 -0.23799061280137726 -0.02181028008085976 0 0 0 0
2079084 -0.4145844586663068 0.0134990631510292 -0.23805660561256337 -0.021192683989362946 0 0 0 0
2112030 -0.4146712203296025 0.013381569971566086 -0.2380909700358208 -0.020858141999179576 0 0 0 0
2144976 -0.4149251148534867 0.013417566016577223 -0.23828294283290083 -0.020332987009851148 0 0 0 0
2177922 -0.41491485702682024 0.01324572827985906 -0.23829813657538387 -0.019967186079878775 0 0 0 0
2210868 -0.4148061390986073 0.01328470040713872 -0.23828981217449316 -0.01939941043092406 0 0 0 0
2243814 -0.41484902112291533 0.01307024984259276 -0.23822942146159096 -0.01889730637228512 0 0 0 0
2276760 -0.41482154470268057 0.012929106860280513 -0.23842163283655715 -0.0184709990685895 0 0 0 0
2309706 -0.4149042319931923 0.013239277851550138 -0.23848732129243969 -0.018148017659200984 0 0 0 0
2342652 -0.415268336025412 0.013121980952401977 -0.2384473209174553 -0.017720018099142924 0 0 0 0
2375598 -0.4147552503335274 0.012667458759749183 -0.23855253262028595 -0.017256607498214026 0 0 0 0
2408544 -0.4147523230560009 0.012891955985372633 -0.23864713526924675 -0.01684633199719742 0 0 0 0
2441490 -0.4148905511983467 0.012967760839331936 -0.23864321322873186 -0.016454174318608523 0 0 0 0
2474436 -0.41520456853531 0.013086245632451523 -0.23860935228687882 -0.016052216302280167 0 0 0 0
2507382 -0.4151702490987238 0.012915243557527229 -0.23862311154334667 -0.01576682749181039 0 0 0 0
2540328 -0.41480105355191504 0.013079387287110746 -0.2387277625783481 -0.01527698797721793 0 0 0 0
2573274 -0.41500323507084 0.012849722872497495 -0.23876121717177037 -0.015069273999317338 0 0 0 0
2606220 -0.41527409687066447 0.012976397926855055 -0.23877625721738632 -0.0146251269777857 0 0 0 0
2639166 -0.4154414066953893 0.013080065275185767 -0.23893088407951904 -0.014213511413032618 0 0 0 0
2672112 -0.414624161904235 0.01296109462767797 -0.23870794207077578 -0.013792487578947663 0 0 0 0
2705058 -0.41503902884255334 0.012901462195569546 -0.2387829494560343 -0.013586172815449164 0 0 0 0
2738004 -0.41510392772066984 0.012952341754831712 -0.238962035470488 -0.013373042502916497 0 0 0 0
2770950 -0.4149281272960017 0.013225208053797701 -0.23896704303128669 -0.012889043477912256 0 0 0 0
2803896 -0.41523539981655605 0.013070123129424235 -0.2388063575468152 -0.012701207956334988 0 0 0 0
2836842 -0.41512145600948014 0.013197085706372989 -0.23889339119612868 -0.012253736892733296 0 0 0 0
2869788 -0.41482882563492096 0.013066588788722786 -0.23896315321979542 -0.011867673668242599 0 0 0 0
2902734 -0.4154793911952968 0.013537411427191325 -0.2390293793913849 -0.01154834820130448 0 0 0 0
2935680 -0.41510242357889787 0.013264935684813428 -0.23909047618098622 -0.011313427341149167 0 0 0 0
2968626 -0.415318396755828 0.013448115546925446 -0.2390624165352016 -0.011011840670050581 0 0 0 0
3001572 -0.41544422749872995 0.01345980430634843 -0.2390983132707901 -0.01064403451989304 0 0 0 0
3034518 -0.41487677216143504 0.013727093586623733 -0.2390550859316812 -0.010259287244260338 0 0 0 0
3067464 -0.415507484526871 0.013840100445021883 -0.2392522296610114 -0.010110574906407861 0 0 0 0
3100410 -0.4155667787133477 0.013590258564433135 -0.23905756137189377 -0.009881330088445953 0 0 0 0
3133356 -0.41501311035900146 0.013792084826490955 -0.23922813544105018 -0.009449012061389353 0 0 0 0
3166302 -0.4152043830918029 0.013594115850954287 -0.23911611682979303 -0.00922027707733057 0 0 0 0
3199248 -0.41490677090511885 0.013892971289034002 -0.2390673349178347 -0.009003585839394387 0 0 0 0
3232194 -0.414900964980876 0.013949113830139404 -0.2389951617865282 -0.008674313929469863 0 0 0 0
3265140 -0.41545757472457145 0.013921309531166024 -0.23925926490364136 -0.00842242515771932 0 0 0 0
3298086 -0.4154227358750235 0.014290175246372525 -0.23916661005649595 -0.008112639540324693 0 0 0 0
3331032 -0.4153065187321454 0.014278032689146491 -0.23928747870480144 -0.007826520092014958 0 0 0 0
3363978 -0.41488603155317866 0.01429888616166451 -0.23904451798507378 -0.007647436385284535 0 0 0 0
3396924 -0.4152887918589387 0.014514628119711307 -0.23917539803620222 -0.0073692024277788835 0 0 0 0
3429870 -0.41492052751481157 0.014418739964153797 -0.2392221392940076 -0.007050499088342454 0 0 0 0
3462816 -0.4151635301074888 0.014532480646911393 -0.2391389989382076 -0.00690035826445344 0 0 0 0
3495762 -0.415308250885837 0.014660401347388542 -0.23934679179791318 -0.006575746804193417 0 0 0 0
3528708 -0.41485904568137466 0.01438863361567659 -0.2390889266993655 -0.0062522946921571235 0 0 0 0
3561654 -0.4153483904355002 0.015058298701800362 -0.2392717528669696 -0.005968599612426527 0 0 0 0
3594600 -0.41530613495843316 0.014995676347891423 -0.2392439187746705 -0.005834956440827286 0 0 0 0
3627546 -0.41469623870124 0.014928130872615804 -0.23923478572944987 -0.005541632259663861 0 0 0 0
3660492 -0.4152610253749163 0.01520982797272648 -0.23924315699105717 -0.005379787044921118 0 0 0 0
3693438 -0.4150162711854747 0.015248623597033314 -0.23928926621719207 -0.005056525070999135 0 0 0 0
3726384 -0.41513497541704164 0.015271928463512429 -0.23932847415176706 -0.004772012710376032 0 0 0 0
3759330 -0.41501973674555936 0.015136654696791558 -0.23940579848819887 -0.004691027809242551 0 0 0 0
3792276 -0.41507882593206313 0.015471539067325174 -0.23933742690094234 -0.0043550684057797745 0 0 0 0
3825222 -0.414624233999258 0.015374851698695659 -0.2392419569501516 -0.004112717951742891 0 0 0 0
3858168 -0.4150973788488051 0.01570411069432912 -0.239263513461218 -0.003945725819564283 0 0 0 0
3891114 -0.4148521069130825 0.015577943294445113 -0.23931836798476697 -0.003622770496623368 0 0 0 0
3924060 -0.41504255670915075 0.015805692615243037 -0.23929532159744438 -0.003348023566602783 0 0 0 0
3957006 -0.41455055512038147 0.015583563232351974 -0.2391806544501178 -0.0032235381538348934 0 0 0 0
3989952 -0.41463364419981613 0.0158904002681992 -0.2392002893048631 -0.0030073347614112374 0 0 0 0
4022898 -0.41468199431618236 0.015978277152027025 -0.23930824868905903 -0.0026421265662753186 0 0 0 0
4055844 -0.4145912057337927 0.016071075825746104 -0.23925892309871383 -0.0026091725144149914 0 0 0 0
4088790 -0.4148823463978171 0.016323691645697504 -0.23942541686472743 -0.002145614907472795 0 0 0 0
4121736 -0.4146096825754992 0.016104146468105995 -0.23923267085139324 -0.0022241958808227958 0 0 0 0
4154682 -0.4148169012376146 0.016319384194504644 -0.2394036394240749 -0.001946141617203538 0 0 0 0
4187628 -0.4144930076845534 0.016360733945037904 -0.23912094626208893 -0.001697240152905182 0 0 0 0
4220574 -0.41439510893255804 0.016368963818398967 -0.2392859665517302 -0.0015237030226441888 0 0 0 0
4253520 -0.4143373521100925 0.016561702305935035 -0.2392471319283514 -0.0012985326631289903 0 0 0 0
4286466 -0.4146102227932652 0.016750226028481426 -0.23939950388703737 -0.0008208887574683367 0 0 0 0
4319412 -0.4146381933890733 0.016736201170905577 -0.23918509172923172 -0.0007808105099313319 0 0 0 0
4352358 -0.4145369894022368 0.01685296709649963 -0.23936982356042566 -0.0006609925186864213 0 0 0 0
4385304 -0.41447829801575947 0.01677860029670188 -0.2393201489598135 -0.0004904037376057621 0 0 0 0
4418250 -0.41470488574270886 0.017114098378910696 -0.23942906873028366 -0.0001810208980870361 0 0 0 0
4451196 -0.41416616317730554 0.01708303360382681 -0.2393693178090046 1.489277764491956e-05 0 0 0 0
4484142 -0.41440722127052154 0.01741602590897668 -0.2394529932779844 0.00023978077621072567 0 0 0 0
4517088 -0.4143073135641266 0.0174306796460989 -0.23944643953100092 0.00045947300168903017 0 0 0 0
4550034 -0.41429876675190125 0.017161032763158047 -0.2392917950863914 0.0006334335513528609 0 0 0 0
4582980 -0.41425664122913036 0.017506981016799646 -0.2393802682554881 0.0007274557342344871 0 0 0 0
4615926 -0.4141191843264747 0.01751931057459137 -0.23952661289409352 0.001046756402736188 0 0 0 0
4648872 -0.4141339131481406 0.01779241326500376 -0.23927682334309078 0.0012518195064808715 0 0 0 0
4681818 -0.4140034692887843 0.01792591540795602 -0.23920304160888894 0.0014492465869183598 0 0 0 0
4714764 -0.4141927265228229 0.017743931800920952 -0.23943880272515275 0.0016166719762196358 0 0 0 0
4747710 -0.4139339443543191 0.017961980231276313 -0.23938578917459144 0.0016943616341483082 0 0 0 0
4780656 -0.4139670248735695 0.017885788566775626 -0.23935047834505965 0.0020411828559924435 0 0 0 0
4813602 -0.41422594903058063 0.018140133755372857 -0.23954075457582788 0.002192319339661949 0 0 0 0
4846548 -0.4137580360395194 0.018137252232211302 -0.23919176555559413 0.002394739938988727 0 0 0 0
4879494 -0.41397265334006494 0.018248216260314382 -0.2395030789081755 0.0026132307025839236 0 0 0 0
4912440 -0.41381719735368677 0.01839150288314374 -0.2392628858268223 0.0026434204785428066 0 0 0 0
4945386 -0.41366973644806604 0.018175955568476496 -0.23933426230249516 0.0030504868916019375 0 0 0 0
4978332 -0.4136557911574665 0.018503485353825767 -0.23937369251130963 0.003011799450281396 0 0 0 0
5011278 -0.4136237493218636 0.018625114094627093 -0.2391323796908075 0.0033267974432963933 0 0 0 0
5044224 -0.4137208461663052 0.018707393691637816 -0.23920603647339447 0.0036076721672206507 0 0 0 0
5077170 -0.4135457341961178 0.018635685148872747 -0.23921907405279916 0.0036648271091967643 0 0 0 0
5110116 -0.4136880140054262 0.01888356241362281 -0.23925363534114888 0.0038431019010404513 0 0 0 0
5143062 -0.4135412368890574 0.018808950040540943 -0.2392550818092942 0.0039831068102753825 0 0 0 0
5176008 -0.41349172883154733 0.01904029720313919 -0.2393255808611531 0.0042002206530029566 0 0 0 0
5208954 -0.41355128022872195 0.018852968967499655 -0.23937445388358544 0.004354334861938348 0 0 0 0
5241900 -0.4136237705085001 0.018979149663887696 -0.23932191962667895 0.004581086794952504 0 0 0 0
5274846 -0.4134516619021913 0.01911142454573291 -0.2393087168008488 0.004827440820827475 0 0 0 0
5307792 -0.4134025047978465 0.01900277935646981 -0.23930085742555227 0.0048580433058574264 0 0 0 0
5340738 -0.4135910177774164 0.019422978584653406 -0.2393013096462234 0.005097988972832382 0 0 0 0
5373684 -0.4132312666220844 0.019291152400306905 -0.2392838841581225 0.00523250021257874 0 0 0 0
5406630 -0.41349172348158597 0.01962954937550422 -0.2392982577376068 0.005422844939722202 0 0 0 0
5439576 -0.4134354767597772 0.019632101713749146 -0.23929205203488393 0.005604652643168331 0 0 0 0
5472522 -0.4133420952545746 0.01930654041241645 -0.23927082045763426 0.0057870157240437585 0 0 0 0
5505468 -0.4132435666788218 0.01959224718570515 -0.23921036466967568 0.006080913686717613 0 0 0 0
5538414 -0.41311285848724894 0.01979685052752627 -0.23916209756916407 0.006255110257058121 0 0 0 0
5571360 -0.4131181683337633 0.019744526231157366 -0.23915416123189093 0.006175469911594181 0 0 0 0
5604306 -0.41310155684938493 0.01980597777437046 -0.23917808839678412 0.006443215684151962 0 0 0 0
5637252 -0.4134101532332998 0.019806977065675076 -0.2391689924294787 0.0067896839738754225 0 0 0 0
5670198 -0.4130092360839289 0.01982857067175287 -0.23927766551221508 0.006845060050236507 0 0 0 0
5703144 -0.4131659245378954 0.02003847195388775 -0.23929018232061353 0.006936189116369676 0 0 0 0
5736090 -0.41296004989787305 0.020077276029137777 -0.2392029154798462 0.007161109170735982 0 0 0 0
5769036 -0.412862206864858 0.020128119670693796 -0.23916842371481759 0.007444407892771572 0 0 0 0
5801982 -0.41270255072092094 0.01998477278152679 -0.23908318304334938 0.0075068102339033 0 0 0 0
5834928 -0.41293076912705595 0.02018178105327517 -0.2391578996207942 0.007753231328969731 0 0 0 0
5867874 -0.41316052683195564 0.020183694962412322 -0.23914206410848216 0.007947217151173183 0 0 0 0
5900820 -0.4127880812612872 0.020246790865943894 -0.23916382004644599 0.008039792764120325 0 0 0 0
5933766 -0.4128026528331618 0.02020036967307927 -0.2391709474058019 0.00821020642262857 0 0 0 0
5966712 -0.41289207159889874 0.020185637219471652 -0.23916076728717645 0.00841015033012051 0 0 0 0
5999658 -0.41279122098285115 0.020337364184576188 -0.2391199033562073 0.00850572833374512 0 0 0 0
6032604 -0.41271723557091905 0.020323252059229267 -0.23915249941862682 0.008583055931875616 0 0 0 0
6065550 -0.4127156245073538 0.020300340934075074 -0.23898142621110724 0.008877717552752734 0 0 0 0
6098496 -0.412945704501709 0.020403182857640596 -0.23912383650690242 0.009138293838952696 0 0 0 0
6131442 -0.41259415547909484 0.02041758762651312 -0.23911394152557586 0.00923312824956823 0 0 0 0
6164388 -0.41266330448396094 0.02045588093951078 -0.23899741719662418 0.00940142710342834 0 0 0 0
6197334 -0.41271776293565937 0.02033784480718882 -0.23899589218810005 0.009437398288524974 0 0 0 0
6230280 -0.41251002320697483 0.02072458715261773 -0.23903293665634692 0.00966350300012977 0 0 0 0
6263226 -0.41278131450313726 0.020493321110462644 -0.23901204048973795 0.009934594209535656 0 0 0 0
6296172 -0.4127544188458446 0.020458768371225972 -0.23909152160267155 0.009886002573975174 0 0 0 0
6329118 -0.4124922020337949 0.020478597124148668 -0.2389260226974074 0.01013969912885533 0 0 0 0
6362064 -0.4127183265119074 0.020380482541325618 -0.2390319774321329 0.010252638421065255 0 0 0 0
6395010 -0.4126733691098081 0.020490714170322204 -0.23903235523134853 0.01034428114238679 0 0 0 0
6427956 -0.41271561822224456 0.020470852514908162 -0.2390052723882046 0.01058859291596386 0 0 0 0
6460902 -0.41318733128825497 0.020259953904478517 -0.23889851964573533 0.01089195936329651 0 0 0 0
6493848 -0.41292682081834 0.020178188767068346 -0.23905271894768457 0.010910751239169373 0 0 0 0
6526794 -0.4130940381000978 0.020202447775265267 -0.23903455472068652 0.011018227146004918 0 0 0 0
6559740 -0.4133241761044251 0.020045676841277282 -0.2389856523428859 0.011243146644655243 0 0 0 0
6592686 -0.41335554074531633 0.019958438467408045 -0.23897262289351232 0.01138108034442123 0 0 0 0
6625632 -0.41321982155441067 0.01992030932193626 -0.2390029885382872 0.011424772273678815 0 0 0 0
6658578 -0.41356789947003353 0.019589565089630334 -0.23883739111319724 0.011684421611702085 0 0 0 0
6691524 -0.4137908532889488 0.019405430335914332 -0.23892106078065947 0.011812072207571427 0 0 0 0
6724470 -0.41450246926707435 0.01930818975548908 -0.2390845583412063 0.012066298266213414 0 0 0 0
6757416 -0.4147157513837756 0.01900471929703753 -0.2389597920863098 0.01212017050025519 0 0 0 0
6790362 -0.4150326238051253 0.01886302136270748 -0.23892734868264592 0.01226410064318277 0 0 0 0
6823308 -0.41562529792291364 0.01876652131726327 -0.23891974238479735 0.012509876704123308 0 0 0 0
6856254 -0.4167330513839819 0.018506176361882003 -0.23901509461440168 0.012623202729080333 0 0 0 0
6889200 -0.417719725967627 0.018527902437624626 -0.23899049866707825 0.012848505385360412 0 0 0 0
6922146 -0.41787030131756825 0.016252976070039737 -0.239959341426072 0.01629542365930621 0 0 0 0
6955092 -0.418802928510839 0.01675265581359491 -0.23982789832322607 0.016340676292780257 0 0 0 0
6988038 -0.42044025857706957 0.017391764678132453 -0.23970878840449225 0.01637835044996965 0 0 0 0
7020984 -0.42171002139231867 0.019237969880042213 -0.23986209503518943 0.016816329227793227 0 0 0 0
7053930 -0.4228262803577317 0.02126561475110736 -0.23972327216589964 0.016871503676123473 0 0 0 0
7086876 -0.4230370335959513 0.02404656405610969 -0.2399703715001703 0.01720500370032117 0 0 0 0
7119822 -0.42245641179092985 0.026652834842929397 -0.240113620396091 0.017434903399864192 0 0 0 0
7152768 -0.42071109612628743 0.028497187822872826 -0.23974918650475602 0.017467307414569117 0 0 0 0
7185714 -0.41921278412905205 0.029962280854402376 -0.23971250487632442 0.017776416451598158 0 0 0 0
7218660 -0.4172875876235206 0.030328235792460172 -0.2397504489380926 0.018028241654880175 0 0 0 0
7251606 -0.4158657969805871 0.03038754304275709 -0.23961392554547306 0.01803091483510609 0 0 0 0
7284552 -0.4146093184942788 0.030196204318737683 -0.23954447509704346 0.01820718577625594 0 0 0 0
7317498 -0.41351182248176754 0.03015877782100947 -0.23950410082786333 0.018321373128020485 0 0 0 0
7350444 -0.41292749300875503 0.02990593511029555 -0.23964469043805073 0.018564146781425976 0 0 0 0
7383390 -0.4124056663773358 0.02967152406467963 -0.23949119492749316 0.01866047429300934 0 0 0 0
7416336 -0.41172745741859196 0.0293258470076974 -0.23948698185472025 0.018843607494412502 0 0 0 0
7449282 -0.4113655781356028 0.029196469224606 -0.23945447624552532 0.018968429522445904 0 0 0 0
7482228 -0.41098675412040564 0.029043891734675205 -0.23939686859800746 0.01907893218826609 0 0 0 0
7515174 -0.4105012160278065 0.02865840361711474 -0.23922548611745206 0.019222729335450682 0 0 0 0
7548120 -0.4105643433060776 0.028465111439383784 -0.2393665351063015 0.019427445898146888 0 0 0 0
7581066 -0.4101402633090435 0.028517747120947137 -0.23934052810261278 0.019617365044672524 0 0 0 0
7614012 -0.41005710783688804 0.028297535436947383 -0.23946496184400398 0.01977377732543962 0 0 0 0
7646958 -0.409938599611866 0.02820277862682025 -0.23932977756815085 0.019799806821795628 0 0 0 0
7679904 -0.40981237269996434 0.028235402187879396 -0.23937636783961908 0.0199931522509394 0 0 0 0
7712850 -0.40972856856251955 0.02776096191335807 -0.23924109526708298 0.020044157442764658 0 0 0 0
7745796 -0.40939449063633926 0.02779386247085713 -0.2391981712512689 0.020091831168123908 0 0 0 0
7778742 -0.40938453630374444 0.027681388555042253 -0.2391990852987756 0.020354894821805015 0 0 0 0
7811688 -0.40929428011903246 0.027602367998197066 -0.23920553072711936 0.02045288265287223 0 0 0 0
7844634 -0.40932871549453853 0.027592806955634527 -0.23917972051169217 0.02063394117932637 0 0 0 0
7877580 -0.4090497023761841 0.027452812531460067 -0.2391216974210436 0.020706327722442443 0 0 0 0
7910526 -0.4092114396471268 0.027812144012238398 -0.23926211622234975 0.02103971316768059 0 0 0 0
7943472 -0.4091420039530971 0.02759988736228849 -0.23911648926999043 0.02104128058535473 0 0 0 0
7976418 -0.40881155584093565 0.02758537744323346 -0.2389516792914898 0.02113318401420091 0 0 0 0
8009364 -0.40875726451998806 0.027650590557720543 -0.23905617507737742 0.021346046936397828 0 0 0 0
8042310 -0.40881666466389793 0.0275775166627331 -0.23898394701555953 0.02147281549020419 0 0 0 0
8075256 -0.4087979910054928 0.02774374431308834 -0.23906656786840522 0.021597909152854297 0 0 0 0
8108202 -0.4088533738735058 0.027804211784632115 -0.2390337342647382 0.021779643079981082 0 0 0 0
8141148 -0.40875646471252586 0.027696520274387963 -0.23914426887230525 0.021772240337927264 0 0 0 0
8174094 -0.4084515976978756 0.027702297965118 -0.23897681180427624 0.022011639092364164 0 0 0 0
8207040 -0.40855133416364825 0.027767515684327143 -0.23898960002491987 0.022209923941256975 0 0 0 0
8239986 -0.4084937219531149 0.027529441140597508 -0.2389143088201234 0.022290815896124423 0 0 0 0
8272932 -0.40858318372677876 0.028011769990308376 -0.23899425094884327 0.022596699561404678 0 0 0 0
8305878 -0.40835168264383365 0.027726698560684934 -0.23890298993591072 0.022632206180696852 0 0 0 0
8338824 -0.40850742783485405 0.027764217401751622 -0.23902469998232748 0.022730909576001542 0 0 0 0
8371770 -0.4082842329863134 0.027809532800253552 -0.2389532063565886 0.022871974507407074 0 0 0 0
8404716 -0.40835698116662233 0.028192034415082525 -0.23889250670995454 0.02309015123002717 0 0 0 0
8437662 -0.4083178546254483 0.027935912422349413 -0.23889112147445837 0.0231174300365812 0 0 0 0
8470608 -0.40814179185950855 0.027688622757035136 -0.2387666990349167 0.023217974254305686 0 0 0 0
8503554 -0.4082362540556664 0.027857631410168053 -0.23887162519850536 0.023461861637572384 0 0 0 0
8536500 -0.40820154026204736 0.027985526220197437 -0.2388478823540128 0.02354993499224628 0 0 0 0
8569446 -0.40812390722713887 0.028134838610843826 -0.2388272680223194 0.02379248790514075 0 0 0 0
8602392 -0.40819429987184125 0.028290611384741638 -0.23877822013468947 0.02394835013908743 0 0 0 0
8635338 -0.4079786466808926 0.02831725596933784 -0.2386453249341124 0.024065027378721692 0 0 0 0
8668284 -0.4081074498204024 0.028426412472189657 -0.2388426720302882 0.0244081266281917 0 0 0 0
8701230 -0.40792320844179536 0.028424950831015282 -0.23872966834523265 0.024310484036423215 0 0 0 0
8734176 -0.40794643072270564 0.02828963170305943 -0.238842099770274 0.024368496441930208 0 0 0 0
8767122 -0.4080643193710988 0.028458679332912466 -0.23886838759930187 0.02451216932608183 0 0 0 0
8800068 -0.407631407300742 0.02859205251722128 -0.23854302153032392 0.024686825798509386 0 0 0 0
8833014 -0.40800724994875537 0.02852343027639612 -0.23878483070335976 0.0248974144735705 0 0 0 0
8865960 -0.4075067084703523 0.02838458892543032 -0.23857751070140212 0.02496539012447634 0 0 0 0
8898906 -0.40783291330784505 0.028632154673325694 -0.23874393000605054 0.02512007985768539 0 0 0 0
8931852 -0.4077465502303966 0.02869978520119286 -0.23866963181627487 0.025336578590780093 0 0 0 0
8964798 -0.4076117330808342 0.028734844279518636 -0.2385682269710562 0.025418368773821313 0 0 0 0
8997744 -0.4076487211484553 0.02906946240864004 -0.23863836910551706 0.025701358249578254 0 0 0 0
9030690 -0.407673211576686 0.02885983768507614 -0.23853163397106877 0.025656967734376458 0 0 0 0
9063636 -0.4076482057062436 0.029127781449865584 -0.23854426948016458 0.0259291263844447 0 0 0 0
9096582 -0.4075208744911837 0.029007389196856526 -0.23853322511749112 0.025983955027953143 0 0 0 0
9129528 -0.4073600307176041 0.02902444748991011 -0.23849583694074708 0.02613403364012876 0 0 0 0
9162474 -0.4074754263703793 0.02921544364590322 -0.23861542762319574 0.02632592642879404 0 0 0 0
9195420 -0.40742924252718443 0.028961233472618916 -0.2384293036650475 0.026314832120210782 0 0 0 0
9228366 -0.40719924982236166 0.029062999787379425 -0.23834753964253394 0.026482234405900376 0 0 0 0
9261312 -0.40753288474455934 0.02932019809799538 -0.2385658748382098 0.02677689056084688 0 0 0 0
9294258 -0.4074418203157745 0.02959680669992744 -0.2384116949111743 0.026899659737781884 0 0 0 0
9327204 -0.40733424357841974 0.029299031907173277 -0.2384018931201744 0.02699733463456294 0 0 0 0
9360150 -0.4074213792289412 0.029410400346195555 -0.2384814731974103 0.027047318951435945 0 0 0 0
9393096 -0.40710891262266774 0.02955080052244022 -0.23825800070463377 0.02719640340649846 0 0 0 0
9426042 -0.4071793501039179 0.029664075643857826 -0.23833528670481718 0.027384741756492092 0 0 0 0
9458988 -0.4071855619215007 0.029672933030648566 -0.23823097632962248 0.02744226609470872 0 0 0 0
9491934 -0.4071323372624707 0.02995659669585427 -0.2383362876279513 0.02781708350521444 0 0 0 0
9524880 -0.4070985701253924 0.02997970908568385 -0.2383118804048637 0.027767027607224812 0 0 0 0
9557826 -0.4072499703831931 0.029864696106018655 -0.23836677545641083 0.027892092936937004 0 0 0 0
9590772 -0.40691479990677937 0.02994536912834206 -0.2382255482870564 0.02805685384649777 0 0 0 0
9623718 -0.40709534460805397 0.029863733068896985 -0.2382805705849436 0.02816260543474222 0 0 0 0
9656664 -0.4069215002654952 0.030075010853410834 -0.23818571662842136 0.028278485037476486 0 0 0 0
9689610 -0.40699810189646113 0.030379737487634506 -0.23822622345024907 0.02850752012603287 0 0 0 0
9722556 -0.4068711803882799 0.030214956503260924 -0.23815527044898963 0.02858459414960751 0 0 0 0
9755502 -0.40673791650862223 0.03023741481476343 -0.23801914520929104 0.028717224190403737 0 0 0 0
9788448 -0.40696019355402935 0.030311376748725034 -0.23807904025480678 0.028863762219267446 0 0 0 0
9821394 -0.40667090338876616 0.030330555585613605 -0.23799794242122002 0.028943039443133388 0 0 0 0
9854340 -0.4065834645193384 0.0304606924525536 -0.23804259925373086 0.029164515259375336 0 0 0 0
9887286 -0.4069192536530011 0.03074065186759386 -0.23809488341818344 0.029279880777621153 0 0 0 0
9920232 -0.40688438910443225 0.030648953742854076 -0.2381586984333033 0.029374805522714292 0 0 0 0
9953178 -0.40687983050327337 0.03065741997393099 -0.2380945333068133 0.029540348037863876 0 0 0 0
9986124 -0.40653339792566306 0.030799114219764084 -0.2379649673860749 0.029735866343712145 0 0 0 0
10019070 -0.40659429654044793 0.03086131927504129 -0.2379902389418388 0.029814577159329475 0 0 0 0
10052016 -0.40649754892557427 0.030818191400154495 -0.2378498922502776 0.029898017204338836 0 0 0 0
10084962 -0.4069014988902317 0.03129145510514566 -0.23798820303350562 0.0301726889766008 0 0 0 0
10117908 -0.40676269500933954 0.0308406177327694 -0.2380659308313683 0.030162574978903213 0 0 0 0
10150854 -0.4064542714269374 0.031139440483783896 -0.23790741760804762 0.03033773880226029 0 0 0 0
10183800 -0.4064485814263252 0.03117568040630921 -0.23779254164950409 0.03049001792435053 0 0 0 0
10216746 -0.4065405322518426 0.031248556107163268 -0.23795413174552194 0.030686359141164424 0 0 0 0
10249692 -0.40647936426259956 0.03148761908105759 -0.23789717243117223 0.030740097264618915 0 0 0 0
10282638 -0.406680453712888 0.031636719243710996 -0.23786687586021035 0.030909610737160514 0 0 0 0
10315584 -0.4063116846082563 0.03154636419362589 -0.23784052347202417 0.0309381483423357 0 0 0 0
10348530 -0.4064636155944204 0.03143069261829694 -0.2378386449518135 0.031093849040312906 0 0 0 0
10381476 -0.40637065554177376 0.031630127068584556 -0.23773051085248853 0.031320984723232276 0 0 0 0
10414422 -0.40627274508602496 0.03154198813281846 -0.23770694489286434 0.03144117954841096 0 0 0 0
10447368 -0.4062137170511187 0.03174872601161508 -0.23770336205463705 0.03163546982545297 0 0 0 0
10480314 -0.4062881444211848 0.03193143232139046 -0.23766920386885926 0.03161677340304172 0 0 0 0
10513260 -0.4064045856806053 0.03194658624073344 -0.2377569920512318 0.03183337249871517 0 0 0 0
10546206 -0.40608842225211483 0.03192123772512145 -0.23757249669730343 0.03205612166820639 0 0 0 0
10579152 -0.40620787847946965 0.03205396256889252 -0.23772153835728752 0.032090442363116346 0 0 0 0
10612098 -0.40627057414259216 0.032257533376362085 -0.23761210501938457 0.032190954633733726 0 0 0 0
10645044 -0.40647998834017823 0.03243428497863246 -0.23760890229394394 0.032360322981652645 0 0 0 0
10677990 -0.4061877796143573 0.03250932362073958 -0.23758616596759408 0.03252175145146055 0 0 0 0
10710936 -0.4060857280053873 0.0323966099476413 -0.23748662922678962 0.03266416632531434 0 0 0 0
10743882 -0.40609124552210435 0.0324943223645338 -0.23761046514670658 0.03288250216397835 0 0 0 0
10776828 -0.4060581004002437 0.032585639381438734 -0.23748099136707157 0.032956854409801964 0 0 0 0
10809774 -0.4059928019551829 0.03275744930851423 -0.2374316717196986 0.033057072201422844 0 0 0 0
10842720 -0.4060444162677661 0.03277401886888732 -0.23747379971198157 0.033148616488789424 0 0 0 0
10875666 -0.4056976144988058 0.032732341352414485 -0.23725092318671653 0.033334110996285776 0 0 0 0
10908612 -0.40626282931020213 0.03287656482489583 -0.23746554550416604 0.0334461893308563 0 0 0 0
10941558 -0.4059839163018286 0.03296062642813225 -0.23735531634514437 0.033563585536621636 0 0 0 0
10974504 -0.40617087168043514 0.033265049355709966 -0.23741667348817905 0.03376480942956805 0 0 0 0
11007450 -0.40591228141388663 0.033160251110678704 -0.23737806177171594 0.0338539240955738 0 0 0 0
11040396 -0.40614957263722523 0.03310761690922581 -0.23735460646152767 0.03390141511172631 0 0 0 0
11073342 -0.4058293341342509 0.033240395460151985 -0.23719412126601375 0.03407098152844519 0 0 0 0
11106288 -0.4057223437257321 0.03326627355322628 -0.23711249972012272 0.03421583358545954 0 0 0 0
11139234 -0.4059749173934664 0.033502333316529756 -0.23729198781327215 0.03432748060978076 0 0 0 0
11172180 -0.405840718155414 0.033427856990042026 -0.2372783275850742 0.03446292200643148 0 0 0 0
11205126 -0.4056904163044973 0.03349418594981951 -0.23712386201396468 0.03462352882603836 0 0 0 0
11238072 -0.40610742246924497 0.033832573268013554 -0.23719067872044114 0.034878503813729055 0 0 0 0
11271018 -0.4057116769167662 0.03370109564381597 -0.23726861695648546 0.03477946033964825 0 0 0 0
11303964 -0.40587144586270674 0.033767588017161926 -0.23720125040955198 0.03496450296250428 0 0 0 0
11336910 -0.4053973797384919 0.03364196296390998 -0.2368580043533535 0.035120869660125266 0 0 0 0
11369856 -0.4054542741535135 0.033962218517695264 -0.236927062897699 0.03528789597482634 0 0 0 0
11402802 -0.405732979533074 0.033837198615216155 -0.23704097083990464 0.035347987059193405 0 0 0 0
11435748 -0.4055645818329854 0.03377425208584644 -0.23698337523248783 0.03551497761054899 0 0 0 0
11468694 -0.4057847125017795 0.034064806994265937 -0.23710986833027328 0.03570257134984544 0 0 0 0
11501640 -0.40577233440569244 0.034378787211215525 -0.2370249251751999 0.035862542088345474 0 0 0 0
11534586 -0.40555330153414654 0.034182021409787815 -0.23691219700618255 0.03594230696268777 0 0 0 0
11567532 -0.40564031881419765 0.0343081579207919 -0.23696210684013413 0.03609519244914841 0 0 0 0
11600478 -0.405440742589501 0.034172602958227376 -0.23685677914277903 0.03617477909337594 0 0 0 0
11633424 -0.405408708918489 0.03443580804740816 -0.23690724361769344 0.0363669993011085 0 0 0 0
11666370 -0.4055588199407163 0.034881547849367936 -0.2369610775043941 0.036515400362331515 0 0 0 0
11699316 -0.40549041800997593 0.034590144266251996 -0.23686360931435851 0.03660656104006882 0 0 0 0
11732262 -0.4055650888874878 0.03461474373633658 -0.23686843303558833 0.03668222561674688 0 0 0 0
11765208 -0.4055094673430249 0.03484248292783526 -0.236804486626644 0.036851375523277524 0 0 0 0
11798154 -0.4053461883352865 0.03480327840194385 -0.23681420837836778 0.037002546138405666 0 0 0 0
11831100 -0.40551978025202706 0.03515517476710798 -0.23674938427446485 0.03709040605907856 0 0 0 0
11864046 -0.40527316138802055 0.03496243707936366 -0.2367406844849792 0.037152732214262164 0 0 0 0
11896992 -0.4055245075747808 0.03508224114694217 -0.2367802363737781 0.03736778531856846 0 0 0 0
11929938 -0.4052133783794575 0.035122147133533996 -0.23653534297227796 0.03745090868032952 0 0 0 0
11962884 -0.405243804863837 0.035153761810484616 -0.23662931442691165 0.037600465462575575 0 0 0 0
11995830 -0.40515205901564433 0.03525781441847087 -0.23649927919105104 0.037733500427637554 0 0 0 0
12028776 -0.40511036141354706 0.035474372613171726 -0.2365892675111115 0.03796627775047513 0 0 0 0
12061722 -0.40532621215695486 0.03566730208061047 -0.23652522387935615 0.03796748505967056 0 0 0 0
12094668 -0.40522055809202034 0.03587526454262767 -0.2366009499660411 0.03820155189346497 0 0 0 0
12127614 -0.40519431338623224 0.03578278840063204 -0.23650421039423933 0.03827639920450646 0 0 0 0
12160560 -0.4052708536607314 0.03549038834938379 -0.23657366950708023 0.03835315014919707 0 0 0 0
12193506 -0.4050910237504083 0.035682922051657295 -0.23642575552958525 0.038524844972403605 0 0 0 0
12226452 -0.4050210648827517 0.03586512570747642 -0.23638606773710522 0.038673814102729624 0 0 0 0
12259398 -0.4051933076128925 0.03611022187821991 -0.236350594190091 0.03876656232035139 0 0 0 0
12292344 -0.4053918353248675 0.036052643516318754 -0.2364193595079994 0.03886848627444945 0 0 0 0
12325290 -0.40468871175477816 0.03587146131865433 -0.23625942803885797 0.03896944262404293 0 0 0 0
12358236 -0.4051879221244066 0.036135669276317305 -0.23636587032705078 0.03920194081571164 0 0 0 0
12391182 -0.4047207138987276 0.03601150724974305 -0.23628092685144575 0.03929597565111274 0 0 0 0
12424128 -0.40491624010034977 0.036201273302881656 -0.23626480262732177 0.03946330738256871 0 0 0 0
12457074 -0.40509643185021027 0.03624510140797565 -0.2363233181364311 0.03950808486317487 0 0 0 0
12490020 -0.40522266028132253 0.0365937235023246 -0.23629099422254568 0.03966108382326341 0 0 0 0
12522966 -0.4051759611817458 0.03660659127356958 -0.2362442625097968 0.0397644294627734 0 0 0 0
12555912 -0.4051640074701472 0.03655332755815851 -0.23622454363371492 0.03986133819825252 0 0 0 0
12588858 -0.405170551755315 0.03660841022804344 -0.23618640782571065 0.04002584571770483 0 0 0 0
12621804 -0.40493915653802587 0.03672554299969448 -0.23621668249806974 0.04022471572740861 0 0 0 0
12654750 -0.40491577773112947 0.0369113206571371 -0.23610119519058087 0.04023644057792795 0 0 0 0
12687696 -0.4046355359032198 0.036744209720921434 -0.2360362794334847 0.040455868834938735 0 0 0 0
12720642 -0.40470031956672464 0.037034681428186625 -0.236045955130234 0.04065645674816886 0 0 0 0
12753588 -0.4046987484735603 0.037170894097369664 -0.23610320985953417 0.04070834031428027 0 0 0 0
12786534 -0.40496992628681716 0.03721578014444375 -0.23607608736495642 0.0408389664557869 0 0 0 0
12819480 -0.4049515931763377 0.037328748607086557 -0.2360314215336599 0.0409553563569057 0 0 0 0
12852426 -0.4047222475508929 0.03717792361726654 -0.23594867518399945 0.041124502565745374 0 0 0 0
12885372 -0.40461112779409675 0.03732778361601657 -0.23595720420736188 0.04123318982266015 0 0 0 0
12918318 -0.40460033729905864 0.03759870851837032 -0.23591919807356773 0.04143626679920871 0 0 0 0
12951264 -0.40497585282215093 0.03782268670600914 -0.23585317695577035 0.04155660748696275 0 0 0 0
12984210 -0.4045379508924613 0.03764741527076538 -0.23592707208439265 0.04160783953802202 0 0 0 0
13017156 -0.404813525996376 0.03778109583298662 -0.23579954483305599 0.041802102123367 0 0 0 0
13050102 -0.40422851033101465 0.03778231296955579 -0.23573593120254385 0.04182786794536764 0 0 0 0
13083048 -0.4047703782193118 0.037775226220439335 -0.2358171078727962 0.04200637078275889 0 0 0 0
13115994 -0.4045771392161242 0.03803602654790701 -0.23574246883645567 0.042181360045806214 0 0 0 0
13148940 -0.4044135713469996 0.03795702190879483 -0.2357717030309517 0.04211035410135223 0 0 0 0
13181886 -0.40434394750209735 0.038155175010099775 -0.23569319716293996 0.042378371170982684 0 0 0 0
13214832 -0.40431398241212707 0.03803072403493799 -0.23570779043008533 0.04253398060926909 0 0 0 0
13247778 -0.40453321111283636 0.038375085189518175 -0.23566954986379055 0.04250147634327672 0 0 0 0
13280724 -0.4041903414734898 0.038248795513509196 -0.23563995814043415 0.042691665234586895 0 0 0 0
13313670 -0.4044398796019937 0.038508842506283426 -0.2354774202363129 0.04288385306754419 0 0 0 0
13346616 -0.4046035855065458 0.038802559627931076 -0.23562166161858028 0.04307645056514606 0 0 0 0
13379562 -0.4045981038471788 0.038942063104519635 -0.23552223544153536 0.04315943625851829 0 0 0 0
13412508 -0.40427333251766007 0.0386103858964179 -0.23553770917226352 0.04319388090898152 0 0 0 0
13445454 -0.40443821514977013 0.03878934029088756 -0.23535287041024336 0.043314998388175596 0 0 0 0
13478400 -0.40461204609581586 0.03872053018014927 -0.23555641598340515 0.043547737842117344 0 0 0 0
13511346 -0.4040347655773142 0.038851001764980304 -0.23536718294919035 0.04360087568952584 0 0 0 0
13544292 -0.4044207863540365 0.038931235673278636 -0.23546926149325106 0.0438455779345566 0 0 0 0
13577238 -0.4043770475058366 0.038995674730699925 -0.23538637342023794 0.043946836652827614 0 0 0 0
13610184 -0.40421994486399154 0.03899765825970468 -0.23526762049062538 0.0439376876079981 0 0 0 0
13643130 -0.404245109706357 0.039299526449379285 -0.23528505102252764 0.04425292195300161 0 0 0 0
13676076 -0.4043641054315988 0.03942409459370379 -0.23539279745198355 0.04428508645647532 0 0 0 0
13709022 -0.404429258259491 0.03954538019689998 -0.23538609991966508 0.044382962921989504 0 0 0 0
13741968 -0.4042408485523407 0.03951430434009661 -0.23531337329392216 0.04443501330607645 0 0 0 0
13774914 -0.4041375277005329 0.039444824998098565 -0.2351368705325479 0.044538164136819554 0 0 0 0
13807860 -0.40383350019875447 0.039575516924197064 -0.23513651731909566 0.044732515233765355 0 0 0 0
13840806 -0.4043695956694801 0.039830255654224316 -0.23532370806228325 0.04508928140548363 0 0 0 0
13873752 -0.40404118369201 0.03985158148241583 -0.23507238526999136 0.044969851091462204 0 0 0 0
13906698 -0.4040076582199332 0.03986644880195615 -0.23508776480931504 0.04494118285600935 0 0 0 0
13939644 -0.404032133830915 0.039890986374897755 -0.23501670034701128 0.04517847642849829 0 0 0 0
13972590 -0.40405994178444665 0.04001514116757699 -0.23501444097778987 0.045399117312474674 0 0 0 0
14005536 -0.4042395444302088 0.040262733193129084 -0.2350991602367373 0.045699287431620064 0 0 0 0
14038482 -0.40396126165517826 0.040368893117144325 -0.23502343017739968 0.04566502713535142 0 0 0 0
14071428 -0.4043127045183692 0.04043669685941092 -0.23526633179571263 0.04576638111547397 0 0 0 0
14104374 -0.4041473352293504 0.0402004334327434 -0.2348719541396498 0.0457869640878361 0 0 0 0
14137320 -0.4040845464640934 0.040374640881394516 -0.2349215775098893 0.04596808874458973 0 0 0 0
14170266 -0.40392165426213866 0.040519688378303095 -0.23485332234649156 0.046093610740471413 0 0 0 0
14203212 -0.4037680468741837 0.04056239651486268 -0.23471581473793002 0.04618576516271247 0 0 0 0
14236158 -0.4040029793611188 0.040761407725156 -0.2348453020425334 0.04656506299936567 0 0 0 0
14269104 -0.4038329573004721 0.0408580290693949 -0.2347469118873998 0.046542398803864654 0 0 0 0
14302050 -0.4040704103766114 0.04096927819440044 -0.23485448258522792 0.04661700347536012 0 0 0 0
14334996 -0.4040790741303698 0.041024072008603 -0.23473563257741978 0.046742543570914244 0 0 0 0
14367942 -0.40364529433900237 0.04077980123550347 -0.23461828976384907 0.04682445762499917 0 0 0 0
14400888 -0.403709933352597 0.04101648862863195 -0.23465245443472213 0.04708843137920182 0 0 0 0
14433834 -0.403849843228202 0.04127148064144521 -0.23457009192001227 0.047329128015646864 0 0 0 0
14466780 -0.40395979034675894 0.04137981670081207 -0.2347272888461442 0.04723631540295268 0 0 0 0
14499726 -0.4041367437794483 0.04150637276394092 -0.23483237174474772 0.04745559498262312 0 0 0 0
14532672 -0.40410015236011865 0.041765113640046425 -0.2347478360695176 0.047582413865536605 0 0 0 0
14565618 -0.4036650923705673 0.04144958140105764 -0.23450665924286265 0.04761037644040984 0 0 0 0
14598564 -0.40379746675161915 0.04142690976166715 -0.2344427652606201 0.04777848727619272 0 0 0 0
14631510 -0.40378862409223704 0.04158539305917267 -0.23456183716598447 0.047932132350655264 0 0 0 0
14664456 -0.4037072787160157 0.041819528665300865 -0.23445582444527377 0.04817516527973819 0 0 0 0
14697402 -0.40395822545171917 0.04209237230404023 -0.23454475071454942 0.0480862778535062 0 0 0 0
14730348 -0.403608180585042 0.04189961519156797 -0.23439007878636176 0.04822592270454358 0 0 0 0
14763294 -0.4036540224089127 0.04183421111328834 -0.23437152118829205 0.04833554224713539 0 0 0 0
14796240 -0.40399298217579166 0.042063510035546633 -0.23445226901572414 0.04853857133654174 0 0 0 0
14829186 -0.4032638159517231 0.04201062978529709 -0.23422677168931993 0.04859605351851559 0 0 0 0
14862132 -0.40373044100702915 0.042398634594933794 -0.23423257497962827 0.048881475369836114 0 0 0 0
14895078 -0.4038588273686397 0.042563588972593054 -0.23438184075600993 0.048847010058947635 0 0 0 0
14928024 -0.40354528691996205 0.04216738150790933 -0.23408687037220774 0.04893102759360487 0 0 0 0
14960970 -0.4036359092072525 0.042312387625639034 -0.23419206028031833 0.04909529409041912 0 0 0 0
14993916 -0.4036750906136834 0.04252304008583794 -0.23412822321840446 0.04935494631450479 0 0 0 0
15026862 -0.40352125484069273 0.042689486004351934 -0.23415150457205733 0.04949759833507416 0 0 0 0
15059808 -0.40384069976964004 0.042855479593564325 -0.2341510461373679 0.049558916510778574 0 0 0 0
15092754 -0.4038033633938146 0.042997030785229075 -0.23431799479822235 0.04970570933098178 0 0 0 0
15125700 -0.40375807305532063 0.04311250969952285 -0.2342674761287148 0.04981333749496457 0 0 0 0
15158646 -0.4034115826919179 0.04283868517715888 -0.23396026702156236 0.049841483668735566 0 0 0 0
15191592 -0.4032812983285637 0.042982483538261534 -0.23396768991429884 0.049970148914603114 0 0 0 0
15224538 -0.40330575254915174 0.042980048191503174 -0.23384263236665054 0.05012965487191342 0 0 0 0
15257484 -0.4035489704097083 0.04331511103908323 -0.2340580903948247 0.050444498198056846 0 0 0 0
15290430 -0.40346021423174955 0.0432434955725671 -0.23384114260194724 0.05029268350296291 0 0 0 0
15323376 -0.4034659934979518 0.04334429452839654 -0.2338792814886487 0.05048156713925006 0 0 0 0
15356322 -0.4032455766998078 0.04325826608403682 -0.23356812977068078 0.050528541913276596 0 0 0 0
15389268 -0.4033487723276762 0.043352470936477844 -0.23371779482252278 0.05065587929154094 0 0 0 0
15422214 -0.40309444466410704 0.04360576099182413 -0.23364584692884405 0.05083635914212473 0 0 0 0
15455160 -0.40325604692127565 0.04371061819871863 -0.23371271873476246 0.05102745525576816 0 0 0 0
15488106 -0.40318730168498085 0.043998066096646755 -0.23361281752119945 0.05099273498325668 0 0 0 0
15521052 -0.40339621475950094 0.04388004290210966 -0.23362116429374474 0.05119580729393459 0 0 0 0
15553998 -0.40310984691296914 0.04388919578990038 -0.2336206347613651 0.051339322648127864 0 0 0 0
15586944 -0.40317372928208606 0.04391603811172073 -0.2335272047555845 0.051470528075493294 0 0 0 0
15619890 -0.4030523183426174 0.044328348060510114 -0.2335841413096544 0.05166950257810388 0 0 0 0
15652836 -0.4032204443110279 0.044309925737263514 -0.23379253923908577 0.051747486660116346 0 0 0 0
15685782 -0.4032857980000337 0.044227301807769556 -0.23360189802854864 0.05182619147716116 0 0 0 0
15718728 -0.40314703760475246 0.04422734243218463 -0.23346140129456794 0.05198073318748009 0 0 0 0
15751674 -0.403158258722719 0.044367710469095226 -0.2332838248157368 0.05214694643361381 0 0 0 0
15784620 -0.403158971934928 0.04465241511112403 -0.2331143211635914 0.0521597745614894 0 0 0 0
15817566 -0.403149619774085 0.04449321869082911 -0.2337085866481052 0.05229915015944306 0 0 0 0
15850512 -0.4031500764079179 0.044529286541299666 -0.23326534874179755 0.052453303904722824 0 0 0 0
15883458 -0.4030205571801013 0.044844202892028076 -0.2331328201403911 0.05258000858594428 0 0 0 0
15916404 -0.40316346565801237 0.044683752365499346 -0.23330902885339855 0.05286287903591654 0 0 0 0
15949350 -0.40297300116428875 0.04499625437586838 -0.23313273897138698 0.05278618910694036 0 0 0 0
15982296 -0.4029455091734672 0.0452011908172699 -0.23340205065650851 0.053060002551285214 0 0 0 0
16015242 -0.40304516745358926 0.044966193624490954 -0.23313320810545246 0.0530187736187942 0 0 0 0
16048188 -0.4028381216966315 0.04510693912810857 -0.23313981550066992 0.053196670131054606 0 0 0 0
16081134 -0.4031734720294161 0.045379183172232274 -0.2331195226043568 0.05334463257294809 0 0 0 0
16114080 -0.40275173071700004 0.045370555077640755 -0.23316667938867364 0.05355113750495028 0 0 0 0
16147026 -0.40294025078913814 0.04547942537692147 -0.23296631387312366 0.053508895937676645 0 0 0 0
16179972 -0.4030521437225131 0.04557603683263527 -0.23315818540226238 0.053590504206877276 0 0 0 0
16212918 -0.4030081724806118 0.04546780666501348 -0.23291976110227475 0.053719479871835785 0 0 0 0
16245864 -0.40272331569810066 0.04552726518848341 -0.23307618597494836 0.053874431148306846 0 0 0 0
16278810 -0.40266370500963033 0.045870143961195424 -0.23304038172068292 0.054146902811409305 0 0 0 0
16311756 -0.40275070085322784 0.04588093735377159 -0.23281777616300622 0.054202649880556106 0 0 0 0
16344702 -0.4029330188248758 0.046022183863318314 -0.23290444222021875 0.05428434372198345 0 0 0 0
16377648 -0.4030925526483613 0.04599017817479428 -0.23283424934831642 0.0543348458303395 0 0 0 0
16410594 -0.40250293825781486 0.04615529633915252 -0.23277311387254226 0.054583088250664505 0 0 0 0
16443540 -0.4028226201829868 0.046252055372921416 -0.2326749778297165 0.05472108555994207 0 0 0 0
16476486 -0.4026446984742034 0.04630319680680075 -0.23260598677468336 0.05472429923044712 0 0 0 0
16509432 -0.40287216974074147 0.04616313966299345 -0.23276364395063387 0.0549455105222239 0 0 0 0
16542378 -0.4026792842070691 0.04639338373786724 -0.23267454579076235 0.05495441922560196 0 0 0 0
16575324 -0.4026674689012728 0.046601716264253364 -0.23248388589492872 0.055047951993431335 0 0 0 0
16608270 -0.40269660730992013 0.04682691827242092 -0.23267116710799912 0.055445212606400056 0 0 0 0
16641216 -0.402446546702743 0.046824325202135975 -0.23242481108876695 0.05532084516250799 0 0 0 0
16674162 -0.40272047216314855 0.04698506038823659 -0.23262893900797582 0.05545040289340239 0 0 0 0
16707108 -0.4025469615364529 0.04695770750443129 -0.23249863633111584 0.05554272161949666 0 0 0 0
16740054 -0.4025594228413957 0.04681822292403124 -0.23249943485505808 0.05570327370992474 0 0 0 0
16773000 -0.40266924071224475 0.04705253700878137 -0.23231976622835718 0.05582076633799557 0 0 0 0
16805946 -0.4024977130756653 0.047104463835693916 -0.23232765804802524 0.056001362592057215 0 0 0 0
16838892 -0.4026859817530037 0.04695313744667365 -0.2324141929654654 0.05614557036740623 0 0 0 0
16871838 -0.40278815145978325 0.047643634224469586 -0.23234630780034551 0.056282351947807605 0 0 0 0
16904784 -0.40244507989300105 0.04714463470120954 -0.23213419003072128 0.056166408283642964 0 0 0 0
16937730 -0.4021887027149882 0.04743510885767287 -0.2322272951412532 0.056465283492676925 0 0 0 0
16970676 -0.40286156491787917 0.047139619418896675 -0.23233341517897238 0.056497882581501596 0 0 0 0
17003622 -0.40269997483160996 0.04770112990275066 -0.23229864753041923 0.0568700439713545 0 0 0 0
17036568 -0.40239616261138456 0.04778918176667329 -0.23212317525105292 0.056837497456411784 0 0 0 0
17069514 -0.4025330638709246 0.04787708800649565 -0.23225569625994122 0.05705834464288844 0 0 0 0
17102460 -0.4021211437066421 0.04794591943925324 -0.2319378785224098 0.05703393460946768 0 0 0 0
17135406 -0.40263382364205147 0.04816718219033134 -0.2321583903480698 0.05731299155707505 0 0 0 0
17168352 -0.40227307908575466 0.047934471676547706 -0.23205933913241686 0.057355132873891684 0 0 0 0
17201298 -0.40231021279055895 0.04787486856740446 -0.2320085580028188 0.05733021231504236 0 0 0 0
17234244 -0.4025982640845443 0.048310900909658075 -0.23193010090479216 0.0575258072048146 0 0 0 0
17267190 -0.4023277805685897 0.048308662179148136 -0.2319207603867585 0.05767035136991726 0 0 0 0
17300136 -0.40226863200612034 0.048385670049320005 -0.23173172197729072 0.05781534337323407 0 0 0 0
17333082 -0.40244964765687985 0.048769923278053955 -0.23182535086400738 0.05797346507661696 0 0 0 0
17366028 -0.40224712516296907 0.04848687057131862 -0.23180403068718416 0.05793090696620425 0 0 0 0
17398974 -0.4024398307111294 0.048704415353795306 -0.23183784651158335 0.05810360825858901 0 0 0 0
17431920 -0.4022639175849221 0.04869876857233391 -0.2316699036840422 0.058308489225173496 0 0 0 0
17464866 -0.40239810696740413 0.04877499897979307 -0.2319112453599528 0.05863390174083398 0 0 0 0
17497812 -0.4021030826189948 0.04885959570574505 -0.23148676551851718 0.058618056290039446 0 0 0 0
17530758 -0.4019917032772101 0.04882557814150771 -0.23191096958827911 0.05891447511539876 0 0 0 0
17563704 -0.4026875863000489 0.04910114534639164 -0.23149618813490683 0.05890033545505232 0 0 0 0
17596650 -0.40210871379259605 0.04906391201108552 -0.23138735366952376 0.05865343016544955 0 0 0 0
17629596 -0.40202254571718304 0.04932352446353106 -0.23137518233859503 0.05891596863392282 0 0 0 0
17662542 -0.40226033868428873 0.049634551644223424 -0.23142091568926304 0.05916209507605982 0 0 0 0
17695488 -0.4021503005537143 0.04968796151325316 -0.23145112097767906 0.05924564602955936 0 0 0 0
17728434 -0.4022750139384411 0.049478415185358976 -0.23146930059093665 0.0593874852472734 0 0 0 0
17761380 -0.40208249220482384 0.04952345292739615 -0.23141622044137702 0.059433287951190315 0 0 0 0
17794326 -0.4019914142255858 0.04953506205726147 -0.23145644483577169 0.05953141274812272 0 0 0 0
17827272 -0.4020321995530584 0.04970280999888075 -0.23129424515685112 0.05976880535446027 0 0 0 0
17860218 -0.402053304688243 0.049792354111129984 -0.2312526068553956 0.059808008673171965 0 0 0 0
17893164 -0.4018234747352054 0.049817159458462275 -0.23128705706796923 0.059868108199128856 0 0 0 0
17926110 -0.40209614390001136 0.04994236792463214 -0.23117100998544002 0.0601298739956981 0 0 0 0
17959056 -0.4018907803871 0.050101342965747676 -0.23122059426443153 0.060240271554794535 0 0 0 0
17992002 -0.40222590684316967 0.050274406238690825 -0.23120484603299601 0.060306829882332165 0 0 0 0
18024948 -0.4021214311557641 0.05030110472605258 -0.23119683079381917 0.060380146947521474 0 0 0 0
18057894 -0.4018401289985154 0.050226063763378494 -0.23103509484988338 0.06057548789859957 0 0 0 0
18090840 -0.4019359102890216 0.050849368307525705 -0.23106485896681386 0.06062466916559 0 0 0 0
18123786 -0.4019521468271895 0.05035271256758438 -0.2309742348200472 0.060728070584362116 0 0 0 0
18156732 -0.40199309035960673 0.05070736897739145 -0.23092574844312058 0.060996350057995134 0 0 0 0
18189678 -0.40195651176737063 0.05058173240863396 -0.23101577899321743 0.06088620281287139 0 0 0 0
18222624 -0.4017880068578866 0.05053263067188617 -0.23090904228625747 0.06114156163325129 0 0 0 0
18255570 -0.4020548935836536 0.05070616663462313 -0.2307314132559219 0.06127465806402241 0 0 0 0
18288516 -0.4020619843021163 0.050987389699171534 -0.23084744505689797 0.061452803791043814 0 0 0 0
18321462 -0.4021950239736785 0.05089928433591158 -0.2307827294976281 0.06146926049380055 0 0 0 0
18354408 -0.4017319741415412 0.05117117598900295 -0.23077781222418445 0.06166682607037333 0 0 0 0
18387354 -0.4020060341533604 0.051143743375033184 -0.23069555142562792 0.061694158268570935 0 0 0 0
18420300 -0.4016203454869591 0.05103165484418806 -0.23063175464223268 0.06156805934662604 0 0 0 0
18453246 -0.4016892961509342 0.051472318169329054 -0.23068860550338707 0.0620926977314329 0 0 0 0
18486192 -0.4017965397103992 0.051392691212120346 -0.23061068483522798 0.06210422471892228 0 0 0 0
18519138 -0.4019047314215913 0.0515896014999288 -0.23061272846366718 0.06221257730528226 0 0 0 0
18552084 -0.4017753614314799 0.05146493819490294 -0.2305560293811958 0.06219930273437774 0 0 0 0
18585030 -0.40164643311474413 0.05176697701058635 -0.2305034662477028 0.06247090581565886 0 0 0 0
18617976 -0.40159086513313375 0.051642397149118925 -0.23039294760220988 0.06257289235044332 0 0 0 0
18650922 -0.4016551418878718 0.052033586809821904 -0.23037011505238975 0.06275832610966664 0 0 0 0
18683868 -0.4015016140954211 0.051782082067213006 -0.23040370696519957 0.0627254895375798 0 0 0 0
18716814 -0.4019488792504712 0.05192269232822157 -0.2304295281079957 0.06282656184579391 0 0 0 0
18749760 -0.40176635792679355 0.05207812177799833 -0.23029265903538196 0.06304501698622686 0 0 0 0
18782706 -0.40149632456488743 0.05203774981754706 -0.23024987189885754 0.06315453876607383 0 0 0 0
18815652 -0.4016060188015942 0.052399787691393716 -0.23029721117291105 0.06313710822978992 0 0 0 0
18848598 -0.40164022260427595 0.05234572100592223 -0.23025827457198425 0.06332746591681297 0 0 0 0
18881544 -0.40160153512872804 0.05244380825795179 -0.23011429130841654 0.063565570576182 0 0 0 0
18914490 -0.4014323374718285 0.052408191316112976 -0.23021756283710815 0.06361067124731695 0 0 0 0
18947436 -0.40159313328040097 0.052564031022822956 -0.23015055959132363 0.06378722556318102 0 0 0 0
18980382 -0.4015116698546712 0.0526436280483815 -0.230015054869578 0.06376727709865362 0 0 0 0
19013328 -0.40143947061436724 0.05269926377365544 -0.22997264861806035 0.06404333596345811 0 0 0 0
19046274 -0.4016280716048883 0.052905466544445855 -0.22992224647096482 0.06405518942173999 0 0 0 0
19079220 -0.4013546676728654 0.05298693794364923 -0.23005703568254265 0.06427467373319498 0 0 0 0
19112166 -0.40154828510743656 0.052829788592446275 -0.22998828432466423 0.0643122231148875 0 0 0 0
19145112 -0.4013933436197314 0.0528393344711803 -0.2298800717420761 0.06438893607049766 0 0 0 0
19178058 -0.4013833804661197 0.053251393274591295 -0.22978006309237964 0.06457376459602011 0 0 0 0
19211004 -0.4013896839304141 0.053315038212905404 -0.2297205064905157 0.06477275795189856 0 0 0 0
19243950 -0.40155412156905285 0.05338643441399871 -0.2298395896170484 0.06480470026657112 0 0 0 0
19276896 -0.40125613161737284 0.053414851330442395 -0.2297064421795203 0.06491261275712619 0 0 0 0
19309842 -0.4015837786719025 0.053437140885728804 -0.22978948382783268 0.06510706542306673 0 0 0 0
19342788 -0.4013168640905398 0.05370549641001393 -0.2297067626268089 0.06513495739762748 0 0 0 0
19375734 -0.40126875836826026 0.053492638157644955 -0.22950143377767518 0.06520900727242923 0 0 0 0
19408680 -0.40131793758136564 0.05398004947634842 -0.22963228298100946 0.06547940276397911 0 0 0 0
19441626 -0.4011698711078709 0.05373227217686213 -0.2295543045360467 0.06538638849703349 0 0 0 0
19474572 -0.4013561384864051 0.05397276186456252 -0.2295025758811657 0.06574762942148461 0 0 0 0
19507518 -0.40122368336816117 0.05411756062983602 -0.22947334111759934 0.0657502218570457 0 0 0 0
19540464 -0.4012985288782593 0.054062118415895276 -0.2294344252222892 0.06595459063871915 0 0 0 0
19573410 -0.40115549457206245 0.05431769785413338 -0.22934568731231297 0.06603608926789041 0 0 0 0
19606356 -0.4013135458807475 0.05415735012006079 -0.2293191387849194 0.06603987079951316 0 0 0 0
19639302 -0.4010320098667315 0.05420639352602049 -0.22931319106363743 0.06621079734091423 0 0 0 0
19672248 -0.4012034777094112 0.0542892625407399 -0.22928446147690978 0.06624797728963673 0 0 0 0
19705194 -0.4009731040625625 0.05454438066774599 -0.2291775918335132 0.06639240975623191 0 0 0 0
19738140 -0.4012008044316506 0.05455220773052633 -0.22923195948906447 0.0664400176317216 0 0 0 0
19771086 -0.40081665797542915 0.05453242956564658 -0.2291076407827911 0.06675513869413441 0 0 0 0
19804032 -0.4011376836294074 0.054839050247911525 -0.22915875920287782 0.06685867240462307 0 0 0 0
19836978 -0.40108553025198196 0.05487919360690908 -0.22903394844955793 0.06680070005120956 0 0 0 0
19869924 -0.40109951912071096 0.05508785075068865 -0.22900134502135944 0.06700418147284087 0 0 0 0
19902870 -0.40087582236948505 0.05509129549472331 -0.22903640128207509 0.06724714394061845 0 0 0 0
19935816 -0.40083875049452916 0.05527495749629685 -0.22889760300069567 0.06735239872739811 0 0 0 0
19968762 -0.40098365842947115 0.05520976653185684 -0.2289804635756523 0.06740081948248769 0 0 0 0
20001708 -0.4012041880752186 0.05527003494805228 -0.22893596728712043 0.06758537914987842 0 0 0 0
20034654 -0.40098462915176086 0.0552259917625893 -0.22884229537414125 0.06766726453309212 0 0 0 0
20067600 -0.4009327613577245 0.05547086453211225 -0.2288512841593956 0.06758075604239822 0 0 0 0
20100546 -0.400876180062915 0.055590270329651394 -0.22869171166691768 0.06791415144975821 0 0 0 0
20133492 -0.4010020272375846 0.05577595174005098 -0.2288094044098182 0.06800419271739233 0 0 0 0
20166438 -0.40098050902236726 0.05573441540084939 -0.22878930682742815 0.06831006589747626 0 0 0 0
20199384 -0.40073469470384104 0.05584869699205289 -0.22858619696624452 0.06827588107092103 0 0 0 0
20232330 -0.4009013495635077 0.0562460737471722 -0.22870822452959302 0.06826393133513783 0 0 0 0
20265276 -0.4011838335163203 0.055870940691741734 -0.2285227805949022 0.0685290117377231 0 0 0 0
20298222 -0.40097445311530133 0.055892284681878894 -0.22854906809190825 0.06857900021932943 0 0 0 0
20331168 -0.4006644240255946 0.056033823820410215 -0.2284214040611531 0.06862476044137664 0 0 0 0
20364114 -0.4006464603294194 0.05605318677099826 -0.228306216101684 0.06885763184362008 0 0 0 0
20397060 -0.4008520957381128 0.056539420715635696 -0.2284804959644009 0.06882164055180091 0 0 0 0
20430006 -0.40112069889625457 0.05647563728431407 -0.22843302593150408 0.06914617748904069 0 0 0 0
20462952 -0.4004686793088552 0.05633597257202084 -0.2281613483598834 0.06916568730842756 0 0 0 0
20495898 -0.4006848489472538 0.05660480196527748 -0.2283677003737163 0.06929852690344904 0 0 0 0
20528844 -0.4004138313488686 0.05648601383296065 -0.22823448430795448 0.06948231560244332 0 0 0 0
20561790 -0.4007027272557523 0.0570435085239056 -0.22833046626985043 0.06948491338310615 0 0 0 0
20594736 -0.4009586419528604 0.056752383794844805 -0.22814089363540418 0.06970133977430545 0 0 0 0
20627682 -0.40052144802420114 0.05684037311125234 -0.22811068219029904 0.06969452556806079 0 0 0 0
20660628 -0.4005389885089995 0.057023598694588756 -0.22809856735783204 0.06990929479495059 0 0 0 0
20693574 -0.4004486815469593 0.05705637463684739 -0.22811017719744528 0.0700600756649163 0 0 0 0
20726520 -0.4004664921850627 0.05704297677894159 -0.22800140220759024 0.07022996286144183 0 0 0 0
20759466 -0.40034926062436443 0.05713564412055196 -0.22784905967707605 0.0701773217229559 0 0 0 0
20792412 -0.40062143013214746 0.05767380920323736 -0.2280566025351135 0.07032169427995898 0 0 0 0
20825358 -0.4006151801104723 0.05728134502451606 -0.22782154380353664 0.07041252024987567 0 0 0 0
20858304 -0.40057628696582626 0.05748037584855753 -0.2278035213145627 0.07058610938310397 0 0 0 0
20891250 -0.4002942275406855 0.057574633101418665 -0.22769393715868216 0.07062600963993335 0 0 0 0
20924196 -0.4002881088213534 0.05756476594015455 -0.22768815703338194 0.0709232824754573 0 0 0 0
20957142 -0.4006050246500146 0.05790792181930745 -0.22781678483480572 0.0708322635170193 0 0 0 0
20990088 -0.40072009358090127 0.05791756868805955 -0.22760991362332342 0.07103627345740049 0 0 0 0
21023034 -0.4004639850770971 0.057936310230577076 -0.2275650697721871 0.07122874312807602 0 0 0 0
21055980 -0.40029588484374584 0.05806169773915177 -0.22763553646844342 0.071250746844327 0 0 0 0
21088926 -0.4002847982657727 0.05803067361730108 -0.2276247410427532 0.07155839462297145 0 0 0 0
21121872 -0.4003326284849725 0.058151239476290646 -0.22752498943078373 0.07142233023021223 0 0 0 0
21154818 -0.40039892299332663 0.05849094669994214 -0.22755342173608734 0.07155108913672975 0 0 0 0
21187764 -0.40043309889884393 0.05862595715027657 -0.2274997714293636 0.07172886933742433 0 0 0 0
21220710 -0.4002885676122585 0.058408798146896604 -0.22741371910507455 0.07157704552265456 0 0 0 0
21253656 -0.4007552515614507 0.0586516732769857 -0.2273795255227728 0.07199230601593316 0 0 0 0
21286602 -0.40023015570950704 0.058455790826114434 -0.2272782991270334 0.07211049778839759 0 0 0 0
21319548 -0.4003007558114222 0.05880893161255142 -0.22736985135746027 0.07217981142042289 0 0 0 0
21352494 -0.4001370077146007 0.05874929608331525 -0.22710589772144996 0.07215813074717889 0 0 0 0
21385440 -0.4000694268472133 0.05894238898955493 -0.2270678434814355 0.07227948398803723 0 0 0 0
21418386 -0.40044984261998073 0.05915641845173495 -0.2272243992235145 0.07249579310187941 0 0 0 0
21451332 -0.40010326604756324 0.05900968714842174 -0.2270987358333066 0.07244591776861123 0 0 0 0
21484278 -0.4005485051231808 0.05925065658474485 -0.2270243790421786 0.07277871195280844 0 0 0 0
21517224 -0.40046761865767116 0.05923644073707207 -0.22705231578647153 0.07302086023104683 0 0 0 0
21550170 -0.40023645382968454 0.05929058492355366 -0.22703449550306307 0.0730997668529588 0 0 0 0
21583116 -0.40002780242980013 0.05948691161133608 -0.22686424907022174 0.07302094055177245 0 0 0 0
21616062 -0.4002097385261801 0.05972515909882297 -0.22707933617330886 0.07324279456583349 0 0 0 0
21649008 -0.4002493054609597 0.05951746225321763 -0.2268228785991511 0.07317616862504266 0 0 0 0
21681954 -0.40017402272172004 0.05942609045766159 -0.22670920965723804 0.07328687403985933 0 0 0 0
21714900 -0.4001813505196214 0.059612486186193026 -0.22677961242226125 0.07361163259464512 0 0 0 0
21747846 -0.39987136942561585 0.059739645361604886 -0.22668735757766176 0.073791018179544 0 0 0 0
21780792 -0.4002188729293011 0.06024717767599644 -0.2268313315574785 0.07369310886658488 0 0 0 0
21813738 -0.40008980095456853 0.05983365784495095 -0.22651518011828262 0.07376238482095826 0 0 0 0
21846684 -0.4002918645151084 0.06021786601165199 -0.22649509469063062 0.07412502847241195 0 0 0 0
21879630 -0.3998084905136766 0.06019198592933175 -0.22643072687514876 0.07408199573053936 0 0 0 0
21912576 -0.39983573110014664 0.0601730194445811 -0.22648357409892483 0.07423170161292345 0 0 0 0
21945522 -0.3997920534096843 0.060310138515973166 -0.2263800630928911 0.07429692680193443 0 0 0 0
21978468 -0.3997825146490046 0.06029118806476522 -0.226424241053828 0.07439183696609125 0 0 0 0
22011414 -0.39988896829007003 0.060653330341834476 -0.22653772069981395 0.07457468513857786 0 0 0 0
22044360 -0.3997302874571398 0.06040642665687164 -0.2262524019261592 0.07453839191047266 0 0 0 0
22077306 -0.40021870046091085 0.060696508081209966 -0.22625779887164335 0.07478567148638907 0 0 0 0
22110252 -0.3998149259525638 0.06074734695250525 -0.2262860182525105 0.07496293345098423 0 0 0 0
22143198 -0.39984281219598267 0.06105048537190448 -0.22627056465514098 0.0752298541393356 0 0 0 0
22176144 -0.3998129781729437 0.06122810615679109 -0.22615766761242148 0.07512406177066933 0 0 0 0
22209090 -0.400074971622617 0.0608357586905513 -0.2261354368129422 0.07518239089182631 0 0 0 0
22242036 -0.3998391832580807 0.061117801655491896 -0.22603050002715344 0.07554076741085981 0 0 0 0
22274982 -0.3995881449400409 0.06106499100019156 -0.2259622565470772 0.07550297790050294 0 0 0 0
22307928 -0.39981909156842455 0.061354365505422705 -0.22602433649545492 0.07577460417366011 0 0 0 0
22340874 -0.3994619858865001 0.06132857222000134 -0.22586617208066082 0.07564606314198866 0 0 0 0
22373820 -0.39961120938873956 0.06155233381571996 -0.2258378740277179 0.07571323227456381 0 0 0 0
22406766 -0.39956615900211745 0.06149066115778615 -0.22582565497398577 0.07582689663374752 0 0 0 0
22439712 -0.39974242262983556 0.06127281381011772 -0.22574746260442788 0.07597833953056532 0 0 0 0
22472658 -0.399792790673443 0.06167641314030248 -0.22577912206633818 0.07628624059571572 0 0 0 0
22505604 -0.39950337109863554 0.061858253316378516 -0.22569888861662452 0.07633918596909632 0 0 0 0
22538550 -0.39936088106058026 0.061818085400119335 -0.2256562227192878 0.0764721702221133 0 0 0 0
22571496 -0.3994688146271713 0.061906423765414206 -0.22560106414038947 0.07646817326049793 0 0 0 0
22604442 -0.39949625941566175 0.06238483829547666 -0.22563625174898513 0.07663608599928931 0 0 0 0
22637388 -0.39945207976516867 0.062184072703141566 -0.22553767737156377 0.07669396986264726 0 0 0 0
22670334 -0.3998761508098522 0.06207121403703005 -0.22545911187403067 0.07682864276759481 0 0 0 0
22703280 -0.3996105357446548 0.06235204595297822 -0.2254889760699203 0.07711034099963415 0 0 0 0
22736226 -0.39955240105750656 0.06234251364698999 -0.22545387977982856 0.0770484028744793 0 0 0 0
22769172 -0.3992027201144801 0.06243222217401167 -0.22529606116750006 0.07716818319988675 0 0 0 0
22802118 -0.39963061307741937 0.06269121587370727 -0.2254899714648919 0.07734128913980268 0 0 0 0
22835064 -0.39977525279457937 0.06278067298640301 -0.22515853412440748 0.0775328508079915 0 0 0 0
22868010 -0.3994598443422469 0.06275971799293838 -0.22515038448130797 0.07757918975645241 0 0 0 0
22900956 -0.3992059465706059 0.06279683409313125 -0.22520855909686155 0.07763627505398725 0 0 0 0
22933902 -0.3992269604244895 0.06288971694982515 -0.22512692229337614 0.0777753180828809 0 0 0 0
22966848 -0.3994983336099765 0.06321189240855751 -0.22534553052709422 0.07790476319438285 0 0 0 0
22999794 -0.39920600447195476 0.06311877040380345 -0.22510129075603139 0.07790357663526401 0 0 0 0
23032740 -0.3996475505319731 0.06322820725628626 -0.22494307349180673 0.0782184551151077 0 0 0 0
23065686 -0.3991157283028927 0.06328960297632544 -0.2249862615709216 0.07827836640616864 0 0 0 0
23098632 -0.3991765184402903 0.0633096809610092 -0.22491337936512196 0.07834402596909885 0 0 0 0
23131578 -0.39932785205374866 0.06354968443764795 -0.22507567427066374 0.07848699406744246 0 0 0 0
23164524 -0.399224131660267 0.06361334414661489 -0.22490571974050014 0.07870564184495063 0 0 0 0
23197470 -0.39906184616292223 0.06353489542827964 -0.22473346303066571 0.0785291646975735 0 0 0 0
23230416 -0.39943444486614393 0.06397893379597533 -0.22485500330676164 0.07879298300217175 0 0 0 0
23263362 -0.39912797485752 0.06377987491344157 -0.22468929262006562 0.078841639363795 0 0 0 0
23296308 -0.3992563586051828 0.0637340914021293 -0.2246411280142406 0.07897119695474708 0 0 0 0
23329254 -0.39924739153217287 0.06398059906804052 -0.22458810067657453 0.0792715516834629 0 0 0 0
23362200 -0.39883819524015823 0.0639140314309647 -0.2245401025621048 0.07927946154777589 0 0 0 0
23395146 -0.3989627450563786 0.06407905707131079 -0.22453733865142797 0.07933258298698047 0 0 0 0
23428092 -0.3990882063937081 0.06440176439491571 -0.22461404311779598 0.07949910237704073 0 0 0 0
23461038 -0.39928229489809414 0.064264926196667 -0.2243238171320315 0.07964452465340392 0 0 0 0
23493984 -0.3988507149012647 0.06443855288498457 -0.22435105573844538 0.07969706935969635 0 0 0 0
23526930 -0.39904992235852094 0.06472782330959237 -0.22448192451821497 0.08000727968396208 0 0 0 0
23559876 -0.39907637499099413 0.06458387851279407 -0.22450108979953584 0.07985426080284179 0 0 0 0
23592822 -0.39949422031146314 0.06474598535774376 -0.2242617496695506 0.08013759853834523 0 0 0 0
23625768 -0.39907115279845995 0.06473865042255236 -0.22426881095551532 0.08033913463182508 0 0 0 0
23658714 -0.398834974921264 0.06467804057869264 -0.22418783585524296 0.08024127482361203 0 0 0 0
23691660 -0.3988093374005541 0.06485584278526021 -0.22410580177451284 0.08040745989860308 0 0 0 0
23724606 -0.39877571732551265 0.06489104838683453 -0.22408429835754595 0.08043408817914134 0 0 0 0
23757552 -0.3990519274278427 0.06518480025601696 -0.22410162294859848 0.08046191986080088 0 0 0 0
23790498 -0.3989699179579149 0.06517529213159394 -0.22390805906096445 0.08064544554954617 0 0 0 0
23823444 -0.3990774920059764 0.0653109190850346 -0.2239849169169585 0.08087390159068629 0 0 0 0
23856390 -0.39879137111380375 0.06556430165338652 -0.22396662808525325 0.08099564647060886 0 0 0 0
23889336 -0.3986015336688013 0.0652736304497576 -0.22385577279046207 0.08097808099810724 0 0 0 0
23922282 -0.39890630516294134 0.06559480669793188 -0.22396746425562564 0.08113621018492082 0 0 0 0
23955228 -0.3988229069364114 0.06553251850156985 -0.22372020530296988 0.08119786519719646 0 0 0 0
23988174 -0.39892287511563795 0.06585608363299476 -0.2237468861082161 0.08159141382131357 0 0 0 0
24021120 -0.39871461449400397 0.06583919201764224 -0.22366560957074083 0.08151932592033369 0 0 0 0
24054066 -0.39888476837975945 0.06580921879295969 -0.22376336501471258 0.0816071018666523 0 0 0 0
24087012 -0.398538714332937 0.06602379151198078 -0.2235477742731839 0.08159803599133054 0 0 0 0
24119958 -0.39887500758756256 0.06596658308229127 -0.22356196553829472 0.08173936012475515 0 0 0 0
24152904 -0.3987924461459109 0.06589459111485957 -0.22339247392905626 0.08187236284055299 0 0 0 0
24185850 -0.3987509807920265 0.06620565258635065 -0.22343646018302454 0.0821605546607053 0 0 0 0
24218796 -0.39857100022517944 0.06635036343210855 -0.22342297318512797 0.0822599784338817 0 0 0 0
24251742 -0.39865953868287407 0.06626371437642053 -0.2233657851712138 0.08216950830693776 0 0 0 0
24284688 -0.39875007186281486 0.06655537376994357 -0.22354042071232308 0.08241121171436289 0 0 0 0
24317634 -0.39878655675938063 0.06624323094308628 -0.2231287727165005 0.08237758645918744 0 0 0 0
24350580 -0.3987082847144547 0.06685220692403288 -0.22319037637809375 0.08270480039890797 0 0 0 0
24383526 -0.3986002844824949 0.0668320926962581 -0.22319598446305686 0.0828308702573231 0 0 0 0
24416472 -0.3984654631398613 0.0667795276121666 -0.22310809604875834 0.08271976754314167 0 0 0 0
24449418 -0.39873241582292873 0.0668606823496343 -0.22312647253640897 0.08298249887329771 0 0 0 0
24482364 -0.39862170194240787 0.06691308622458411 -0.22316091901384755 0.08297635934979405 0 0 0 0
24515310 -0.3987661858051608 0.06711434156876568 -0.22305037915290268 0.08334599338347122 0 0 0 0
24548256 -0.39860605786615616 0.0672856208944708 -0.2229359999721982 0.08334769378537009 0 0 0 0
24581202 -0.3982532818024879 0.067147315529171 -0.22287599618696358 0.08340851726240152 0 0 0 0
24614148 -0.3982193823685564 0.06731774919129756 -0.22283398494789355 0.08348624798637105 0 0 0 0
24647094 -0.39827675510745886 0.06741754895074524 -0.2228385687759136 0.0835330385325765 0 0 0 0
24680040 -0.39844438198564636 0.06761503182786842 -0.22290336649369108 0.08367334360873287 0 0 0 0
24712986 -0.39831193492162825 0.0677106083759618 -0.22278772154934404 0.08383045410700554 0 0 0 0
24745932 -0.3982647993370737 0.06746608891177609 -0.22262702877639173 0.0839190014843026 0 0 0 0
24778878 -0.398677363630023 0.06774537365376007 -0.2226041329137295 0.08410626213591091 0 0 0 0
24811824 -0.39835417899979875 0.06773873305410257 -0.22260555519637681 0.08424848954757568 0 0 0 0
24844770 -0.39843016177481577 0.06805911131565845 -0.22261513283204326 0.08444025838657682 0 0 0 0
24877716 -0.3981930061069124 0.06807289336748151 -0.2224753090708118 0.08425829174090128 0 0 0 0
24910662 -0.39834947196519765 0.06809729557373538 -0.2224231501702438 0.0844924168462274 0 0 0 0
24943608 -0.3983691325455425 0.0681301127181632 -0.2222898239587011 0.08457192443539616 0 0 0 0
24976554 -0.398503566394514 0.06840174608418867 -0.22236176089447635 0.08486675562230322 0 0 0 0
25009500 -0.3982625348470028 0.06830494173536884 -0.22224950100158383 0.08490730863674355 0 0 0 0
25042446 -0.39823183205864476 0.06853470413204302 -0.22222112356394813 0.08497423729063285 0 0 0 0
25075392 -0.39823032747759124 0.06853231913600422 -0.22222113634546867 0.08515774563190519 0 0 0 0
25108338 -0.3981291193244925 0.06850297904721618 -0.2222354240967503 0.08505289490040488 0 0 0 0
25141284 -0.3981587789779683 0.06870180857772178 -0.2219853571074901 0.08519164517749715 0 0 0 0
25174230 -0.39822785419483836 0.06890851669024542 -0.22197516436723652 0.0855190021161497 0 0 0 0
25207176 -0.3980343283848368 0.06886402998099636 -0.22199356048705243 0.08542661233249266 0 0 0 0
25240122 -0.3980441337876824 0.06907640800433193 -0.22200224152028636 0.0857418912812753 0 0 0 0
25273068 -0.39792203589437614 0.06914056482059378 -0.2219422256738515 0.08571189355050393 0 0 0 0
25306014 -0.3981802828591606 0.0689957816386905 -0.2219120986179126 0.08584944531070053 0 0 0 0
25338960 -0.3981633701895541 0.06909429330458584 -0.22188415022100644 0.08603105565823783 0 0 0 0
25371906 -0.39818075706191186 0.06943617811799613 -0.22175216829793915 0.08618811619711712 0 0 0 0
25404852 -0.3978961477734973 0.0694107298992355 -0.22160378828879856 0.08624084650819994 0 0 0 0
25437798 -0.39790195557222585 0.06951601050266701 -0.2217450660390044 0.08632807314828302 0 0 0 0
25470744 -0.39790257151198744 0.069428217192307 -0.22163636100580156 0.08629830924881339 0 0 0 0
25503690 -0.3981461621525274 0.06957553347839997 -0.22145817499409134 0.08651532122585036 0 0 0 0
25536636 -0.39817407840643476 0.06976903115858257 -0.22155528071948966 0.08669387316090697 0 0 0 0
25569582 -0.39817046193152494 0.06983296203618791 -0.22145267841635166 0.0867963554702378 0 0 0 0
25602528 -0.3980604691942892 0.07002866203023851 -0.22150543025404787 0.08700466149698916 0 0 0 0
25635474 -0.3979505967572412 0.07004378004635803 -0.22140233524208824 0.08704396218910417 0 0 0 0
25668420 -0.39774755517587174 0.07006806927760993 -0.22134058550298208 0.08698502887010136 0 0 0 0
25701366 -0.39789744042992253 0.06996166401522494 -0.22133821219522443 0.08715677822430798 0 0 0 0
25734312 -0.39781919701453583 0.0700329259298799 -0.2211376694143101 0.08714899983853971 0 0 0 0
25767258 -0.39778622186819723 0.07036098875023067 -0.22119227618824686 0.08744459087847337 0 0 0 0
25800204 -0.3977993041869317 0.07047775493074601 -0.22121911992444718 0.087629073186472 0 0 0 0
25833150 -0.3977427698089018 0.07048118102721031 -0.22106145432368562 0.08755444643310616 0 0 0 0
25866096 -0.39766346153331583 0.07044538010941069 -0.22105460899974202 0.0876413580275158 0 0 0 0
25899042 -0.397828854579061 0.07068269949844166 -0.22096218429683595 0.08779790466259882 0 0 0 0
25931988 -0.397892322055397 0.07077145563087686 -0.22090205194963308 0.08799438663168778 0 0 0 0
25964934 -0.3975907342148071 0.07092596078238982 -0.22096860269215868 0.08798117083632824 0 0 0 0
25997880 -0.3979625883319681 0.07091047757189399 -0.22083969267790923 0.0882233216207474 0 0 0 0
26030826 -0.3976918417534413 0.07085269716472802 -0.2208544685717332 0.08822085618101769 0 0 0 0
26063772 -0.3975915036733115 0.07104823681489592 -0.22069173398671796 0.08848549681254868 0 0 0 0
26096718 -0.3977082615804746 0.0711814014979819 -0.220693433221278 0.08851744443835338 0 0 0 0
26129664 -0.39750945200770876 0.07123590151962604 -0.22074675405157754 0.08860519418710747 0 0 0 0
26162610 -0.39734945013226575 0.07156489226891602 -0.22062315648198957 0.08867356615562397 0 0 0 0
26195556 -0.3973733330831016 0.07142444401310502 -0.2205275686895614 0.088755155690972 0 0 0 0
26228502 -0.39764315960612145 0.0715485740554976 -0.2203890673872244 0.08890221100928078 0 0 0 0
26261448 -0.397556033074461 0.07154471188569476 -0.22044096483619616 0.08900235593731927 0 0 0 0
26294394 -0.39755856829645303 0.07185376514249876 -0.22035483723858984 0.08922608768141264 0 0 0 0
26327340 -0.3975690339429442 0.07184500426270443 -0.22031424542674083 0.08939922863913333 0 0 0 0
26360286 -0.3973517424971433 0.07181484478194404 -0.22022761018793094 0.08947591749151801 0 0 0 0
26393232 -0.3973352327043269 0.07204559001737591 -0.22031255962879 0.08951129325005075 0 0 0 0
26426178 -0.39738595500175555 0.07214186732434469 -0.22038051784113705 0.08961361359370279 0 0 0 0
26459124 -0.39719609989261584 0.07222714291953226 -0.22008571538160898 0.0896918886779738 0 0 0 0
26492070 -0.3972767926701542 0.0721110090028609 -0.22018568018912738 0.08973406952717496 0 0 0 0
26525016 -0.3974709643449876 0.07225880077667474 -0.22004800761810928 0.08999298632239922 0 0 0 0
26557962 -0.39714556335423606 0.07252904289297882 -0.2198583025245195 0.09014002959847112 0 0 0 0
26590908 -0.3974784602382462 0.0725617490892873 -0.21990632277998734 0.09030226210745157 0 0 0 0
26623854 -0.3971175154521516 0.0725074898421003 -0.21991325794647995 0.09032270854115075 0 0 0 0
26656800 -0.3972434642075154 0.0728170797830975 -0.2198627821962071 0.09030466743087188 0 0 0 0
26689746 -0.3972367617961204 0.07256135901249426 -0.21991139457797332 0.090467791285855 0 0 0 0
26722692 -0.3972977489349163 0.07290143234514178 -0.2196724651820262 0.09061110479654312 0 0 0 0
26755638 -0.3971764918350189 0.07298817901787151 -0.2196313746626923 0.09070705232884561 0 0 0 0
26788584 -0.3974135581554381 0.07317743445460971 -0.21973219894469706 0.09105469033705768 0 0 0 0
26821530 -0.39686488917256363 0.07298366922079697 -0.2195963905961009 0.0907896293496889 0 0 0 0
26854476 -0.39705080583443925 0.07303073277605918 -0.2195178251848194 0.09104672780635899 0 0 0 0
26887422 -0.39710206425052774 0.07308639949483052 -0.21934671170210573 0.09113171061532824 0 0 0 0
26920368 -0.3970160106533892 0.07323164138718286 -0.2193461666991843 0.0913225548080246 0 0 0 0
26953314 -0.3970868324686279 0.07377834702654167 -0.21923389450111117 0.09143371636576496 0 0 0 0
26986260 -0.3970127507934792 0.07330783028998278 -0.21942074579539883 0.09141397717624598 0 0 0 0
27019206 -0.39711467678037476 0.07377962716370112 -0.2193151719785222 0.09148292617851361 0 0 0 0
27052152 -0.39708221165197505 0.07387132175813076 -0.21924034735683298 0.09162733333925685 0 0 0 0
27085098 -0.3967666660840742 0.07358209221581521 -0.21912423687591986 0.09167887691791071 0 0 0 0
27118044 -0.39714311978091543 0.07373791215907555 -0.21918645317571034 0.09194542179708488 0 0 0 0
27150990 -0.3970053741215222 0.07373354699927165 -0.21899600629280747 0.09192242566969726 0 0 0 0
27183936 -0.39705200799693674 0.07424515639619692 -0.21902729627764053 0.09225383914067155 0 0 0 0
27216882 -0.39675072571709974 0.07420974060723409 -0.21890005360722872 0.09231654113141131 0 0 0 0
27249828 -0.3968831592514481 0.07410673718777495 -0.21892186437316594 0.09226308810803506 0 0 0 0
27282774 -0.39716714997722774 0.07451592944294455 -0.21902831008882978 0.09239256688635564 0 0 0 0
27315720 -0.39661182512056514 0.0742924121240591 -0.21877202821567382 0.09252539451154328 0 0 0 0
27348666 -0.3964662575492416 0.07437365201357818 -0.21880803841950372 0.09254625759134032 0 0 0 0
27381612 -0.39714988948202423 0.0744568221226945 -0.21870145073521777 0.092818328273985 0 0 0 0
27414558 -0.3966978321964805 0.07490505192311715 -0.21857264345879132 0.09294381107498957 0 0 0 0
27447504 -0.39678237941698397 0.07464203853907543 -0.2186727728981269 0.09297964623017196 0 0 0 0
27480450 -0.3969213166230626 0.0750933764006996 -0.21857502281866276 0.09301348454469278 0 0 0 0
27513396 -0.3966481612293111 0.07506226808176732 -0.2185484670580886 0.09316393916217346 0 0 0 0
27546342 -0.3968297465228804 0.07497917286942499 -0.21848421271397053 0.09330402197669294 0 0 0 0
27579288 -0.39683483605832537 0.07517633506071346 -0.21839912872813655 0.09356784304497673 0 0 0 0
27612234 -0.39654053878855705 0.07514825276215027 -0.2183193353107725 0.09355710443998504 0 0 0 0
27645180 -0.39663309461941226 0.07525105084269083 -0.2183463945139702 0.09356963873033698 0 0 0 0
27678126 -0.3971469649414461 0.07553040575987591 -0.21827300535393465 0.09380932416753075 0 0 0 0
27711072 -0.3966577363882141 0.0750999125822407 -0.21810484452250412 0.09374082956006419 0 0 0 0
27744018 -0.39639992776046623 0.07567434217310218 -0.2181310134958565 0.09412330552995453 0 0 0 0
27776964 -0.396782289651848 0.07575904532667929 -0.21811144061272428 0.09402274738064148 0 0 0 0
27809910 -0.39680716553420364 0.07560344079320427 -0.21800426605141818 0.0941168974549426 0 0 0 0
27842856 -0.39648105623692426 0.07550164110509275 -0.21790490906940907 0.09434846292517154 0 0 0 0
27875802 -0.3964233291177498 0.0757235873104406 -0.21782810250981097 0.0945163024081026 0 0 0 0
27908748 -0.39644052207054037 0.07590505000890196 -0.21790302674061598 0.09443559556671623 0 0 0 0
27941694 -0.3965731861640565 0.07625116908009547 -0.21786915393672054 0.09459855980036144 0 0 0 0
27974640 -0.3967485239618438 0.07610425088229007 -0.21773222754649382 0.09469789937892531 0 0 0 0
28007586 -0.3964207906736742 0.0758744617557835 -0.21763625110770568 0.09476236483925068 0 0 0 0
28040532 -0.39636797302326854 0.07654435935757788 -0.21764174260363378 0.09503222801932246 0 0 0 0
28073478 -0.3963636058971806 0.07628587079171663 -0.2176329260768245 0.09503136660248286 0 0 0 0
28106424 -0.39631990694407704 0.07651823030195816 -0.21766036706443878 0.09499334692260489 0 0 0 0
28139370 -0.39629286854828727 0.0764198262669159 -0.21751974516536832 0.09532672024782954 0 0 0 0
28172316 -0.39656188346066756 0.07639912056272052 -0.21743928990562597 0.09522704653031444 0 0 0 0
28205262 -0.39647443391250825 0.07690268455826757 -0.21748736319534318 0.09561886249750687 0 0 0 0
28238208 -0.3963525300624369 0.07694839681671278 -0.21735814589821081 0.09572185853939748 0 0 0 0
28271154 -0.3962743414480964 0.07683286278868266 -0.2174442274012725 0.09565504782537028 0 0 0 0
28304100 -0.3964851618437564 0.07726913707765264 -0.21732230549589351 0.09576868484771066 0 0 0 0
28337046 -0.396291061890997 0.07690491663773343 -0.21717022182076945 0.09592595411796102 0 0 0 0
28369992 -0.3964867568728994 0.07694747773719118 -0.21713731907276734 0.09613162893628321 0 0 0 0
28402938 -0.3962000076946691 0.07713258962659801 -0.2170998702066655 0.09608454186514678 0 0 0 0
28435884 -0.39630864305831676 0.07712042927847149 -0.21690763880138403 0.09617750672034275 0 0 0 0
28468830 -0.3963314909567075 0.07743681371403753 -0.217039728244967 0.09637150110445662 0 0 0 0
28501776 -0.3959562005709506 0.07744654777114822 -0.21687621967156856 0.096378208775485 0 0 0 0
28534722 -0.3962769632034667 0.07768580974343148 -0.21694856222151068 0.09643882134192175 0 0 0 0
28567668 -0.39646194739962914 0.07769707309646137 -0.21691197032049073 0.09671922621633751 0 0 0 0
28600614 -0.396002914458075 0.07802443280380096 -0.21672200880661763 0.09705002874027248 0 0 0 0
28633560 -0.39587798538261415 0.07759952639478682 -0.21665666616035065 0.09677217528921031 0 0 0 0
28666506 -0.39577368711392247 0.07777796027634058 -0.21662404921854544 0.09697735343791689 0 0 0 0
28699452 -0.3963593434925261 0.07797381104006043 -0.21663138753552844 0.0970210782508299 0 0 0 0
28732398 -0.3959905434390888 0.07835622351863142 -0.21658554454467335 0.09737648400904801 0 0 0 0
28765344 -0.3959713838260804 0.07833964321549158 -0.21645857052096612 0.09744388358802542 0 0 0 0
28798290 -0.39610248704399437 0.07839601866811435 -0.21660419489508773 0.09742086092635795 0 0 0 0
28831236 -0.3957527445925522 0.07792962376686584 -0.21629451519025003 0.09744586720891842 0 0 0 0
28864182 -0.395984388217865 0.07819646484750858 -0.21616143402263602 0.0975732294471935 0 0 0 0
28897128 -0.3958074841239917 0.07862812979502198 -0.21619992630010515 0.09779730184025485 0 0 0 0
28930074 -0.3961218348081192 0.07888738000187571 -0.2163501998882318 0.09781302613448893 0 0 0 0
28963020 -0.39570040324320827 0.07839893478939233 -0.2160669022742305 0.09800488629671655 0 0 0 0
28995966 -0.39621165169117867 0.07874434469791664 -0.2161447929046125 0.09801460234373627 0 0 0 0
29028912 -0.39580503087749397 0.07868161859716279 -0.21597357326527844 0.09809440627905727 0 0 0 0
29061858 -0.3957975897184803 0.07901805105474752 -0.21594559289392243 0.09826767496235066 0 0 0 0
29094804 -0.3960591248565518 0.07926122140750476 -0.21609933699026007 0.0983266557778773 0 0 0 0
29127750 -0.39556144068615595 0.07899647535704421 -0.21599157411258987 0.09840961004859321 0 0 0 0
29160696 -0.39586552493146454 0.07916434874455183 -0.21573887739359984 0.09860931148272208 0 0 0 0
29193642 -0.39591525546266554 0.07936428786152568 -0.21584622613420582 0.09887265089988276 0 0 0 0
29226588 -0.3957832298193572 0.07943028175840167 -0.2159510048278426 0.09882851792693137 0 0 0 0
29259534 -0.39583396126964 0.07966539480485799 -0.21576309520356346 0.0990145499555674 0 0 0 0
29292480 -0.39567248716988723 0.07925551812448671 -0.21558353991147436 0.09891911318310241 0 0 0 0
29325426 -0.3957192653937495 0.07943915042692518 -0.21549988718848256 0.09912745111540956 0 0 0 0
29358372 -0.39554612676699236 0.07986618024504519 -0.21541051070581446 0.09943396022478344 0 0 0 0
29391318 -0.39555969690454473 0.07985455910282527 -0.2154335165430678 0.09940405858637669 0 0 0 0
29424264 -0.3955602028678683 0.0798050134104132 -0.21535759412853325 0.0993915191551145 0 0 0 0
29457210 -0.3957257402422974 0.08006327082437621 -0.2155616678499017 0.09957496088651745 0 0 0 0
29490156 -0.3953514812710434 0.08009775837101926 -0.2152476685931128 0.09954328448464415 0 0 0 0
29523102 -0.3953359346478057 0.07993102896604476 -0.2151957844614533 0.09977068593361259 0 0 0 0
29556048 -0.3958378588967766 0.08009182833206586 -0.2151581803480216 0.09991199572249482 0 0 0 0
29588994 -0.3956430078360894 0.0801684361812552 -0.21505893222698547 0.09990428456121238 0 0 0 0
29621940 -0.39542559672057515 0.08056434358381642 -0.21498481408732148 0.10013269792261059 0 0 0 0
29654886 -0.3955943406423018 0.08064013645502498 -0.21533499455970131 0.10021050695905298 0 0 0 0
29687832 -0.395233637924904 0.08044455176199126 -0.2148645541192594 0.10029507493560653 0 0 0 0
29720778 -0.395435079388186 0.08069182869896269 -0.2148907085394957 0.10045399971402504 0 0 0 0
29753724 -0.39524620555228246 0.08107373447624651 -0.2148720460166446 0.10073015107460923 0 0 0 0
29786670 -0.39541841853000526 0.08112843612992979 -0.21502205419338744 0.10075967610052483 0 0 0 0
29819616 -0.39536227296957227 0.08079512297337817 -0.21462640761077856 0.10068354976992204 0 0 0 0
29852562 -0.39538353257344055 0.08075800100540445 -0.2147179848607901 0.10063836251859958 0 0 0 0
29885508 -0.39513562399269553 0.08125858967441513 -0.21453494652590144 0.1010155616308311 0 0 0 0
29918454 -0.39506799840045714 0.08108755124643338 -0.214506639927747 0.10094881012296204 0 0 0 0
29951400 -0.39529347386722935 0.08138781899103047 -0.2147159451224205 0.10113767781547538 0 0 0 0
29984346 -0.39515469935954944 0.08137375408375276 -0.2143438439442401 0.10122818927693251 0 0 0 0
30017292 -0.39522693347765825 0.08102927717401237 -0.21437597194908428 0.10118913560850047 0 0 0 0
30050238 -0.3950678628280837 0.08145475788224574 -0.21432160235591483 0.10156664957242063 0 0 0 0
30083184 -0.3949551495043868 0.08151385451172798 -0.2142783884134838 0.10146516474856557 0 0 0 0
30116130 -0.39530712477309704 0.08179718309245712 -0.21435587381629675 0.10159524795578061 0 0 0 0
30149076 -0.3952160523958303 0.08204586851097517 -0.21444551623493785 0.10186188102700323 0 0 0 0
30182022 -0.3953038260740322 0.0818262557710957 -0.21414034979292018 0.10195152207671579 0 0 0 0
30214968 -0.3952516814237514 0.08194209963678827 -0.21406469060415542 0.10190120276689674 0 0 0 0
30247914 -0.3948563834182977 0.08217286925326912 -0.2140290241110645 0.10213018101442456 0 0 0 0
30280860 -0.3952305215706672 0.08224024408649493 -0.21409225982864238 0.10211063835134691 0 0 0 0
30313806 -0.3951364232370589 0.0822903693669931 -0.21407522025985926 0.10238583535643024 0 0 0 0
30346752 -0.3948181234758655 0.0821050597641119 -0.2137248296351683 0.10232716849269631 0 0 0 0
30379698 -0.3952575025531725 0.08233216289347425 -0.21383449777538252 0.1025356285040681 0 0 0 0
30412644 -0.3950900091675188 0.08222468843629151 -0.21385836246080495 0.10272851427422806 0 0 0 0
30445590 -0.3948672244025679 0.08286184202183008 -0.21370386288734775 0.1030321270053199 0 0 0 0
30478536 -0.39474942024419624 0.08245050716877524 -0.2136726429263533 0.10272303404776564 0 0 0 0
30511482 -0.39509912096316574 0.0830397064884089 -0.21380382962495612 0.1030462978756743 0 0 0 0
30544428 -0.39469679569826244 0.08267132511720561 -0.21351262585040734 0.10307181932208559 0 0 0 0
30577374 -0.3948273024806328 0.08275334756605776 -0.2134502639389549 0.10305806907877581 0 0 0 0
30610320 -0.39517391023375287 0.083094879406004 -0.21348925587280512 0.10332056135770652 0 0 0 0
30643266 -0.3950061499877469 0.08299352350271058 -0.21333567432837242 0.1032108889374497 0 0 0 0
30676212 -0.3948310610069356 0.08298083649752724 -0.21331634155726997 0.10344828967509644 0 0 0 0
30709158 -0.39474061295951 0.0834515887613174 -0.21322177549262758 0.10371895827328514 0 0 0 0
30742104 -0.39471275505855913 0.08325458848369025 -0.2130915174585902 0.10360047257899434 0 0 0 0
30775050 -0.3948958326144204 0.0834622629373999 -0.21322018382947727 0.1036875643940818 0 0 0 0
30807996 -0.39489985396740857 0.08360762540348639 -0.21335289864323753 0.10402365452730473 0 0 0 0
30840942 -0.3945883165289056 0.08339866025891787 -0.21298744947126833 0.10389499019022584 0 0 0 0
30873888 -0.39455547039248934 0.08361025985320754 -0.21294642986400902 0.10404996062573309 0 0 0 0
30906834 -0.39468148502294237 0.08376078149557538 -0.2128107225877671 0.10410560146307603 0 0 0 0
30939780 -0.39469295759622025 0.08376501365010253 -0.21285057348529027 0.10424590136127253 0 0 0 0
30972726 -0.3947310971970804 0.08405316256414715 -0.2130161911975252 0.10441395698955667 0 0 0 0
31005672 -0.3943904876960086 0.08379015996653032 -0.21279300661836853 0.10453248877474937 0 0 0 0
31038618 -0.3949458713795684 0.0840567179589265 -0.21269946952749136 0.10468123990952749 0 0 0 0
31071564 -0.39455311522743863 0.08431136997804276 -0.21256235501459608 0.10484570614808274 0 0 0 0
31104510 -0.39439138495759674 0.08453199674027241 -0.21258128663254877 0.10490903241983034 0 0 0 0
31137456 -0.3945927774894188 0.08461184725927806 -0.21277580500253057 0.105047846375456 0 0 0 0
31170402 -0.3944288011594599 0.08428547812245345 -0.2123445076771961 0.10496465992737847 0 0 0 0
31203348 -0.3945294459929924 0.08462688995603893 -0.21228650902437707 0.1049148993254517 0 0 0 0
31236294 -0.39441771234521916 0.08470284758437284 -0.21236042848377723 0.10525385575400643 0 0 0 0
31269240 -0.39452225438451854 0.08466339170989173 -0.21242127446892467 0.10543891785970609 0 0 0 0
31302186 -0.39418926517158537 0.08463774870031514 -0.21208835336500115 0.10536804844567176 0 0 0 0
31335132 -0.3941719289702286 0.08501957935381126 -0.2121368440535711 0.10556314138579752 0 0 0 0
31368078 -0.39436157972280533 0.08496122770080354 -0.2120640574190145 0.10561816132350367 0 0 0 0
31401024 -0.39442344322597944 0.0850690169700836 -0.21217058677773906 0.10569850583909861 0 0 0 0
31433970 -0.3943134331562087 0.08507418682309333 -0.211908494118035 0.10587270276195024 0 0 0 0
31466916 -0.394193499795187 0.08500327628125753 -0.21196167940983565 0.10581526586086328 0 0 0 0
31499862 -0.3940871421137599 0.08517114843143869 -0.211828498783661 0.1058712534319985 0 0 0 0
31532808 -0.39446763306780624 0.08542006462975413 -0.21190102717058373 0.10621672969505438 0 0 0 0
31565754 -0.3941407679676795 0.08529475419855015 -0.21161515579333282 0.10616691013307682 0 0 0 0
31598700 -0.39410779971405946 0.08549615075086586 -0.21172962125184816 0.1063673290944555 0 0 0 0
31631646 -0.3940422476668767 0.08588109005319197 -0.2116594798380991 0.1066826659060659 0 0 0 0
31664592 -0.3941583761486239 0.08574588033436643 -0.2115092628397932 0.10656004974786971 0 0 0 0
31697538 -0.3941988896767404 0.0857405898246246 -0.21158360086992106 0.10671768124938597 0 0 0 0
31730484 -0.3942278181407151 0.08597698344845507 -0.21146285766584827 0.10682812309433944 0 0 0 0
31763430 -0.3941492084343668 0.08577136231576477 -0.21137570367756403 0.10686313189655505 0 0 0 0
31796376 -0.3940083124727257 0.0863270748432683 -0.2113751990218544 0.10718341502894456 0 0 0 0
31829322 -0.394111346416596 0.08612890824399733 -0.2113568062083848 0.10712374028837662 0 0 0 0
31862268 -0.3937605018362305 0.08607053158809441 -0.21118277745835617 0.10715619646505242 0 0 0 0
31895214 -0.3942212264565926 0.08636542185223797 -0.21124206913259383 0.1074795484847063 0 0 0 0
31928160 -0.3942482487623285 0.08621940737012838 -0.21109692774035987 0.10759360722177785 0 0 0 0
31961106 -0.3937600287183491 0.08648820360435555 -0.21098226042077195 0.10738358776474881 0 0 0 0
31994052 -0.3938450489065398 0.08646676830850866 -0.21099938827625367 0.10753863419435505 0 0 0 0
32026998 -0.39393529049713505 0.08674068569847812 -0.21097587471297008 0.10790967821709732 0 0 0 0
32059944 -0.39380918454200103 0.08685185834966548 -0.21093513197603786 0.10780724844642198 0 0 0 0
32092890 -0.39397423399562065 0.0868345906218261 -0.21100229746490437 0.10806866951401518 0 0 0 0
32125836 -0.3942640682435889 0.08703865376945726 -0.2108146935614992 0.10818966581740634 0 0 0 0
32158782 -0.3938238644184403 0.08724986102803386 -0.21075039894736455 0.10824693930496779 0 0 0 0
32191728 -0.39372179565456333 0.08722999829406582 -0.2106985278992271 0.10821301458747808 0 0 0 0
32224674 -0.39361860366020673 0.08715311503025044 -0.2106454335880651 0.10835632017592163 0 0 0 0
32257620 -0.3936673623284149 0.08713757930238064 -0.2105465657438064 0.10848865817199076 0 0 0 0
32290566 -0.3938305040281237 0.08730278078505622 -0.21047653556373883 0.10856997285496556 0 0 0 0
32323512 -0.3936358228373724 0.0874100829589692 -0.21043361000311492 0.10862938745349066 0 0 0 0
32356458 -0.3936608158073768 0.08771525127407875 -0.21042199087353503 0.10875929229196897 0 0 0 0
32389404 -0.39376610252308675 0.08764497379435751 -0.21033206609966917 0.10882750305357751 0 0 0 0
32422350 -0.39405191219110086 0.08756443728613392 -0.2103234706038572 0.10900857556906204 0 0 0 0
32455296 -0.3937484064445725 0.08766668496852066 -0.2102222604212349 0.10917070409802086 0 0 0 0
32488242 -0.39367805055695887 0.08808176756157053 -0.21017091815125882 0.10928120563926531 0 0 0 0
32521188 -0.3935768077849435 0.08808957432167885 -0.210157844010025 0.10922145431954461 0 0 0 0
32554134 -0.3935954541998185 0.08810430834437911 -0.2100323109590801 0.10935276001468001 0 0 0 0
32587080 -0.3936955041044864 0.08793558203998139 -0.21003106450259015 0.10950887733160851 0 0 0 0
32620026 -0.39348343280393955 0.088150059350837 -0.209978309036777 0.10960717159184417 0 0 0 0
32652972 -0.39376336967824793 0.08829340752788163 -0.20986818290230766 0.10964995484486599 0 0 0 0
32685918 -0.39365275971224645 0.08834290767086768 -0.2098415296017749 0.10984648034469523 0 0 0 0
32718864 -0.39353284391172555 0.08844699030190951 -0.2097006837700967 0.10983837321267192 0 0 0 0
32751810 -0.39342620168830034 0.08855469037055076 -0.20965697796671454 0.11001998831161774 0 0 0 0
32784756 -0.3937036084976499 0.088639120919497 -0.2097518290482291 0.11013015138185803 0 0 0 0
32817702 -0.3934569077905887 0.0885783000131573 -0.20951225041120414 0.11014525786860192 0 0 0 0
32850648 -0.39343935125046514 0.08869501252830772 -0.2095542624966603 0.11038381280344181 0 0 0 0
32883594 -0.3933165135436187 0.0891955095683561 -0.20947634936683124 0.11052797157952661 0 0 0 0
32916540 -0.39350180897803266 0.08908391924557202 -0.20945317890908124 0.11058366093452698 0 0 0 0
32949486 -0.3934011560159478 0.0891343074547897 -0.20931889265225126 0.11059001568995605 0 0 0 0
32982432 -0.39331349423624434 0.0890902027472224 -0.20934648874794626 0.11079851397169177 0 0 0 0
33015378 -0.39323529928773343 0.08912255949211821 -0.2091832564786006 0.11087685228638583 0 0 0 0
33048324 -0.3933428138404334 0.08931792626240848 -0.20917291772572386 0.11098382985576054 0 0 0 0
33081270 -0.393206810948315 0.08970536577584784 -0.2091003245356711 0.11116155488016505 0 0 0 0
33114216 -0.3932485423492256 0.08965180210815449 -0.20910961555606977 0.11116036388189815 0 0 0 0
33147162 -0.39328339730473516 0.08957171748245248 -0.20899865784337338 0.11116850496515877 0 0 0 0
33180108 -0.3931562377698589 0.08952777070214575 -0.20884837451019148 0.111325501246277 0 0 0 0
33213054 -0.39333046429937496 0.08973434399168796 -0.208847236720814 0.11148268366350958 0 0 0 0
33246000 -0.3934545863298833 0.08986389072115937 -0.20877677410319143 0.11163484276101682 0 0 0 0
33278946 -0.3930221554546036 0.08984931548894888 -0.2086676716394956 0.1116464895479005 0 0 0 0
33311892 -0.3930719801989565 0.0902362080429687 -0.20859200276612105 0.1117515607977913 0 0 0 0
33344838 -0.39306170018909004 0.09019058600593582 -0.2086305807190282 0.11184571636786049 0 0 0 0
33377784 -0.3931665878937734 0.09040853473969035 -0.20862228908004757 0.1120875282012896 0 0 0 0
33410730 -0.39296061048886066 0.09020931794579022 -0.2085167909576238 0.11214915621971366 0 0 0 0
33443676 -0.39299764671473814 0.09039875560932294 -0.2085619268347193 0.11219361728298842 0 0 0 0
33476622 -0.39291506796293596 0.0905550704591999 -0.20827747725336565 0.11220835915565133 0 0 0 0
33509568 -0.3930384183178105 0.09058004102582685 -0.20835195231641052 0.1124835190343924 0 0 0 0
33542514 -0.39314548666499055 0.09059698062071453 -0.20822716142011108 0.11245865468686968 0 0 0 0
33575460 -0.3930635678482664 0.09071611695991337 -0.20818844350802634 0.11264544518093836 0 0 0 0
33608406 -0.39309217260744667 0.09105450132836145 -0.20813732220341893 0.11279168595540645 0 0 0 0
33641352 -0.39279978896849593 0.09096908449737956 -0.2082210450962072 0.11282593031428406 0 0 0 0
33674298 -0.3929015306688071 0.09076724296348934 -0.20797570245003058 0.11285883282455848 0 0 0 0
33707244 -0.39288193366584856 0.0909491136101249 -0.2079109999505153 0.11284533922630316 0 0 0 0
33740190 -0.39264778528588246 0.0910279835936341 -0.20789405710883466 0.11317721888052144 0 0 0 0
33773136 -0.39274221009607846 0.09138569723582812 -0.20778360255065145 0.11315092372162579 0 0 0 0
33806082 -0.3925212267449242 0.09139975982540201 -0.20781030567621192 0.11336307214552661 0 0 0 0
33839028 -0.3929016547774144 0.09136157430249522 -0.20772984843864664 0.11347203865961154 0 0 0 0
33871974 -0.39283264047898453 0.09137072657236707 -0.20758273192662954 0.113329909549754 0 0 0 0
33904920 -0.3926882778168677 0.09151428060989127 -0.20756142350548465 0.11374686887721386 0 0 0 0
33937866 -0.3926349789613294 0.09172288637863285 -0.20749297884222212 0.11362758506694264 0 0 0 0
33970812 -0.39264510271779646 0.0915821183625378 -0.207427507248718 0.11360930438934908 0 0 0 0
34003758 -0.39265937780844506 0.09184858853316467 -0.20740877580488412 0.11395087439700198 0 0 0 0
34036704 -0.39260938487737435 0.09182371122481264 -0.20721833442744456 0.11387483387652866 0 0 0 0
34069650 -0.3925573944812311 0.09174112857610643 -0.20718773590965628 0.11402673342143269 0 0 0 0
34102596 -0.3929324728359224 0.0920661671538482 -0.20723201315875286 0.1142242173184882 0 0 0 0
34135542 -0.39233569278420927 0.0920270067544993 -0.2070810514478967 0.11440465998901003 0 0 0 0
34168488 -0.3924820335251791 0.09250432115869643 -0.2071659405177768 0.1144360204017044 0 0 0 0
34201434 -0.39241674050699077 0.0923479057123305 -0.20717996825741547 0.11459658153543344 0 0 0 0
34234380 -0.3924500428369971 0.09219883462754878 -0.20688091674673018 0.1145975186512546 0 0 0 0
34267326 -0.39278659438033586 0.09255733897388103 -0.20688195962599243 0.11464517888788173 0 0 0 0
34300272 -0.3925227632801373 0.0927079409556437 -0.2069286498545402 0.1148100922602296 0 0 0 0
34333218 -0.3926075431206624 0.09248258111465314 -0.20687673822002725 0.11482581700216117 0 0 0 0
34366164 -0.39228244082419444 0.09273011508360668 -0.20670954543395662 0.1150488885170781 0 0 0 0
34399110 -0.3922752793635545 0.09281866593038586 -0.20665976771969866 0.11519755269598735 0 0 0 0
34432056 -0.39257679598091894 0.09290487857474265 -0.20662744136736894 0.1151611543298715 0 0 0 0
34465002 -0.39234678644674753 0.0932560843337341 -0.20659647192569586 0.11535002695339737 0 0 0 0
34497948 -0.3922350797944798 0.09311583231815067 -0.20656728646619474 0.11537183369876917 0 0 0 0
34530894 -0.39244884870707103 0.09290866337012313 -0.2063580252608325 0.11564143978605161 0 0 0 0
34563840 -0.3922583462632942 0.09314107139208586 -0.20624300764462164 0.11561485678261989 0 0 0 0
34596786 -0.39223955562871815 0.09317305497997255 -0.20627888846402104 0.11572263887574634 0 0 0 0
34629732 -0.3921623363038442 0.09341359953693447 -0.20620539555018158 0.11580928810464923 0 0 0 0
34662678 -0.3924214051326885 0.09347599816255314 -0.2061598815993696 0.11597828131558559 0 0 0 0
34695624 -0.39220492180360406 0.09382166191869451 -0.2060942681331404 0.11610434944116257 0 0 0 0
34728570 -0.3920987067055723 0.0938135837648954 -0.20613423953662097 0.11618764422633358 0 0 0 0
34761516 -0.39203301913566585 0.09364171419769284 -0.20606893026734363 0.11603814660699131 0 0 0 0
34794462 -0.3920691429444551 0.09366395036032722 -0.20588657853415573 0.11637740309680374 0 0 0 0
34827408 -0.39215715015625874 0.09399265717360347 -0.20582802432855346 0.11637274344459919 0 0 0 0
34860354 -0.3923825301389676 0.0941273711130619 -0.20579798992184856 0.11663622588720625 0 0 0 0
34893300 -0.39229862640071367 0.09422429224274861 -0.2056306738494553 0.11671661653959177 0 0 0 0
34926246 -0.3918989442214492 0.09429779218728367 -0.2055719470225901 0.11668878842696771 0 0 0 0
34959192 -0.39193187805836377 0.09445074484106686 -0.2056572717776756 0.11690112126109344 0 0 0 0
34992138 -0.39186362202253505 0.09418743849483092 -0.20544152231067378 0.11692574768749917 0 0 0 0
35025084 -0.39211119834020164 0.09435781716805708 -0.20548069330808816 0.11703023582974499 0 0 0 0
35058030 -0.39173119609564133 0.09459585338420368 -0.20542224006941512 0.11692278829348096 0 0 0 0
35090976 -0.3915913278439299 0.09468518197736399 -0.20534877064347007 0.11730286479067818 0 0 0 0
35123922 -0.3918771984992427 0.09488089069391846 -0.20534366338401935 0.11735158344834556 0 0 0 0
35156868 -0.39184405411636175 0.09473669331962611 -0.2052017464507241 0.11732675461717815 0 0 0 0
35189814 -0.39197073657894044 0.09487938347936627 -0.2050874469670726 0.11744716389318054 0 0 0 0
35222760 -0.3920779705410363 0.09497922151925005 -0.20512080482682452 0.11779875525181166 0 0 0 0
35255706 -0.39150218877721915 0.09514248898932057 -0.2050159977102801 0.11783889617630872 0 0 0 0
35288652 -0.39172326201729774 0.0952416527892166 -0.2051307780671092 0.11778428151122458 0 0 0 0
35321598 -0.3917522660167033 0.09515359714241764 -0.20493888585295525 0.11789491135016164 0 0 0 0
35354544 -0.39150598810978776 0.09548178027850494 -0.20482748406178522 0.11822133499862338 0 0 0 0
35387490 -0.39175704372473896 0.0955922826185017 -0.2048460884203676 0.11807348957791264 0 0 0 0
35420436 -0.39164888794613645 0.09536971495702062 -0.20474830125031201 0.11814196465086388 0 0 0 0
35453382 -0.3916661007325057 0.09549921971533547 -0.20470614347969981 0.11831066407484604 0 0 0 0
35486328 -0.39195231674628705 0.09560432629654889 -0.20455412482078006 0.118428858759424 0 0 0 0
35519274 -0.3914518707438094 0.0959653437809722 -0.20466289593176215 0.11853064111550642 0 0 0 0
35552220 -0.3914296278673248 0.09605231938936794 -0.20457447573595003 0.11865155290862378 0 0 0 0
35585166 -0.3916084749998408 0.09595447308719486 -0.20419216382263033 0.11863106663683308 0 0 0 0
35618112 -0.3915345596995337 0.09620976413137393 -0.20423640443147212 0.11888523908402043 0 0 0 0
35651058 -0.3916202143868667 0.09622423563896083 -0.20429848000657436 0.11896323449298957 0 0 0 0
35684004 -0.39150100554731604 0.09609108745599788 -0.20435273552845257 0.1189396737402367 0 0 0 0
35716950 -0.39143800343040297 0.09597862424541201 -0.2040377374299535 0.1189481483399782 0 0 0 0
35749896 -0.39129649183977144 0.09625717413667857 -0.20394508319223367 0.1191437639729377 0 0 0 0
35782842 -0.3913609071851756 0.09649973622426071 -0.20397987559434688 0.11953537899194763 0 0 0 0
35815788 -0.3912335714043922 0.0965763041265459 -0.20390200428180846 0.11921986418759437 0 0 0 0
35848734 -0.39138627374914975 0.09682111445392454 -0.20396500284285946 0.11949991488220126 0 0 0 0
35881680 -0.3914368248772421 0.09656008020410113 -0.20391463379438998 0.11941047861583293 0 0 0 0
35914626 -0.3913302796545555 0.09683964542766771 -0.20380971902640127 0.1198056325056559 0 0 0 0
35947572 -0.3913492573001913 0.09685929010977404 -0.20356825732685147 0.11972510695893362 0 0 0 0
35980518 -0.3912925954265134 0.09695974093564594 -0.20354401159436383 0.11988534004814118 0 0 0 0
36013464 -0.39115128293994206 0.09705689993231247 -0.20348463926692623 0.12010272267110642 0 0 0 0
36046410 -0.3911459198396488 0.09710703247903173 -0.2035658498111483 0.11997033179571959 0 0 0 0
36079356 -0.39114205131673513 0.09758640325487489 -0.2035421184071738 0.12037119037719327 0 0 0 0
36112302 -0.39106956709077045 0.09691366211858214 -0.20334366365997494 0.12020957605016162 0 0 0 0
36145248 -0.3908911238684874 0.09730589328040783 -0.2032216739908709 0.12043478301387783 0 0 0 0
36178194 -0.3911648275371352 0.09740537560438255 -0.20317914001246978 0.12043417197759956 0 0 0 0
36211140 -0.39113675473218534 0.09778012533662825 -0.20305932783147312 0.12061898549333451 0 0 0 0
36244086 -0.39099497245220216 0.09765721835914848 -0.20321569949165583 0.12072210652655546 0 0 0 0
36277032 -0.3911420819462217 0.09756136707700078 -0.2031038993544738 0.1208351340561761 0 0 0 0
36309978 -0.3910187310994102 0.09777452608637803 -0.20298599105602855 0.12090041747146278 0 0 0 0
36342924 -0.3912579483699982 0.09785985834394495 -0.2028810642502811 0.12105178687481485 0 0 0 0
36375870 -0.39113063352036453 0.09831877797360167 -0.20289110692678566 0.12113192710589678 0 0 0 0
36408816 -0.39108643084199135 0.09830417211119072 -0.2029968842599827 0.12123417906246474 0 0 0 0
36441762 -0.39051267568219106 0.09775762465830903 -0.20265018380631206 0.1211955158760822 0 0 0 0
36474708 -0.39108428084853314 0.09811881174132706 -0.20270207313667027 0.12141800625057152 0 0 0 0
36507654 -0.3910262655839268 0.098231119825786 -0.20252481552144166 0.12140993969087746 0 0 0 0
36540600 -0.3908113758676771 0.09837415397462265 -0.20244910261736662 0.12170791847749736 0 0 0 0
36573546 -0.3907162782183793 0.09864058569732842 -0.20245169190409265 0.1218222067613343 0 0 0 0
36606492 -0.390674259437743 0.09857826924802852 -0.20239452008500622 0.12168654472053012 0 0 0 0
36639438 -0.3908609917414983 0.09862404489088492 -0.2025109960028151 0.12207602620879951 0 0 0 0
36672384 -0.39068327275758247 0.09858471462730832 -0.20230185190847289 0.12202660958294946 0 0 0 0
36705330 -0.39078210008118985 0.09878032459927384 -0.20222625257185345 0.12211775251603818 0 0 0 0
36738276 -0.3907908900653905 0.09917819135607531 -0.20203418904339343 0.12230457305968676 0 0 0 0
36771222 -0.3905951560535863 0.09933974110734715 -0.20204180759400678 0.12216297502846768 0 0 0 0
36804168 -0.39069237972981297 0.09901060205546064 -0.20203142436569138 0.12243192626559428 0 0 0 0
36837114 -0.3906815548477139 0.09907297862128442 -0.2019854202253309 0.12257948121519954 0 0 0 0
36870060 -0.3905770071643655 0.09935240260041155 -0.2018092262992059 0.1226554335295944 0 0 0 0
36903006 -0.3905709930595606 0.09963275456152264 -0.20187092313259672 0.12274812766341782 0 0 0 0
36935952 -0.39066301672492226 0.09941071081317643 -0.20168032254251736 0.12272746912705824 0 0 0 0
36968898 -0.39060273822228464 0.09944553433137587 -0.2016736874050944 0.12286632490317234 0 0 0 0
37001844 -0.3904385116026531 0.09960643711719928 -0.2015450644500078 0.12297700929740732 0 0 0 0
37034790 -0.39059038884250497 0.09976971213589421 -0.2015570289992747 0.1231109003815203 0 0 0 0
37067736 -0.3904788588064228 0.09990189695957147 -0.20150202606211157 0.12318583912581052 0 0 0 0
37100682 -0.3906053343358493 0.09972432041993565 -0.20146135186983197 0.12321624715325233 0 0 0 0
37133628 -0.39033868583387815 0.09977653182566171 -0.20135663528825978 0.12333025403134765 0 0 0 0
37166574 -0.3905442220790506 0.10004894648506249 -0.20129051059954495 0.12346027955839631 0 0 0 0
37199520 -0.39031713230278337 0.10036563846999225 -0.20120442990320514 0.12351064564577581 0 0 0 0
37232466 -0.39051676009651565 0.09982130150776476 -0.20121202050464695 0.12355473957211091 0 0 0 0
37265412 -0.390307408855576 0.10023947945558234 -0.2010084019813012 0.12381177126113849 0 0 0 0
37298358 -0.3905189600537506 0.10042460286085099 -0.20093160200221394 0.12386777289288142 0 0 0 0
37331304 -0.3901525575313657 0.10077729973580646 -0.20092545295944 0.12388443493050377 0 0 0 0
37364250 -0.39015156141922 0.10081899406708933 -0.20088350419893336 0.12396537406281491 0 0 0 0
37397196 -0.3901356806252078 0.10027931366170442 -0.20088864581716143 0.12419431522339687 0 0 0 0
37430142 -0.3900309032849803 0.1005884767224787 -0.20074036458615893 0.12425014075863036 0 0 0 0
37463088 -0.3902941684619003 0.10071037988262274 -0.20063150755380219 0.12432357136847955 0 0 0 0
37496034 -0.39034618239675634 0.10087227121427567 -0.20046426006681878 0.12433916859255155 0 0 0 0
37528980 -0.39026052276565476 0.10103017621073827 -0.20046085534576116 0.12450420539179641 0 0 0 0
37561926 -0.3900138065675512 0.10112534163473479 -0.20042630731760974 0.12467487312861167 0 0 0 0
37594872 -0.3900687462857109 0.10140402461557922 -0.20044630242876252 0.1247902976373139 0 0 0 0
37627818 -0.3900581505924761 0.10102156425068796 -0.20048002388435965 0.12481409622827733 0 0 0 0
37660764 -0.3901500073483919 0.10115411553221938 -0.20032412414136805 0.12493439306660076 0 0 0 0
37693710 -0.39015971442596736 0.1014476738557074 -0.200084273055106 0.12493215154563271 0 0 0 0
37726656 -0.3899239408402958 0.10158925039654683 -0.20018504661394015 0.12510950052731282 0 0 0 0
37759602 -0.39001576920595654 0.10183303118310416 -0.20018140398018544 0.12526955141029772 0 0 0 0
37792548 -0.39006515351758103 0.10159168517297658 -0.20009183885884094 0.12538431713860615 0 0 0 0
37825494 -0.3898473934477252 0.10161555361348877 -0.1999246421908923 0.12539925585194617 0 0 0 0
37858440 -0.3899511194555937 0.10176975220425467 -0.1998477009194527 0.12541877389953723 0 0 0 0
37891386 -0.3900329073540865 0.10181794332782033 -0.199706684684142 0.1256540996012274 0 0 0 0
37924332 -0.3896839387688408 0.10210263318091953 -0.19975188462415058 0.12568244868354136 0 0 0 0
37957278 -0.38977315496457254 0.10230915004685279 -0.19968285994521526 0.1256669662469389 0 0 0 0
37990224 -0.38973433351730535 0.10203781480439739 -0.1995888242156363 0.12590297905912481 0 0 0 0
38023170 -0.3898546396482106 0.10190261146014232 -0.19958317442083923 0.1259691561023551 0 0 0 0
38056116 -0.3898097537675989 0.10240762485231461 -0.19948911310222217 0.126185085864696 0 0 0 0
38089062 -0.3899328052401422 0.10224500547880795 -0.19936576023753663 0.12622731877219384 0 0 0 0
38122008 -0.38980099602719337 0.10255884295323897 -0.1991498167970441 0.12635139533545775 0 0 0 0
38154954 -0.3896185473507299 0.10280781841511306 -0.19926184380452674 0.12642715934786344 0 0 0 0
38187900 -0.38965393343200416 0.10270013240784723 -0.19909194803356917 0.12647866774769426 0 0 0 0
38220846 -0.38952368718314095 0.10284625929323919 -0.19909915528145178 0.12655883262244963 0 0 0 0
38253792 -0.3894217226636302 0.10283308259945362 -0.19907591054399942 0.1266011616818131 0 0 0 0
38286738 -0.38952272963566476 0.10305611351615979 -0.1989998205810043 0.12665858170021724 0 0 0 0
38319684 -0.38936389926199905 0.10328475034521603 -0.19881768406141823 0.12683519159581386 0 0 0 0
38352630 -0.38947317544810395 0.10337805014758489 -0.19880128053274834 0.12697471397073812 0 0 0 0
38385576 -0.38947076883842024 0.10319095125394692 -0.1988687875350832 0.1271103169617672 0 0 0 0
38418522 -0.38951325258640945 0.10322733181688103 -0.1988005216007254 0.1271877715779295 0 0 0 0
38451468 -0.3893273229489691 0.10315347900920695 -0.19851081374859417 0.1271057628890528 0 0 0 0
38484414 -0.3894986245430583 0.1034208653048879 -0.19854068882245582 0.12740052641341004 0 0 0 0
38517360 -0.38915132825406334 0.10369421343611095 -0.19846056148365837 0.12734602338750858 0 0 0 0
38550306 -0.38954035504692974 0.10357884348847497 -0.19842089879067426 0.12756581980893703 0 0 0 0
38583252 -0.3893378140172042 0.10380890770318638 -0.1983446516935637 0.12764932728774414 0 0 0 0
38616198 -0.389378248668412 0.10391015333773854 -0.19821520309860857 0.12779368613921296 0 0 0 0
38649144 -0.3892301081626379 0.10379765669972693 -0.19826073516116324 0.127679084091955 0 0 0 0
38682090 -0.3893241407783169 0.1041507361651074 -0.1982382187535022 0.12795165924964363 0 0 0 0
38715036 -0.3892972024955773 0.10384952575457732 -0.19807262623299082 0.1279941229404078 0 0 0 0
38747982 -0.38920022759110673 0.1041229956190054 -0.19799630710147204 0.12809225440707 0 0 0 0
38780928 -0.389222531435146 0.1042863842585627 -0.19793879144514492 0.1281722325383136 0 0 0 0
38813874 -0.3892284554918232 0.10433244708759823 -0.19793394661612898 0.12830533458338111 0 0 0 0
38846820 -0.3891282154974678 0.10461188631010197 -0.19786055447702058 0.12830799876485507 0 0 0 0
38879766 -0.3890848992312626 0.10468197554306331 -0.19790070656817987 0.12853801774855242 0 0 0 0
38912712 -0.3890150651726249 0.10434116172437019 -0.19767690986605174 0.12855077454040229 0 0 0 0
38945658 -0.3890135711832517 0.10462820335678075 -0.1975466839769666 0.12876038781769664 0 0 0 0
38978604 -0.3888376307474488 0.10486094785878593 -0.19761568542107677 0.1287564000767861 0 0 0 0
39011550 -0.38914591011852073 0.10494002402647629 -0.19745386207773127 0.12897038748948886 0 0 0 0
39044496 -0.38912486699893956 0.1046736038245302 -0.1974193638096935 0.12894618725405083 0 0 0 0
39077442 -0.38888101756633797 0.10506107522974534 -0.19720570583549085 0.1292451647631222 0 0 0 0
39110388 -0.3888837781185037 0.10503660220139477 -0.1973114489994073 0.12902409759900607 0 0 0 0
39143334 -0.38897854837958457 0.10511635084377392 -0.19717970074254879 0.12921719624212985 0 0 0 0
39176280 -0.38899020363902587 0.10498121180526851 -0.1972882005956756 0.12944300301965944 0 0 0 0
39209226 -0.38880141933809154 0.10525351187082262 -0.19696767503735424 0.12944986494081617 0 0 0 0
39242172 -0.38884936572229745 0.10559643458030316 -0.19706498886661641 0.12941264118641063 0 0 0 0
39275118 -0.38895055348377783 0.10569282173811628 -0.19698325839806677 0.12975312405627681 0 0 0 0
39308064 -0.3887769196406627 0.10539227620850379 -0.19683647924750253 0.12970534494700378 0 0 0 0
39341010 -0.38863909909096384 0.10549300929366463 -0.1968051911138648 0.12993359233791113 0 0 0 0
39373956 -0.3887693337545155 0.10556621856846052 -0.19668986672513358 0.129954408955801 0 0 0 0
39406902 -0.3889309361715481 0.10575801441117383 -0.19671458606758657 0.13013612094198718 0 0 0 0
39439848 -0.3888618092193195 0.10611674949528267 -0.1966497313573488 0.12997313906353006 0 0 0 0
39472794 -0.3885479603053963 0.10606992414474167 -0.1965916419362232 0.1301260568152691 0 0 0 0
39505740 -0.3886175864072162 0.1059456332136621 -0.19640815485503219 0.13025165836851976 0 0 0 0
39538686 -0.38870840929076494 0.10625938310119297 -0.19641196291794286 0.1304607707244006 0 0 0 0
39571632 -0.3886673428018628 0.1061796367975395 -0.19628533396393152 0.13051041703017474 0 0 0 0
39604578 -0.38858555052102756 0.10647672930330136 -0.19622815076716568 0.1306338015491518 0 0 0 0
39637524 -0.3883485308301913 0.10654957647087945 -0.19621816765539285 0.13061545255537374 0 0 0 0
39670470 -0.3883790091793014 0.1062500784980963 -0.19599388972830614 0.13073565859793665 0 0 0 0
39703416 -0.3884576515592288 0.10645948225420555 -0.19606167590097914 0.1308639670421206 0 0 0 0
39736362 -0.3885246678432273 0.10660639075198261 -0.19595798676542106 0.1309453950029012 0 0 0 0
39769308 -0.3884415758469383 0.10682806791231605 -0.19592393855560475 0.13098135403027636 0 0 0 0
39802254 -0.388439004685986 0.10709893068041036 -0.19593755296640497 0.13137771928786837 0 0 0 0
39835200 -0.38849648982937685 0.10664186402514236 -0.19578627841036675 0.13123712161515533 0 0 0 0
39868146 -0.3885545392170137 0.10687647652478328 -0.19574388444490484 0.1313864016031669 0 0 0 0
39901092 -0.38825861631857583 0.10708626713871126 -0.19556046998097257 0.13139404927404766 0 0 0 0
39934038 -0.3882557723864713 0.1073446754701374 -0.1955757640047008 0.1314204243976717 0 0 0 0
39966984 -0.3882009883915156 0.10737755077977608 -0.1955810467829466 0.13172462596576073 0 0 0 0
39999930 -0.3882405797835954 0.10726727683556594 -0.19534858582213827 0.13167785025949494 0 0 0 0
