# HZ S RI R 50
300000 0.09266243626088336 0.06215517964620561 0.8884478689571669 0.1329193539584075 0 0 0 0
332946 0.11571569757519397 0.11437595206822972 0.8685272032262931 0.05574737618332841 0 0 0 0
365892 0.15580178602058165 0.1328597361577239 0.8279793348890213 0.016354952468441174 0 0 0 0
398838 0.18796396832538928 0.13102538765984464 0.7956606445867357 0.0033223220249954527 0 0 0 0
431784 0.19872298592048815 0.1502453965362372 0.7882522489790743 -0.011186372475822088 0 0 0 0
464730 0.21470729537099706 0.14150603622056931 0.7733873766634701 -0.011848845426970327 0 0 0 0
497676 0.22722420011360095 0.13181565209451626 0.76207244013525 -0.011698160979577484 0 0 0 0
530622 0.23577407543947604 0.12351886379364227 0.7540638714102527 -0.011121302003591214 0 0 0 0
563568 0.2424925427058683 0.1162506226374098 0.7486336251473131 -0.010960320537961437 0 0 0 0
596514 0.24753587369392197 0.10976957309798265 0.7448848216945548 -0.009930359636754664 0 0 0 0
629460 0.2517004462379295 0.10396510861300376 0.7416108344237227 -0.009747168043815087 0 0 0 0
662406 0.25505189230936315 0.09840838792644555 0.7393165900009225 -0.00928051353086885 0 0 0 0
695352 0.2577673023988657 0.09367322693997025 0.7372430015655589 -0.009145440351323128 0 0 0 0
728298 0.2600329862367423 0.08942806596047834 0.7354102398561442 -0.009048284803235006 0 0 0 0
761244 0.2621446564919766 0.08538006532285261 0.7330800933835753 -0.009677775816637124 0 0 0 0
794190 0.2638456033138459 0.08168411488735831 0.732169780299731 -0.01036103876134225 0 0 0 0
827136 0.26537051591867433 0.0785280698759663 0.7320277740746725 -0.010151986504069229 0 0 0 0
860082 0.26663331919735805 0.0753918819757078 0.730553277002532 -0.009935023913091992 0 0 0 0
893028 0.2676132034913539 0.07244492726795321 0.7294590776906478 -0.010946655217764938 0 0 0 0
925974 0.26844619205213244 0.06997573756547952 0.7289393781293602 -0.010708968463564627 0 0 0 0
958920 0.26948250023879083 0.06724828070402034 0.7284876387747172 -0.011028677299361913 0 0 0 0
991866 0.2704418641373394 0.06520837339705447 0.7278963260507142 -0.011616436903064131 0 0 0 0
1024812 0.27091332776508975 0.06296503281486945 0.7269849744036884 -0.011835316765386133 0 0 0 0
1057758 0.2716198575139787 0.060989880891927514 0.7270361716605498 -0.012131885630959082 0 0 0 0
1090704 0.27213787411349494 0.059139138456004346 0.7266940468202355 -0.012774336702110617 0 0 0 0
1123650 0.2724336322038073 0.057470877078399936 0.7262986242386495 -0.012929458845083768 0 0 0 0
1156596 0.2730714774192537 0.055924372589586636 0.7256037624488154 -0.013649165277138624 0 0 0 0
1189542 0.27353016004431563 0.05430292691700519 0.7258462662697788 -0.013489507496487935 0 0 0 0
1222488 0.27373623342576453 0.05280077656383766 0.7253671409315554 -0.013440588045787412 0 0 0 0
1255434 0.2741337897514049 0.05145056457540356 0.7250946932162335 -0.014199900107928896 0 0 0 0
1288380 0.2743200914018311 0.05020239714677671 0.724366600448903 -0.0148593125250421 0 0 0 0
1321326 0.27444423858392397 0.04890950693488752 0.7241805165138336 -0.014917959186869983 0 0 0 0
1354272 0.2749158496014787 0.04771851877155879 0.7239646663071703 -0.015099503284222448 0 0 0 0
1387218 0.27505792397921414 0.046420353278739925 0.7239323334860632 -0.015774130125905644 0 0 0 0
1420164 0.27541580358856155 0.04530055486817376 0.7237473936743486 -0.016018104624754115 0 0 0 0
1453110 0.2754485905008285 0.044242920930291196 0.7235875140563619 -0.016400139674177056 0 0 0 0
1486056 0.2755720693710675 0.04348243401607024 0.7229050075001308 -0.01664707805263091 0 0 0 0
1519002 0.27581530794349207 0.04244128819344479 0.7234406744148426 -0.01686544318510289 0 0 0 0
1551948 0.2759541747797893 0.04166471007681981 0.7230543089619684 -0.017226554463241353 0 0 0 0
1584894 0.27617121462985955 0.04075536210080981 0.7228076624270812 -0.01766797870141052 0 0 0 0
1617840 0.2762476647405569 0.03983519659187787 0.72270715665974 -0.018138135102832253 0 0 0 0
1650786 0.276341571234186 0.039127864749507905 0.7225180343207195 -0.018447551769879646 0 0 0 0
1683732 0.2763349901441112 0.03844330243013292 0.722801150386784 -0.01855862947013199 0 0 0 0
1716678 0.27656815549008357 0.03775639373628842 0.7225640727667664 -0.018848102140146747 0 0 0 0
1749624 0.2766591237421748 0.036943290557957996 0.7224074526975216 -0.019228141939629004 0 0 0 0
1782570 0.27682643680995733 0.03638977233530522 0.7224045834918431 -0.019419077911086477 0 0 0 0
1815516 0.27687971097889513 0.03575160898534789 0.7219669477010607 -0.019597639806541906 0 0 0 0
1848462 0.2770036283394244 0.03513836013587681 0.7218622963236851 -0.0199963505184811 0 0 0 0
1881408 0.27704687342913265 0.034527476260991424 0.721615057594362 -0.020589781691737738 0 0 0 0
1914354 0.27702525935281846 0.03398478713367608 0.7214697205880748 -0.021023696727069607 0 0 0 0
1947300 0.27712194164494275 0.03354951209238105 0.7218364567411244 -0.02070127325535604 0 0 0 0
1980246 0.2770815953197728 0.03286065693440485 0.7212629435805054 -0.021345710250512833 0 0 0 0
2013192 0.27720518383124193 0.0324743904736665 0.721468201450203 -0.02167417833692489 0 0 0 0
2046138 0.277307212348766 0.031927743759106744 0.7214364602802043 -0.022039977892013403 0 0 0 0
2079084 0.27738886572209104 0.031508815498673896 0.721016026508168 -0.022648462399647303 0 0 0 0
2112030 0.27740985205530816 0.031066404462896886 0.7213059611877539 -0.022481333049269317 0 0 0 0
2144976 0.27752681468263835 0.03059970829568991 0.721165021253432 -0.023116292724575233 0 0 0 0
2177922 0.2775499861120407 0.030281780152727134 0.7208648879121654 -0.02316743714955978 0 0 0 0
2210868 0.2774959108074199 0.029756837856483146 0.7211060932174753 -0.02358996714718393 0 0 0 0
2243814 0.27757818050925354 0.02935560627000917 0.7204943617634996 -0.023900651563479477 0 0 0 0
2276760 0.2777088260169064 0.028967011086836802 0.7208841453805207 -0.02422209113533031 0 0 0 0
2309706 0.2776600559789869 0.02864772942352363 0.7209087187570954 -0.02431350720608754 0 0 0 0
2342652 0.27770057348224403 0.028154446514329776 0.7202175261020098 -0.02456407565940793 0 0 0 0
2375598 0.27773377828922263 0.027788442169408376 0.720626892622956 -0.025101704968421804 0 0 0 0
2408544 0.2777403351741228 0.027441313535505763 0.7207929138626885 -0.025279342455505387 0 0 0 0
2441490 0.2776954378349331 0.027257394553748926 0.7203393777945862 -0.025613515285841153 0 0 0 0
2474436 0.27767576420833956 0.026865396153193173 0.7203237847403449 -0.025999378198902374 0 0 0 0
2507382 0.2778731957309092 0.02667520551573902 0.7200882937015798 -0.02630081446643363 0 0 0 0
2540328 0.2779424054963788 0.026228009342411093 0.7203505034080266 -0.0264162291914153 0 0 0 0
2573274 0.2779220834700389 0.026160645680661662 0.7203266204432702 -0.026607027719757162 0 0 0 0
2606220 0.2777736437041963 0.0258897343531141 0.7201009514285591 -0.027157122518727365 0 0 0 0
2639166 0.27807170257377606 0.025498613533978854 0.7199592792394812 -0.027848673262377138 0 0 0 0
2672112 0.2780505947630913 0.0252551917640291 0.719997782325295 -0.027953230760941996 0 0 0 0
2705058 0.27807595058092455 0.024867190295318205 0.7201330795928317 -0.02802885526343782 0 0 0 0
2738004 0.2782133046239933 0.02466910600671682 0.7202415663527498 -0.028190568884346547 0 0 0 0
2770950 0.2782131470600407 0.02435135930009758 0.7200740065558718 -0.028755401523193613 0 0 0 0
2803896 0.27806341437265747 0.024227493084930368 0.7198561929769418 -0.028716728100685374 0 0 0 0
2836842 0.27806595480700574 0.02405660715327058 0.7196999256029798 -0.02917813123846741 0 0 0 0
2869788 0.2782766976734697 0.0237760377859174 0.7198697935715505 -0.029728744883993054 0 0 0 0
2902734 0.27838455626657316 0.023392979739452067 0.7195941853379424 -0.02960343424239768 0 0 0 0
2935680 0.27830470576930183 0.023190725099792534 0.7199810579882999 -0.030290904969739067 0 0 0 0
2968626 0.2782906390072839 0.023064917687541577 0.7198124157489273 -0.03018486558426798 0 0 0 0
3001572 0.27841614869575504 0.023084836231201243 0.7197041428884758 -0.031031876101610803 0 0 0 0
3034518 0.27832220461471424 0.02272068154392883 0.7195294439816665 -0.03126274510972497 0 0 0 0
3067464 0.2784331850521092 0.02242395822383176 0.7195070769537161 -0.031150135512494605 0 0 0 0
3100410 0.278437701172144 0.02239526493997855 0.7193186285123028 -0.031390906485874934 0 0 0 0
3133356 0.27837139304446445 0.022264332374483616 0.71962315687432 -0.03219891399061895 0 0 0 0
3166302 0.2785808337991122 0.022098399259238066 0.7193403629895041 -0.03236657468601295 0 0 0 0
3199248 0.27855462095747396 0.021834275384679913 0.7194730387580001 -0.032280906482300004 0 0 0 0
3232194 0.27855129374005444 0.021565767704270607 0.7194177177001277 -0.0327704513644124 0 0 0 0
3265140 0.2785975277649368 0.021387000217861822 0.7192152820864844 -0.032960467350027396 0 0 0 0
3298086 0.2787806486191954 0.02131464184195216 0.7195929660268371 -0.033221306126788454 0 0 0 0
3331032 0.27868493628269275 0.021089543576382878 0.719340520536582 -0.03364133448429329 0 0 0 0
3363978 0.2786595463487164 0.020941289977577014 0.7190400246258378 -0.0337632325517334 0 0 0 0
3396924 0.27891575144789127 0.020737339817487585 0.7193503283132298 -0.03406963699285588 0 0 0 0
3429870 0.27866806021981005 0.020540870901589254 0.7195809776903022 -0.03477499504639794 0 0 0 0
3462816 0.2787899848804814 0.02049124371698764 0.7191348742877577 -0.03441016573843427 0 0 0 0
3495762 0.27899936047511 0.020393093772168375 0.7195881194963961 -0.03512964003077754 0 0 0 0
3528708 0.2788319569900389 0.02034134047178645 0.7187703173972365 -0.03571448378151762 0 0 0 0
3561654 0.2791033906892233 0.020057990759626755 0.71883461957036 -0.03563459286636158 0 0 0 0
3594600 0.27919205613428455 0.01984714147900137 0.7187399017924697 -0.03587165830836045 0 0 0 0
3627546 0.2790728812931595 0.019714493913527077 0.7191305159658121 -0.036475013253802736 0 0 0 0
3660492 0.2792729511599073 0.019631691308707108 0.7189961248827629 -0.036391068501511026 0 0 0 0
3693438 0.279053737704267 0.019469103766169598 0.7190312246001097 -0.036856935223511064 0 0 0 0
3726384 0.27915740329150773 0.01931890852138429 0.7188856295693108 -0.03678595508139214 0 0 0 0
3759330 0.27915580549304037 0.01911751776288907 0.7191102373261314 -0.037555647730420985 0 0 0 0
3792276 0.2793647896639892 0.01921084840167285 0.7188925913670527 -0.037932964405473786 0 0 0 0
3825222 0.27915605454894665 0.018895009538660322 0.7187465500988529 -0.03793293330899645 0 0 0 0
3858168 0.27928768819304783 0.018905169796907085 0.718723820606335 -0.03805224650458276 0 0 0 0
3891114 0.27914070451043654 0.01864460421484763 0.7184867453535251 -0.038949737997568436 0 0 0 0
3924060 0.27935363477102626 0.01851897066428167 0.7187781327045291 -0.038942966911610664 0 0 0 0
3957006 0.2794402959607595 0.018572335640706646 0.7183337956954899 -0.039551249859752245 0 0 0 0
3989952 0.27961054886748105 0.018395955623962373 0.7185367644419607 -0.03960242883351645 0 0 0 0
4022898 0.27943009529282975 0.018231097988122197 0.7181757253275709 -0.039838553993928064 0 0 0 0
4055844 0.2794753953645647 0.01812402010636878 0.7185149684407603 -0.040001982121901196 0 0 0 0
4088790 0.2795852704273108 0.01805454980866423 0.7186438451012915 -0.040622076431333524 0 0 0 0
4121736 0.27961179477953557 0.01778862790676188 0.7183560882878912 -0.040566876888032274 0 0 0 0
4154682 0.2797750981417727 0.017874549833893413 0.7183548596601194 -0.0410277945263864 0 0 0 0
4187628 0.2797147134793207 0.01779359675859412 0.7181402230116747 -0.041207202548333745 0 0 0 0
4220574 0.2797475681016598 0.017604620145757616 0.7183941194061438 -0.04147509734747816 0 0 0 0
4253520 0.2797088153086651 0.017600792671175296 0.7185421846301792 -0.04165198815904305 0 0 0 0
4286466 0.2799501319269263 0.017296894390817098 0.7185933718508083 -0.042483633997877135 0 0 0 0
4319412 0.27991407935010065 0.017197611113389875 0.7181274741730934 -0.04229663054241197 0 0 0 0
4352358 0.2799953192779743 0.017224660213284646 0.7182950069658347 -0.04249086107079089 0 0 0 0
4385304 0.2798662999867337 0.0170823863326992 0.718365336701938 -0.04294775526794467 0 0 0 0
4418250 0.28004299036159824 0.01697687087463735 0.7179125237688566 -0.04347807327238208 0 0 0 0
4451196 0.2799755414114363 0.016992131842288566 0.7180599827945051 -0.04329214598377962 0 0 0 0
4484142 0.2801564599495781 0.016867254283647517 0.7180632947984087 -0.04370457088197328 0 0 0 0
4517088 0.2800409879704038 0.01667792220739005 0.7181555874939264 -0.04420107326568705 0 0 0 0
4550034 0.28011841042478425 0.016553194006051555 0.7176115425146582 -0.044204249279179125 0 0 0 0
4582980 0.28030955926364165 0.0164868468286344 0.7181156463579518 -0.04442954522430959 0 0 0 0
4615926 0.2800201694167653 0.016442906768390084 0.7182882712692549 -0.04544954391090174 0 0 0 0
4648872 0.2802672423218437 0.016336193160337766 0.7174758718719799 -0.04504516385525896 0 0 0 0
4681818 0.28054944489766515 0.01616949525394664 0.7179359062607398 -0.04582567847991224 0 0 0 0
4714764 0.28046604708643724 0.01632080875176772 0.7180505901282149 -0.04595034505754522 0 0 0 0
4747710 0.2804166018933823 0.01601431478621483 0.718311197687601 -0.04608806425697918 0 0 0 0
4780656 0.280475654967502 0.01602968941939984 0.717859735397895 -0.046458882972610985 0 0 0 0
4813602 0.2804976026311913 0.015829287139840758 0.7176331902432121 -0.0465391153319376 0 0 0 0
4846548 0.28062271120907323 0.01584973096662038 0.7181075439644028 -0.04740238335588244 0 0 0 0
4879494 0.2804486259174319 0.01584972769753743 0.7177401426611549 -0.047346938881843006 0 0 0 0
4912440 0.28066357367202505 0.015624916211899573 0.7178241223940047 -0.047396157934447763 0 0 0 0
4945386 0.2807504419030205 0.015690630919004682 0.7179653976270811 -0.04804867128213843 0 0 0 0
4978332 0.2805404433274698 0.01562309759883372 0.7178503746056267 -0.0482687555795684 0 0 0 0
5011278 0.2809223304402052 0.0154350789709363 0.7175243740683782 -0.048549470125479055 0 0 0 0
5044224 0.2809492257502382 0.015305878834781513 0.7176426489354361 -0.04896344127452011 0 0 0 0
5077170 0.2807744104608119 0.015361295560191153 0.7178071816157118 -0.048857843102935866 0 0 0 0
5110116 0.2807830158092581 0.01512872726743322 0.717320430945925 -0.049280627875230576 0 0 0 0
5143062 0.280937650753304 0.015103510013266224 0.7175885955606791 -0.049725875817119375 0 0 0 0
5176008 0.2806752999227932 0.01502306685503693 0.7174540569646196 -0.050137144872347585 0 0 0 0
5208954 0.2810059777208765 0.014981731302769582 0.7178392730345228 -0.050302583762716346 0 0 0 0
5241900 0.2810649922779863 0.015112942855503598 0.7174531857824887 -0.0505878059147459 0 0 0 0
5274846 0.2810561983418203 0.014804215391230306 0.7176035391025969 -0.05101020399736036 0 0 0 0
5307792 0.28123306526387415 0.01469503121815398 0.7175688497121782 -0.05091303351609274 0 0 0 0
5340738 0.2813692032061058 0.014731520908282753 0.7175636411706918 -0.051706339234805145 0 0 0 0
5373684 0.2810971782090401 0.014615068809239212 0.717163734550581 -0.05150557365855976 0 0 0 0
5406630 0.2813732698141833 0.014525095439305002 0.71770453240818 -0.052146297057443634 0 0 0 0
5439576 0.2815305517832 0.014472474111936532 0.7175163904710601 -0.052303227063329655 0 0 0 0
5472522 0.2812778355241407 0.014558159054356852 0.7171903296333216 -0.05257162840982238 0 0 0 0
5505468 0.2812246070634791 0.014414953976162274 0.7168682022398088 -0.05319313567543091 0 0 0 0
5538414 0.28151416588960576 0.014165109523077939 0.7172227249100875 -0.05337492614065301 0 0 0 0
5571360 0.2814838403564088 0.014227603833218984 0.7170067335738394 -0.053120384661053 0 0 0 0
5604306 0.28165309923365933 0.014140061823681402 0.7171214765333538 -0.053580563941009136 0 0 0 0
5637252 0.2815974381285572 0.01417086681710409 0.7169994968284534 -0.05411001504555823 0 0 0 0
5670198 0.28153275761935787 0.013966784589691384 0.7171614903057747 -0.05453746233473827 0 0 0 0
5703144 0.2816050041077282 0.01382240241972111 0.7168363147762621 -0.054574878424553136 0 0 0 0
5736090 0.28163682386661903 0.013748442122229058 0.7168522381278734 -0.05477329468477497 0 0 0 0
5769036 0.28171093933288277 0.013791234034436587 0.7170101341330635 -0.05543661269643239 0 0 0 0
5801982 0.28201288663956237 0.01359984476654833 0.7171267085843528 -0.05530257824004474 0 0 0 0
5834928 0.2820521515177696 0.013618614404382922 0.7167820031616139 -0.05592733823199715 0 0 0 0
5867874 0.2818881944987122 0.013732000489418932 0.7169311516167123 -0.05605155078386877 0 0 0 0
5900820 0.28178732509272986 0.013522819075507855 0.7166947920508411 -0.05630814109392415 0 0 0 0
5933766 0.28201212176722434 0.013481118636831347 0.7169200531345488 -0.056961160581645874 0 0 0 0
5966712 0.2818196571109401 0.013519678178522341 0.7164348406693036 -0.05720290467228596 0 0 0 0
5999658 0.2821733245207351 0.013330972489486725 0.7174012366383926 -0.05742943123733441 0 0 0 0
6032604 0.28206216025706493 0.013231995542675007 0.7164018122319972 -0.057266075527721484 0 0 0 0
6065550 0.2822627025624683 0.01318625958467023 0.7167612015915412 -0.05799431218966688 0 0 0 0
6098496 0.2822948978805929 0.013258674220482698 0.7168915094840003 -0.0582410876795089 0 0 0 0
6131442 0.28198238905933254 0.013177743925989943 0.7164572251840049 -0.0585984381790016 0 0 0 0
6164388 0.2821544564228118 0.013087968299622435 0.7165309883753466 -0.05891077198996386 0 0 0 0
6197334 0.282214604257332 0.013026567802534408 0.7160775329229445 -0.058771437354067126 0 0 0 0
6230280 0.2822758577897855 0.01285580265371927 0.7165950020465007 -0.05931049234492046 0 0 0 0
6263226 0.28249728951551506 0.012904690739777482 0.7162659504602958 -0.059695544747344405 0 0 0 0
6296172 0.28228428345310197 0.013038006968513847 0.7162432392758822 -0.0600657835634779 0 0 0 0
6329118 0.2824165357879996 0.012798935593469717 0.7164499390280699 -0.06020138184614045 0 0 0 0
6362064 0.28236792403475247 0.012808573357535984 0.7164110941089152 -0.0603964264783108 0 0 0 0
6395010 0.28254399655742535 0.01259876077944377 0.7163988520366283 -0.060649917224628716 0 0 0 0
6427956 0.2825260860242638 0.012545488071783573 0.7163987772669089 -0.0609818512383392 0 0 0 0
6460902 0.2825658262569726 0.012597485841973448 0.7159827494564497 -0.0613521500707052 0 0 0 0
6493848 0.2824872829778547 0.012606473581523368 0.7161130950771448 -0.06171637350352611 0 0 0 0
6526794 0.2825983013198261 0.012385156253665281 0.715781334635287 -0.061618537710263085 0 0 0 0
6559740 0.28270815116088216 0.012322759861527288 0.7158639125891209 -0.0622264015080804 0 0 0 0
6592686 0.2827490064514298 0.0123719230820375 0.7162646756276665 -0.062477784274482785 0 0 0 0
6625632 0.28271513215526445 0.012278374482930511 0.716080993267844 -0.06255426276742937 0 0 0 0
6658578 0.282916053637733 0.012144529287891432 0.7160876494986624 -0.06332667069056043 0 0 0 0
6691524 0.28267814121628076 0.012157767808931321 0.7158629644556562 -0.06350790753686648 0 0 0 0
6724470 0.28294638554269197 0.01205038925114644 0.7156207713410591 -0.06372207502763555 0 0 0 0
6757416 0.2829352294773074 0.012141141839147152 0.7160189491930294 -0.06399190915475804 0 0 0 0
6790362 0.2830709308686584 0.011943582658666825 0.7155793334803802 -0.06399243956605784 0 0 0 0
6823308 0.2830435825237051 0.011970766958701843 0.7158685289440312 -0.06443535643653182 0 0 0 0
6856254 0.28303406167089806 0.011857599964089322 0.7154191529734466 -0.0649460684040002 0 0 0 0
6889200 0.28312344703091724 0.011932271264258708 0.7157117033799953 -0.06513377553349123 0 0 0 0
6922146 0.2809779132928249 0.015277586852448974 0.7146899671783021 -0.06361884483886118 0 0 0 0
6955092 0.28109252469459584 0.015300621753025061 0.7146011559685864 -0.06355370792917439 0 0 0 0
6988038 0.2812505787047476 0.015108847056213093 0.714797927421551 -0.06404086240836852 0 0 0 0
7020984 0.28123637099057114 0.01502280015165153 0.714747777061048 -0.06436105204003699 0 0 0 0
7053930 0.2811240884708976 0.015262704981644976 0.714529506419413 -0.06481133574523877 0 0 0 0
7086876 0.2813914142571408 0.01488607739179929 0.7146757410663461 -0.06474581635794585 0 0 0 0
7119822 0.2812237875044988 0.014920011677640302 0.7143382388634915 -0.06520087262781839 0 0 0 0
7152768 0.2813698180391911 0.014808528950859417 0.7145273365088202 -0.0651684352248726 0 0 0 0
7185714 0.2812446462504469 0.014963854250851925 0.7142623173782806 -0.06567195904244373 0 0 0 0
7218660 0.2813087152779308 0.01472836414152778 0.7141140181404014 -0.06593284739346407 0 0 0 0
7251606 0.28149642597368457 0.014847149676901228 0.7140122326273548 -0.06632611729720155 0 0 0 0
7284552 0.2814017951795208 0.014719874659184297 0.7140082675758911 -0.06649093475528954 0 0 0 0
7317498 0.281553750567274 0.01453415919705417 0.7141539306941442 -0.06685949246575082 0 0 0 0
7350444 0.28149010909525424 0.014628351814557348 0.714277029340844 -0.06764306412770753 0 0 0 0
7383390 0.2815959668814248 0.014594287360136793 0.7139725237098874 -0.06736676841939075 0 0 0 0
7416336 0.28158738748912626 0.014440802852811305 0.7138006559137849 -0.06780851834772024 0 0 0 0
7449282 0.28180329000768534 0.014515207356778264 0.7143844302444783 -0.06813886626165794 0 0 0 0
7482228 0.2818135999062351 0.014255380975967477 0.7139660348748716 -0.06829407169328772 0 0 0 0
7515174 0.2817296608293355 0.01439904861166984 0.7135570137498782 -0.06874699028594668 0 0 0 0
7548120 0.28183111079224515 0.014417151210080718 0.713784288323619 -0.06908669235754375 0 0 0 0
7581066 0.28190340452244533 0.014152544610653338 0.7139721621337003 -0.06914188365078269 0 0 0 0
7614012 0.28189472776895785 0.014243753642752913 0.7141573860900661 -0.06940768797557363 0 0 0 0
7646958 0.28175944059794117 0.01420701002850859 0.7134422559487074 -0.06980020553102807 0 0 0 0
7679904 0.2820234542017143 0.01412417285857164 0.7140175182324646 -0.07017822649217093 0 0 0 0
7712850 0.2820396604855151 0.014156089741778642 0.7133205015633735 -0.07047595791203123 0 0 0 0
7745796 0.2821351077164161 0.013943440944910502 0.713642140942858 -0.07038913311589713 0 0 0 0
7778742 0.28203771955886614 0.014000325184681351 0.713595382252802 -0.07124434340162662 0 0 0 0
7811688 0.28222697671163877 0.013972501640446609 0.7136825362666266 -0.07141595070743835 0 0 0 0
7844634 0.2821704526067522 0.013896445597750684 0.713492209130816 -0.07142694214653478 0 0 0 0
7877580 0.2822297075247297 0.013829107374358966 0.7132345831529897 -0.07182185672095537 0 0 0 0
7910526 0.28227292657834596 0.013780157734734752 0.7135141116625907 -0.07228728783582063 0 0 0 0
7943472 0.28233708965419946 0.013785961231511944 0.7131760360440516 -0.072574528145034 0 0 0 0
7976418 0.2825441041411112 0.0136205390761758 0.7133811743506573 -0.07280160594012355 0 0 0 0
8009364 0.2824199905864797 0.013539284891838695 0.7136235972474816 -0.07298411159861512 0 0 0 0
8042310 0.2824960265837694 0.01353325034687639 0.7134395321160613 -0.07320435873287033 0 0 0 0
8075256 0.2825266349541446 0.01369525241017635 0.712980685625736 -0.07328973658870518 0 0 0 0
8108202 0.2825830146684044 0.01358341563577894 0.7131829136669257 -0.07376013239826232 0 0 0 0
8141148 0.28258193665470666 0.013442790676698057 0.7133046485378457 -0.07405448841896388 0 0 0 0
8174094 0.28266786539481653 0.01338058920036417 0.7130413955056798 -0.07442981868392957 0 0 0 0
8207040 0.28284705257958354 0.01328552667683045 0.7134019500275833 -0.07506645296714973 0 0 0 0
8239986 0.2826755652731974 0.0134698479061142 0.7126397408699965 -0.07488611788801143 0 0 0 0
8272932 0.2828562570595048 0.013333307347962831 0.7126253626804581 -0.07524250803047279 0 0 0 0
8305878 0.2827417188091588 0.013337193474783836 0.7128436578166737 -0.07563577720434461 0 0 0 0
8338824 0.28277354260762044 0.013266373393618412 0.7131148180956552 -0.0758320120715382 0 0 0 0
8371770 0.28272614922038675 0.013087114132659469 0.7127652830075205 -0.07623882472667257 0 0 0 0
8404716 0.28289477223787735 0.012994116812624553 0.7127777846471178 -0.07638201100672402 0 0 0 0
8437662 0.2829167508235428 0.013142930435786605 0.7126603163010403 -0.07629491064376469 0 0 0 0
8470608 0.2830198329901756 0.01320359551630966 0.7125963426491091 -0.07672449904765094 0 0 0 0
8503554 0.28307817990056344 0.013083701497971945 0.7126147574882772 -0.0772780610901964 0 0 0 0
8536500 0.2830885166884469 0.013005678678101387 0.7125530770470312 -0.07732957187453189 0 0 0 0
8569446 0.2831556316992924 0.013000341774013727 0.7125261482070179 -0.07824139091534403 0 0 0 0
8602392 0.2831268573610713 0.012843340294076602 0.7122905408501866 -0.07819320874389188 0 0 0 0
8635338 0.28329781447704844 0.012845713245294174 0.7123744116737614 -0.07850020870008427 0 0 0 0
8668284 0.2831779387043377 0.012737885951003763 0.7122160615596844 -0.07872372424968849 0 0 0 0
8701230 0.28312257291699083 0.012802353410411452 0.7120286716947836 -0.07884780688457049 0 0 0 0
8734176 0.28340706236985425 0.012783726033754814 0.7125792613419667 -0.07941950521816439 0 0 0 0
8767122 0.2833870660196521 0.01282156352859382 0.7123922161138964 -0.07975103666502263 0 0 0 0
8800068 0.2835257477711158 0.012562375510768824 0.711992193973065 -0.07995677016651957 0 0 0 0
8833014 0.28342116087994457 0.012654188267627783 0.7123926754141536 -0.08008978650863148 0 0 0 0
8865960 0.28353365364500765 0.012581600616419194 0.7121212766358244 -0.08056692145914453 0 0 0 0
8898906 0.28348644494731023 0.012498451430440885 0.7118595460532575 -0.08078243935961339 0 0 0 0
8931852 0.28360043770598903 0.012419219636925603 0.7119450802520463 -0.08143608367105809 0 0 0 0
8964798 0.2836010446075321 0.012392266898578534 0.7116149027166481 -0.08143912776138514 0 0 0 0
8997744 0.2836884329014585 0.012230241727425845 0.7122573962551367 -0.08169321313598449 0 0 0 0
9030690 0.28363206190617996 0.012457616794162522 0.7119087301577917 -0.08168100981493734 0 0 0 0
9063636 0.28371762547955903 0.012423799408225827 0.7113600749148292 -0.08207369065431623 0 0 0 0
9096582 0.2837094334652164 0.012336725144734707 0.711702539546241 -0.08228552898306997 0 0 0 0
9129528 0.28380775912477385 0.01231285893272335 0.7116286517762872 -0.0827491438963248 0 0 0 0
9162474 0.28398249192463715 0.012140959047761307 0.7119538206410403 -0.08312707266711802 0 0 0 0
9195420 0.2838766723556763 0.012181622861997914 0.7116012738002929 -0.08323309798772453 0 0 0 0
9228366 0.2839052629881008 0.012067572714806504 0.7113041672171868 -0.08372336756164403 0 0 0 0
9261312 0.28401689793958923 0.012064113121617391 0.7115895991297227 -0.08387609061967953 0 0 0 0
9294258 0.2839474538809249 0.011993203818761684 0.7112650677542467 -0.08421785747467418 0 0 0 0
9327204 0.28407599115534204 0.011981117965566553 0.7110833564619193 -0.08486254208052305 0 0 0 0
9360150 0.28412787210340334 0.012000564864439877 0.7114182162087923 -0.08481166102734111 0 0 0 0
9393096 0.2841896197608395 0.011883537151828565 0.7109791201590385 -0.08488376210741619 0 0 0 0
9426042 0.2841877462998907 0.011734551016096887 0.7113402707019726 -0.08554061980216325 0 0 0 0
9458988 0.2842477026136259 0.011948030821207226 0.7111260002129659 -0.08547240474739078 0 0 0 0
9491934 0.28432656016524066 0.011699461010505766 0.7108719967116707 -0.08606229312437287 0 0 0 0
9524880 0.28435208803386103 0.011776280390893056 0.7109521932101203 -0.08607233206781782 0 0 0 0
9557826 0.2844401334176337 0.011860815802239426 0.7111968809158814 -0.08657633703425013 0 0 0 0
9590772 0.2844683658186522 0.011590075863318339 0.7107876886207323 -0.0871190546908528 0 0 0 0
9623718 0.2844967728530847 0.011466276795366392 0.710964973320193 -0.08738677240133251 0 0 0 0
9656664 0.2845851199790465 0.011533063853201415 0.710829440323773 -0.08731788303169614 0 0 0 0
9689610 0.28449269213081513 0.01148810619753408 0.7105314828502691 -0.08739762500640198 0 0 0 0
9722556 0.28456550716961093 0.011550514617826706 0.7109630704479758 -0.08789822232373755 0 0 0 0
9755502 0.28469445480551375 0.011442408867439982 0.7104456137580599 -0.08808626203769461 0 0 0 0
9788448 0.28473913460237693 0.011418088868089921 0.7105793350192956 -0.0885565659647202 0 0 0 0
9821394 0.2846688055262586 0.011332639242323679 0.710208638038024 -0.08864410412842742 0 0 0 0
9854340 0.28490357714945325 0.011243920723715082 0.7106215734815566 -0.08922848002893946 0 0 0 0
9887286 0.2847923012887965 0.01127728138665754 0.7103912916015149 -0.08919583318702906 0 0 0 0
9920232 0.28487565755577676 0.011235877053121016 0.7105484296584508 -0.08963580806140097 0 0 0 0
9953178 0.2848501399043256 0.011175291280353434 0.7102598930307651 -0.09013380941546137 0 0 0 0
9986124 0.2848445307821072 0.011148954636481261 0.7104337495464366 -0.09040071699913328 0 0 0 0
10019070 0.2850453644656891 0.011308578430705702 0.7099551615505927 -0.09060180690232397 0 0 0 0
10052016 0.28503532688725497 0.011060761468972748 0.7099994589779026 -0.09049248752081257 0 0 0 0
10084962 0.2850115068175248 0.011196832418506742 0.7101366141646929 -0.0909178551433157 0 0 0 0
10117908 0.28504254042732724 0.011013930346319284 0.7100685523020859 -0.0914640230309488 0 0 0 0
10150854 0.2851935596978039 0.010782138547945372 0.7099183980847704 -0.09179611657473882 0 0 0 0
10183800 0.28529528561344814 0.010841773354257924 0.7101152859635446 -0.0921969365046458 0 0 0 0
10216746 0.2853436756530828 0.010945067577474718 0.7101246691945201 -0.09244450208656814 0 0 0 0
10249692 0.28528576411170353 0.010900731250730593 0.7095021835492988 -0.09263413680107142 0 0 0 0
10282638 0.28524636592087743 0.01077568933969224 0.7099044425728818 -0.09274630227166157 0 0 0 0
10315584 0.28530262788724026 0.010764324006991493 0.7096263511732261 -0.09320544214956358 0 0 0 0
10348530 0.2854247889032551 0.01063078575457064 0.709520781136395 -0.09302565040454167 0 0 0 0
10381476 0.28543514959749755 0.010548464025959813 0.7096043626265792 -0.0935582766201642 0 0 0 0
10414422 0.28546066743596205 0.010662513775009631 0.7095156012269285 -0.09394641731921885 0 0 0 0
10447368 0.28536740256887394 0.010544472922737646 0.7094563777437352 -0.09404787971238002 0 0 0 0
10480314 0.2855534844131438 0.010580957830438154 0.7094068515169183 -0.09451325639874197 0 0 0 0
10513260 0.2856818518223003 0.010534593638575517 0.7091075947900112 -0.09479057931972273 0 0 0 0
10546206 0.28568465394465803 0.010391904104175023 0.7091478496359456 -0.09530836690793634 0 0 0 0
10579152 0.2857548062768785 0.010566450613975103 0.7095575699498059 -0.09550134191318146 0 0 0 0
10612098 0.2857005837322479 0.010400863721841251 0.709206759975597 -0.0957543905061518 0 0 0 0
10645044 0.2857279722494897 0.01042848403574885 0.7088675204388253 -0.09585286647693898 0 0 0 0
10677990 0.28569778080358177 0.010357369357161953 0.7089468719928603 -0.09643376941983194 0 0 0 0
10710936 0.28589305943021476 0.01020867162174254 0.7092961011335633 -0.09664841452677544 0 0 0 0
10743882 0.2859110767894206 0.010205810415671668 0.7087060440716278 -0.09700353919820508 0 0 0 0
10776828 0.2859007178373756 0.010147805067050453 0.708655630056369 -0.09698985621071209 0 0 0 0
10809774 0.285963505402162 0.010182018712288254 0.7087145476530617 -0.09756640288769809 0 0 0 0
10842720 0.28603064252624155 0.010164473321067988 0.7087537035417812 -0.09766644566196142 0 0 0 0
10875666 0.286104921026569 0.010223008866760626 0.7083825298453406 -0.09801236967584466 0 0 0 0
10908612 0.28607009005550155 0.010060955036345985 0.7086207219970693 -0.09800626953326533 0 0 0 0
10941558 0.2860512429684457 0.01000753159227731 0.7083709642851054 -0.09847925955169481 0 0 0 0
10974504 0.2861321137161135 0.010016607240753504 0.7082986737255719 -0.09862567562587701 0 0 0 0
11007450 0.28622631507218077 0.009879299939026467 0.7082750834362166 -0.09920172807576591 0 0 0 0
11040396 0.28634689924994267 0.009807161118833483 0.7082555435638265 -0.09915486273654249 0 0 0 0
11073342 0.2863084034458483 0.009812676511099634 0.7086300726310635 -0.09991451284789306 0 0 0 0
11106288 0.2863299812805056 0.009847357698583923 0.7078743794013119 -0.10002667080919067 0 0 0 0
11139234 0.2864679290973023 0.009752186351367582 0.7081867940958524 -0.10019009674119518 0 0 0 0
11172180 0.2864656779699098 0.009667762272641236 0.7080512572726083 -0.10033977181686106 0 0 0 0
11205126 0.2863887448273755 0.009753736864387505 0.7078003043085687 -0.10058996196380521 0 0 0 0
11238072 0.2866797174866767 0.00975999229809193 0.7078869979269585 -0.10125082541420184 0 0 0 0
11271018 0.28642346019237513 0.009659913435287798 0.7080841895199003 -0.10117158003539768 0 0 0 0
11303964 0.2866114432180507 0.009450105485156278 0.7079738567760681 -0.10181281365044537 0 0 0 0
11336910 0.28666427368222935 0.009621087187145348 0.7076942753295149 -0.10203605731144932 0 0 0 0
11369856 0.28668393497295214 0.009546799655456888 0.7074284310461115 -0.10189516809917243 0 0 0 0
11402802 0.28672994153669545 0.009391745816712087 0.7077181006678569 -0.10237885995763195 0 0 0 0
11435748 0.28675115615604607 0.00940139514459681 0.7072847672429561 -0.1026522791340076 0 0 0 0
11468694 0.2869306384547444 0.009341999164863347 0.7075228207048747 -0.10300682954904775 0 0 0 0
11501640 0.28700707383821217 0.009333967295572102 0.7074460825231849 -0.10344494161767212 0 0 0 0
11534586 0.2868524385969665 0.009345936020519622 0.7076771673352698 -0.10374816283741434 0 0 0 0
11567532 0.2871830081374345 0.009238551367717184 0.707474596856384 -0.10373903611576439 0 0 0 0
11600478 0.2868867628913161 0.009406656663489787 0.7068726265875341 -0.1040886057337734 0 0 0 0
11633424 0.2871154691865449 0.00932788695582393 0.7072156871863933 -0.10420795709236798 0 0 0 0
11666370 0.28722721388182354 0.009247412092174504 0.7071344870885404 -0.10483691958228614 0 0 0 0
11699316 0.287020109756158 0.009162359528529574 0.7068813734039286 -0.10516665736215637 0 0 0 0
11732262 0.2872197547370079 0.009098109131841994 0.707304304620361 -0.10527715109278021 0 0 0 0
11765208 0.28740536958745827 0.009128282101563419 0.7068377040837013 -0.10534312697369606 0 0 0 0
11798154 0.28712494875396927 0.009112288236900358 0.7068173853922852 -0.10554808052578207 0 0 0 0
11831100 0.2874601159550478 0.008917177079939066 0.7066317490976287 -0.10621352522188139 0 0 0 0
11864046 0.2872803976352216 0.008956690374957773 0.7064162198169092 -0.10639744512266125 0 0 0 0
11896992 0.28733257317294125 0.008825159188604974 0.7063605634192005 -0.10659275941474898 0 0 0 0
11929938 0.28735889498843586 0.008855235168144288 0.7064026017430171 -0.10688713701785856 0 0 0 0
11962884 0.2875793527994515 0.008812148225959396 0.7065023577179578 -0.10681427327352476 0 0 0 0
11995830 0.2874271388215626 0.00874768551073559 0.7061762916727826 -0.10729870738385563 0 0 0 0
12028776 0.28754163495038265 0.008727691068881091 0.7059854925814592 -0.10788543774980555 0 0 0 0
12061722 0.2877786962649188 0.00872653168951128 0.7061348668842329 -0.10820409618362577 0 0 0 0
12094668 0.28777422553079396 0.008610503816668766 0.7062276477504044 -0.1083394666412561 0 0 0 0
12127614 0.2877847573099204 0.008612228618941786 0.7060664335070674 -0.10881998524855747 0 0 0 0
12160560 0.2877593387135256 0.008672355274486046 0.7062051768062436 -0.10897184054287201 0 0 0 0
12193506 0.28778461793485016 0.008567991096408342 0.7060964571748471 -0.10961271439782838 0 0 0 0
12226452 0.28779832474947875 0.008659580287455561 0.7057185433156193 -0.10937917952530579 0 0 0 0
12259398 0.28813033421528245 0.008493427457740411 0.7057653589260172 -0.10981404059532165 0 0 0 0
12292344 0.2879582289789319 0.008550216800211138 0.7057620373789206 -0.11008269963724909 0 0 0 0
12325290 0.288021812332516 0.008387255645495417 0.7055776395487346 -0.11035571699420939 0 0 0 0
12358236 0.28804321784908204 0.008248208051323782 0.7057749423380836 -0.11049434898866317 0 0 0 0
12391182 0.28792718269750894 0.008457863570457514 0.7057234010607689 -0.11086174488948881 0 0 0 0
12424128 0.2880212149815056 0.008277931918224759 0.7052343209132876 -0.11146346982013454 0 0 0 0
12457074 0.288037106035001 0.008235833952072545 0.7053510994343979 -0.11142637336218582 0 0 0 0
12490020 0.2881831698407093 0.008164523522530732 0.705431388618629 -0.11187063627121709 0 0 0 0
12522966 0.2882664724041595 0.008060508550401503 0.7052655522560859 -0.11205046057063694 0 0 0 0
12555912 0.28840751755541955 0.008194485558083782 0.7050673314272242 -0.11247606320806798 0 0 0 0
12588858 0.2884007567666407 0.008216832919013647 0.7050732148444163 -0.1125364329374072 0 0 0 0
12621804 0.28841681519468826 0.008041574983190334 0.7049191378353927 -0.11271574776898169 0 0 0 0
12654750 0.28851160808878695 0.007962835560879011 0.7051051666983961 -0.11282582689844492 0 0 0 0
12687696 0.2882842807394143 0.008043872612493607 0.7045737191472088 -0.11337273559440807 0 0 0 0
12720642 0.2884500707497088 0.008065471817720568 0.7046935727337164 -0.11382310566499283 0 0 0 0
12753588 0.28840408471198886 0.007954117156169402 0.7047892750323563 -0.114063865372375 0 0 0 0
12786534 0.28854633215954356 0.00783450548529445 0.7046444380205874 -0.11440277942242853 0 0 0 0
12819480 0.288742839985169 0.007837459625973412 0.7050512940009165 -0.11461696653584673 0 0 0 0
12852426 0.2886157078127204 0.007747016731664848 0.7044700664758042 -0.1151392158023206 0 0 0 0
12885372 0.28864300905525464 0.007734132575922815 0.7044598938021418 -0.11510156935946554 0 0 0 0
12918318 0.2886109645114849 0.0078069931193547135 0.7041444128516081 -0.11522623736779547 0 0 0 0
12951264 0.2889443014320522 0.007759553418239543 0.7042942066816296 -0.11574368122091315 0 0 0 0
12984210 0.28880754337014003 0.00768004482963459 0.7043340088584248 -0.11592893910623618 0 0 0 0
13017156 0.28881311742002186 0.007564942786745293 0.7043475277089317 -0.11625519916530783 0 0 0 0
13050102 0.2888886542635406 0.007530807090687814 0.7040717846551958 -0.11656925917312015 0 0 0 0
13083048 0.28902885614007884 0.007459935884277621 0.7042218957355492 -0.1169091310213487 0 0 0 0
13115994 0.2890174417833031 0.007617662021619319 0.7039012967654084 -0.11722224745171672 0 0 0 0
13148940 0.2890916337891619 0.0074631812420862045 0.7039891529504103 -0.11716687706242596 0 0 0 0
13181886 0.2890289491629376 0.007326143601441352 0.7038773732440452 -0.11788073853078881 0 0 0 0
13214832 0.28911143752503926 0.007382491218966105 0.7038377653383348 -0.1179522494049604 0 0 0 0
13247778 0.28927105686212 0.00731938693880542 0.7037383607440346 -0.11819404640099208 0 0 0 0
13280724 0.2891644230108094 0.007321681657650158 0.7036976819217716 -0.11854104098843096 0 0 0 0
13313670 0.2893540540866409 0.007143282718923794 0.7033865607158974 -0.1185695170141021 0 0 0 0
13346616 0.2894083844655828 0.0072118356179394225 0.7032805487949902 -0.11919521574400574 0 0 0 0
13379562 0.2894271249193755 0.007186512910572464 0.7034316150100864 -0.11925787659313372 0 0 0 0
13412508 0.28941829735089086 0.007207632977114967 0.7033733132850373 -0.11962372942165898 0 0 0 0
13445454 0.28943642117880414 0.007122011489775697 0.7033895716874189 -0.1198839173720645 0 0 0 0
13478400 0.2895051108600349 0.007042462690186354 0.7031252578171274 -0.12034391869236062 0 0 0 0
13511346 0.289459174681278 0.007024251401100279 0.7030990801930415 -0.12073489884390932 0 0 0 0
13544292 0.28958084079943536 0.007041912769113138 0.7035685217877371 -0.12065993565328363 0 0 0 0
13577238 0.28968849175054245 0.006897644989476521 0.7030297592871725 -0.12130982660820076 0 0 0 0
13610184 0.2897427365240254 0.007012551532970786 0.7029870672565371 -0.12131631948796472 0 0 0 0
13643130 0.2897454202235996 0.006843978322736898 0.7024726810866556 -0.12139161063601678 0 0 0 0
13676076 0.28985080588606615 0.00679798807276533 0.7026614716207403 -0.12182208341284793 0 0 0 0
13709022 0.28995955144053687 0.006665530767342592 0.7026407284844081 -0.12233480406692153 0 0 0 0
13741968 0.2898208534074717 0.006840511919389515 0.7026816640244886 -0.12234359577719059 0 0 0 0
13774914 0.2898723502897252 0.006782463226170472 0.7025117807535349 -0.12228506941489242 0 0 0 0
13807860 0.2899170073209625 0.006663234068200014 0.7027281770998218 -0.12269039301643452 0 0 0 0
13840806 0.2899571435672497 0.006573797856436862 0.7023745859674893 -0.12331801539090044 0 0 0 0
13873752 0.29021705304640827 0.0064521345209574855 0.7021533249382765 -0.12358851660789527 0 0 0 0
13906698 0.2901095626098112 0.006579101217936568 0.7019751840520034 -0.12353754236253996 0 0 0 0
13939644 0.2900408134966616 0.006627669756189428 0.7019956238337133 -0.12381394016577615 0 0 0 0
13972590 0.2900982047833245 0.006341258173924605 0.7021743143216042 -0.12449596918234629 0 0 0 0
14005536 0.2901004275924797 0.006534812704448902 0.7019213802871381 -0.12466988446282441 0 0 0 0
14038482 0.2903627048448428 0.006353141769347376 0.7019988057723832 -0.12513122298014712 0 0 0 0
14071428 0.2903736124765351 0.0063735538413318095 0.7018599058507254 -0.12512996323632486 0 0 0 0
14104374 0.29034700248851036 0.00631531134090477 0.7019674972288497 -0.12584227611129847 0 0 0 0
14137320 0.29035204055620273 0.006297629274325111 0.701937298873596 -0.12599331609747239 0 0 0 0
14170266 0.29048407749033067 0.006238818232128829 0.7015565062737654 -0.12587652082749495 0 0 0 0
14203212 0.29034685761453466 0.006251040858601632 0.7016023978040541 -0.12608698345322922 0 0 0 0
14236158 0.2905359706089554 0.006141037223489972 0.7013877180462575 -0.12665340248887738 0 0 0 0
14269104 0.2906073752633861 0.006168226272269525 0.7009553704735009 -0.1266500592907152 0 0 0 0
14302050 0.29081260506002216 0.006208534275835884 0.701184233730293 -0.12719105852686668 0 0 0 0
14334996 0.2906420479612965 0.006062721630789637 0.7009795952212994 -0.12761236704051185 0 0 0 0
14367942 0.2906816471367674 0.006038332145003123 0.7011382107735332 -0.12762309798702673 0 0 0 0
14400888 0.29066148182426826 0.006082540149058473 0.7010858334741499 -0.12794944476125175 0 0 0 0
14433834 0.2909361541531516 0.005892416596161489 0.7004065503271596 -0.12835092943892706 0 0 0 0
14466780 0.290977755413804 0.005889653455679317 0.7010251721288738 -0.1284111331550835 0 0 0 0
14499726 0.2911004071465565 0.005698049033657384 0.7011699188766881 -0.12908415316277605 0 0 0 0
14532672 0.29121660492874835 0.005735837163497484 0.7008273287966428 -0.12919877434817884 0 0 0 0
14565618 0.29091896060107814 0.005944041808444355 0.7007267987422051 -0.1292005065522304 0 0 0 0
14598564 0.29110836721590916 0.005740596427059002 0.7003517212960226 -0.12947151274619886 0 0 0 0
14631510 0.2911500695761804 0.005715480042761862 0.7009925159713543 -0.129910721582295 0 0 0 0
14664456 0.29119058131956993 0.005613523421901579 0.7000880620390298 -0.13031070330073583 0 0 0 0
14697402 0.2913239353052328 0.005578272362147653 0.7004375736838729 -0.13055707865199256 0 0 0 0
14730348 0.2910829463191541 0.005750525255159265 0.7000575614184512 -0.13060516433994385 0 0 0 0
14763294 0.2911589421512998 0.0056168586150999195 0.7001330636499757 -0.13108089224014818 0 0 0 0
14796240 0.29140340963088485 0.005517632947309277 0.7003055826803236 -0.13148924338681944 0 0 0 0
14829186 0.29113323458684126 0.005517315434561315 0.6996785210210738 -0.1313029718336886 0 0 0 0
14862132 0.29146558694037245 0.005425957243386119 0.6996202388208056 -0.13175823162002867 0 0 0 0
14895078 0.29160843316651114 0.005353133937747944 0.6997132670873006 -0.13188562388289762 0 0 0 0
14928024 0.29132181455651696 0.005396760392905311 0.6996936833487227 -0.1322619510480187 0 0 0 0
14960970 0.29167480549248426 0.005280433702807564 0.6995388417715898 -0.1328578700704758 0 0 0 0
14993916 0.291708865437327 0.005293240114187186 0.6994620445085531 -0.1328630359591301 0 0 0 0
15026862 0.29160353314136594 0.005287063127435246 0.6997323744744639 -0.13348767963776365 0 0 0 0
15059808 0.291752840478789 0.005264942597505871 0.6994566140875667 -0.13348214841848594 0 0 0 0
15092754 0.2919751139325425 0.00514150069245871 0.6997446463534528 -0.13388523701941846 0 0 0 0
15125700 0.2919776765912953 0.005048175630560226 0.6995238355262355 -0.1342484210672268 0 0 0 0
15158646 0.29183647361410203 0.005205526879023751 0.6992276017698629 -0.13440347155272903 0 0 0 0
15191592 0.29186637007181004 0.005058743978195063 0.6992411976562021 -0.13428352248594982 0 0 0 0
15224538 0.29195307603701026 0.004964284916451004 0.6986945083334867 -0.13486292648903134 0 0 0 0
15257484 0.2919231681425633 0.00506421032868639 0.6992878821858461 -0.13532860912180422 0 0 0 0
15290430 0.2920317100870021 0.004921500768467965 0.6984054369663121 -0.13538849266799732 0 0 0 0
15323376 0.2921196488195341 0.004821644293822729 0.6984513388090356 -0.13571577381552877 0 0 0 0
15356322 0.2921976279697677 0.005015087847298773 0.6986086029879081 -0.13592395083964223 0 0 0 0
15389268 0.2921916648699801 0.004799621409228158 0.6984689318829066 -0.1363409198527887 0 0 0 0
15422214 0.2921860663918582 0.004797226228785219 0.6983369092172695 -0.13626894102943818 0 0 0 0
15455160 0.29215809218134653 0.004821512350195812 0.6985343491690353 -0.13697823769897607 0 0 0 0
15488106 0.29245740040686324 0.004680993240857402 0.6980553819577943 -0.13699097160406087 0 0 0 0
15521052 0.2923097814170699 0.004679386239206112 0.6982188700060608 -0.13707074310273024 0 0 0 0
15553998 0.29245746645341486 0.004566928044462674 0.697959520098091 -0.13739987015416888 0 0 0 0
15586944 0.2923728454183012 0.004590217289073493 0.6977633212693604 -0.13784885789838033 0 0 0 0
15619890 0.29264796150778094 0.0046009616622384834 0.6977445770485886 -0.13790869138291864 0 0 0 0
15652836 0.29244349793079233 0.00441960436254119 0.6980103247379678 -0.13846567423693698 0 0 0 0
15685782 0.2924425397676419 0.004501957149262637 0.6977950491607705 -0.1388029450439981 0 0 0 0
15718728 0.2927688825775792 0.0045335507408515606 0.6978002934257947 -0.1388748664276316 0 0 0 0
15751674 0.2926009466790207 0.00442866639352082 0.6973310538202404 -0.13922050495689126 0 0 0 0
15784620 0.29279824457324594 0.0044469609644603 0.6972865407811087 -0.13939992822161984 0 0 0 0
15817566 0.29279995556687305 0.004289585091649405 0.697883533362335 -0.13973907166672725 0 0 0 0
15850512 0.2929101768350619 0.004346014042289315 0.6978819496041061 -0.14019880470688273 0 0 0 0
15883458 0.293006674027805 0.004333671663008626 0.6969911046240248 -0.14026877915634697 0 0 0 0
15916404 0.29286871088044264 0.004230043171416685 0.6971112015105703 -0.14056837317172838 0 0 0 0
15949350 0.2929905176032874 0.004221428889736672 0.6969005562169295 -0.14086633984365482 0 0 0 0
15982296 0.2930173262458867 0.004032238628350577 0.6971602161503785 -0.141338063736208 0 0 0 0
16015242 0.293167086945916 0.004036381152311149 0.69686818901834 -0.14166076444215847 0 0 0 0
16048188 0.29313557428513226 0.004233239082354897 0.6970974628174954 -0.14183365940063059 0 0 0 0
16081134 0.2931886168362536 0.003908609350434516 0.6965418717330782 -0.14197849830482406 0 0 0 0
16114080 0.2931657229977144 0.004040026838097313 0.697114445789454 -0.1424055433793589 0 0 0 0
16147026 0.29328200049780984 0.003928623931470408 0.6964406504218308 -0.14248955163095553 0 0 0 0
16179972 0.2933775487232845 0.0038451709169693084 0.6962965474339743 -0.14268950744471426 0 0 0 0
16212918 0.2934304541133032 0.00373959543426013 0.6962364111787172 -0.14297918487633504 0 0 0 0
16245864 0.2934228205387879 0.0037917268622692187 0.6965236026513376 -0.14347567181471946 0 0 0 0
16278810 0.29337679531186367 0.003874564706920589 0.6967262931687388 -0.1435802922248045 0 0 0 0
16311756 0.2935227702738073 0.003765170152951407 0.6960821874205648 -0.14401612171639766 0 0 0 0
16344702 0.29362982572362084 0.0036898932915615888 0.6957300847885168 -0.14381035050001584 0 0 0 0
16377648 0.2937241638634713 0.003625519410627946 0.6958958893585917 -0.14407903149923304 0 0 0 0
16410594 0.29366173922387145 0.003564517929378535 0.6957649008028196 -0.14534325618495586 0 0 0 0
16443540 0.2937753892995012 0.003519658277543037 0.6954988685934139 -0.14481938733273952 0 0 0 0
16476486 0.2937325046990839 0.0034603209861891553 0.6953938941800305 -0.14516283331750915 0 0 0 0
16509432 0.29375503833562894 0.00349371375415599 0.695649903020366 -0.1457008484129462 0 0 0 0
16542378 0.2939038656485336 0.00345944702954037 0.695555597039286 -0.1456041086031593 0 0 0 0
16575324 0.29401791270803773 0.0032751190257791596 0.6953415082455581 -0.14607680646952537 0 0 0 0
16608270 0.2939253434588725 0.0032480734878562703 0.6952417733988548 -0.1463489433929452 0 0 0 0
16641216 0.2940594793704176 0.0033244915172040124 0.6951000492055283 -0.14671141635067247 0 0 0 0
16674162 0.29419801543791624 0.003242727443616754 0.6950142058445402 -0.14677982398710832 0 0 0 0
16707108 0.2944683054359434 0.003257514189559668 0.6948998064238756 -0.1470764408792797 0 0 0 0
16740054 0.2943627162222173 0.0032919739004544438 0.6951264058520333 -0.14762621653761474 0 0 0 0
16773000 0.29419539318930593 0.0032726298567194363 0.6948924749851797 -0.14763822734334628 0 0 0 0
16805946 0.2946327738295812 0.002978510243384707 0.6944574807343971 -0.1477877595230668 0 0 0 0
16838892 0.294300215657657 0.003114448450630333 0.6953216792298386 -0.14804912729010103 0 0 0 0
16871838 0.2943895917351812 0.003134922862984828 0.6941903603354 -0.14837511812905155 0 0 0 0
16904784 0.2945910812150248 0.0029576285034008656 0.6942607742164747 -0.14869000809228716 0 0 0 0
16937730 0.29433908786932966 0.003130136983828091 0.6944564574109064 -0.14925463310806444 0 0 0 0
16970676 0.2945403786815552 0.002763668381896033 0.6940641115916175 -0.14907126873226112 0 0 0 0
17003622 0.2946055394017232 0.002889102549902155 0.6941093164301253 -0.1495885040725515 0 0 0 0
17036568 0.2945503451586224 0.002949264387578322 0.6940200397673825 -0.15001848514045682 0 0 0 0
17069514 0.2944390061106836 0.002842906895473076 0.6938837595467657 -0.14990539901898425 0 0 0 0
17102460 0.2948002687022583 0.002858593014588824 0.6938835441955336 -0.15071898729286476 0 0 0 0
17135406 0.29472699036376265 0.0026931725277801436 0.6940214809745371 -0.1506447858593649 0 0 0 0
17168352 0.2947180704911663 0.002852066147848291 0.6938951148765629 -0.15108589000529063 0 0 0 0
17201298 0.29489124386080234 0.0026876882789350575 0.6938273195154933 -0.1510951095739654 0 0 0 0
17234244 0.29507003156041656 0.0025989782218733596 0.6934414586520969 -0.15150164318728215 0 0 0 0
17267190 0.29493601251522156 0.002618839093105884 0.6933111352820152 -0.15187160987368137 0 0 0 0
17300136 0.2950510695771875 0.0024076305932290987 0.6933005762634606 -0.15188313477490048 0 0 0 0
17333082 0.29512367642764187 0.002408116387468926 0.6930202377269868 -0.152040502030358 0 0 0 0
17366028 0.2950654026545685 0.0023740205259592355 0.6931928871589704 -0.15263119575833498 0 0 0 0
17398974 0.29495608099467063 0.0025472253357042927 0.6931141861495254 -0.15281184306992945 0 0 0 0
17431920 0.2951024745822355 0.0024787237865580335 0.6928525132846103 -0.1531794857546751 0 0 0 0
17464866 0.29557955910474565 0.002317105857915815 0.6926796424038414 -0.15315700436489718 0 0 0 0
17497812 0.295511859169021 0.002310963222804816 0.6929807618882973 -0.15330031618531528 0 0 0 0
17530758 0.2955342637054934 0.0022242424233039626 0.6927038422534882 -0.15392319360534654 0 0 0 0
17563704 0.2956631805170849 0.002117731892143362 0.6922622905799685 -0.15376442869590276 0 0 0 0
17596650 0.29543803146670955 0.001971211133628275 0.6924202675804808 -0.15465297033867698 0 0 0 0
17629596 0.2955705119116414 0.002094556514050431 0.6917667058137537 -0.1544077642610575 0 0 0 0
17662542 0.29573167652282367 0.0022323884844138078 0.6922113202698308 -0.15460660040434893 0 0 0 0
17695488 0.29566796221794645 0.001904683654561392 0.6920552062768904 -0.15495769273544951 0 0 0 0
17728434 0.295636607465011 0.0020651499864013053 0.6919482690808262 -0.1550278647409789 0 0 0 0
17761380 0.2958219733789051 0.002022463158586994 0.6923885149943444 -0.15584384223519665 0 0 0 0
17794326 0.2956430431606676 0.001903036630427585 0.6922294357068937 -0.15575498166984558 0 0 0 0
17827272 0.29580531168614105 0.0017298826819597602 0.6918815338935301 -0.1563590273314626 0 0 0 0
17860218 0.2957312010883032 0.0016994147054493888 0.6919324869335195 -0.15651580332212062 0 0 0 0
17893164 0.2959334722116005 0.0018096743872764228 0.6913482174481466 -0.15647655988421272 0 0 0 0
17926110 0.29593201070550834 0.0018020224272409285 0.6913872527014828 -0.15680031873418673 0 0 0 0
17959056 0.2960235460887286 0.0018155057986169077 0.6916155295014438 -0.15758146814205962 0 0 0 0
17992002 0.2960316024386882 0.0015838911044339405 0.6910230412430103 -0.15713629167806872 0 0 0 0
18024948 0.29626680268887834 0.0016442448611757657 0.6911517746315637 -0.1575505680305272 0 0 0 0
18057894 0.29608544386985736 0.0015766918137631604 0.6910742243293811 -0.15815233440591225 0 0 0 0
18090840 0.29628712805425395 0.0018288828344578912 0.6913888723401843 -0.15856752620619977 0 0 0 0
18123786 0.29610304602109366 0.0013605210904759117 0.6907072630841927 -0.15835422947816896 0 0 0 0
18156732 0.29637108157730235 0.0013618102095951533 0.6908134817992828 -0.1592143447186226 0 0 0 0
18189678 0.2965826926971337 0.0013951205643882882 0.6905196583980446 -0.15887538572005383 0 0 0 0
18222624 0.29653887106536275 0.0012191754085231412 0.6906580813805743 -0.15961882595656507 0 0 0 0
18255570 0.2963352707971993 0.001140325885814338 0.6902505433588355 -0.1597416588689867 0 0 0 0
18288516 0.29619621966159726 0.0014498691390628217 0.6900810566611989 -0.15976449904833187 0 0 0 0
18321462 0.296534507559188 0.0011987195714309336 0.6901170695252097 -0.16034983328534894 0 0 0 0
18354408 0.2964088212110161 0.0009957466553619575 0.6900906181089098 -0.16030414547216218 0 0 0 0
18387354 0.29661017004534745 0.0011749434356931564 0.6902833444740134 -0.1605412052456122 0 0 0 0
18420300 0.29691577004000175 0.0010684309857078758 0.6898749780584453 -0.16073842038528405 0 0 0 0
18453246 0.2966541329581973 0.0011352792385131267 0.6899881128089101 -0.16151800988592635 0 0 0 0
18486192 0.2968838467351681 0.0010304121017827227 0.6899166918494799 -0.16173780152135817 0 0 0 0
18519138 0.29699279365475045 0.0009048114809619975 0.6893139715060389 -0.16173379084281836 0 0 0 0
18552084 0.29699213878072256 0.0009275014727357532 0.6896329935752384 -0.16195530703596017 0 0 0 0
18585030 0.2969443584545966 0.0009339903763859935 0.6894158515548038 -0.16261335225283371 0 0 0 0
18617976 0.2970139260756476 0.0009325750548831371 0.6895212442047866 -0.16262008121804214 0 0 0 0
18650922 0.2971496276613573 0.000702478232129444 0.689195669172616 -0.16300930840020414 0 0 0 0
18683868 0.2971364740402307 0.0008790855797026895 0.6894478440116274 -0.16323405050662776 0 0 0 0
18716814 0.29719435262193 0.0006440351648648589 0.6888684560004865 -0.16313334005140026 0 0 0 0
18749760 0.2973643246969156 0.0006007898828150754 0.6887444488212084 -0.1634063663992635 0 0 0 0
18782706 0.29712766029268206 0.0005322001734634422 0.6889288459439541 -0.16386310303243626 0 0 0 0
18815652 0.2974123356347673 0.0005536344107131228 0.6890160862745742 -0.16394745873303948 0 0 0 0
18848598 0.2974310080004974 0.0005053676190830658 0.6888676856935064 -0.16447190127129543 0 0 0 0
18881544 0.297457525812206 0.0004086917939731575 0.6882860325111883 -0.16478861035933356 0 0 0 0
18914490 0.29752763736069343 0.0005801849917928325 0.6888814367999062 -0.16495468463930166 0 0 0 0
18947436 0.2974958528125303 0.00016513897204742487 0.6884092119434047 -0.16517785102438745 0 0 0 0
18980382 0.29765999057788084 0.0003553811548235616 0.688397576771177 -0.1653358758777638 0 0 0 0
19013328 0.2976690615491012 0.0004068058412506118 0.688484679226528 -0.16572324829397997 0 0 0 0
19046274 0.29776542539564843 0.00021743805472756398 0.6880073748735271 -0.166098210331619 0 0 0 0
19079220 0.29763925949933173 0.0003151003841972642 0.688199713187126 -0.16650593832834876 0 0 0 0
19112166 0.29785543769017003 0.00014348947041246016 0.6879055326828777 -0.16664583064669947 0 0 0 0
19145112 0.2976193645199875 -3.667025577631325e-05 0.6877145119998038 -0.16691810461175968 0 0 0 0
19178058 0.29799651077697525 0.00014479551402958468 0.687936691854444 -0.16735276655294595 0 0 0 0
19211004 0.2979570036303219 1.66425763772643e-05 0.6874233448614061 -0.16750688670896674 0 0 0 0
19243950 0.29803794508536924 -3.326108286455005e-05 0.6874783747212411 -0.16769473811449012 0 0 0 0
19276896 0.29797077075781764 4.877328859319914e-05 0.6873609403799366 -0.168021822489908 0 0 0 0
19309842 0.2980843606548007 -0.000253139997563256 0.687404018498126 -0.16829898221272543 0 0 0 0
19342788 0.2983223936833663 -8.12031559005728e-06 0.6873395610719198 -0.16859114924931876 0 0 0 0
19375734 0.2981561185899319 -1.3712931401770011e-05 0.6869500093117638 -0.1683925064771344 0 0 0 0
19408680 0.29831963097210384 -0.0002166911628328908 0.6871525727184352 -0.16891704552613662 0 0 0 0
19441626 0.29836930707768733 -0.00024023077062319072 0.6868507072832465 -0.168981226274128 0 0 0 0
19474572 0.29820789611350096 -0.0003524558253067211 0.6866093053591529 -0.1694705490468523 0 0 0 0
19507518 0.29850061029678787 -0.0003022063550333854 0.6867865848827489 -0.16979447543586218 0 0 0 0
19540464 0.29838869991856815 -0.0003087695874255768 0.686244077660712 -0.17040040530815173 0 0 0 0
19573410 0.2985498601005979 -0.0006147014247237854 0.6864103463984805 -0.1706878775514903 0 0 0 0
19606356 0.2985347554526834 -0.00044077939746791576 0.686082556682743 -0.17044356657547974 0 0 0 0
19639302 0.2987063780518741 -0.000502272568021677 0.6863057295779523 -0.17080310992296668 0 0 0 0
19672248 0.2986948857045563 -0.0005746795867797341 0.6859180004478046 -0.170992655200037 0 0 0 0
19705194 0.2987461856842412 -0.000560698733649282 0.6862313574117415 -0.17114521642650005 0 0 0 0
19738140 0.2988601392848149 -0.000616351771662096 0.6861204245126242 -0.1710593831599421 0 0 0 0
19771086 0.2988169681778378 -0.0005796783947771343 0.6856813463642558 -0.1717378836649389 0 0 0 0
19804032 0.29881035097799374 -0.000770472506065525 0.6857297875022967 -0.17230817868785878 0 0 0 0
19836978 0.2989650974613657 -0.000817288056103353 0.6852978073279481 -0.1720788401057404 0 0 0 0
19869924 0.29896654696278313 -0.0008166620775939091 0.68546428379949 -0.17251731380719432 0 0 0 0
19902870 0.29892135927199703 -0.0007789858291972153 0.685082668994429 -0.17300661355086294 0 0 0 0
19935816 0.299080176518052 -0.0009590207203593253 0.6852309375744918 -0.1729719907213059 0 0 0 0
19968762 0.29913058627408495 -0.0009287035513780873 0.6851622323883614 -0.1734641376357034 0 0 0 0
20001708 0.2992559530921649 -0.0011139543271678862 0.6851236325216742 -0.17369412689723912 0 0 0 0
20034654 0.2991188012334965 -0.001213410017477822 0.6849431668849412 -0.17405998681387003 0 0 0 0
20067600 0.2993347485680412 -0.0009615831348696462 0.6851020427021649 -0.17377421927667672 0 0 0 0
20100546 0.29929589630372994 -0.000988145100874879 0.6844921492818428 -0.17433148527743347 0 0 0 0
20133492 0.2995141252541269 -0.001325923298360111 0.684677736463261 -0.1749141886413414 0 0 0 0
20166438 0.2993260953774367 -0.0012813722007353648 0.6843356106540959 -0.17501340312047017 0 0 0 0
20199384 0.2995067082465477 -0.0013128275925075035 0.6842353682501058 -0.17501731400987125 0 0 0 0
20232330 0.2995659777293647 -0.0012783968743515718 0.6847218396019479 -0.1756751075047375 0 0 0 0
20265276 0.29964838864394305 -0.0013867339978116504 0.6841635142975837 -0.17575022669750265 0 0 0 0
20298222 0.29968991404705175 -0.0015317514410193652 0.6842569857546383 -0.17636965617984343 0 0 0 0
20331168 0.29976209625548966 -0.0014124933990004003 0.6837913993519255 -0.17622208402473258 0 0 0 0
20364114 0.2997116836504171 -0.001555480715241186 0.6838862232758196 -0.17676364292665547 0 0 0 0
20397060 0.2998421112452198 -0.0016204346211651597 0.6839164412371245 -0.17679683476262267 0 0 0 0
20430006 0.29996887919343546 -0.0016597601910296551 0.6840445887922971 -0.17733945583475233 0 0 0 0
20462952 0.2999739195934315 -0.0015468188196741182 0.6834647374926999 -0.17747072114256585 0 0 0 0
20495898 0.30011045274106446 -0.0016214114641095766 0.6835871168663763 -0.17777162232189836 0 0 0 0
20528844 0.29997194907674873 -0.0016300050930241384 0.6835070407010906 -0.17806706062103236 0 0 0 0
20561790 0.3001388990211052 -0.0017131048472753705 0.6838552604827699 -0.1784418699476324 0 0 0 0
20594736 0.3002289065488914 -0.0018830304782652746 0.6831879573006796 -0.1783632138085379 0 0 0 0
20627682 0.300172454557837 -0.0017532325668639813 0.6828215408487383 -0.178545248586848 0 0 0 0
20660628 0.30035958603431856 -0.0018608040727821785 0.6830139075743111 -0.17919931569823397 0 0 0 0
20693574 0.30026396310948544 -0.0019360960671961644 0.6830195005052346 -0.1795198593532492 0 0 0 0
20726520 0.300202005601276 -0.002003568083694943 0.6828867033603017 -0.17950248096148233 0 0 0 0
20759466 0.3002417210900906 -0.0020606042863798154 0.6824758672409722 -0.17958816848738018 0 0 0 0
20792412 0.3004591082124413 -0.0021410417006479613 0.6830636652745026 -0.18010479479458635 0 0 0 0
20825358 0.3006416245685566 -0.0021401014267021447 0.6822867293809927 -0.17989982344860622 0 0 0 0
20858304 0.3005722896608498 -0.002091259388180862 0.6821286336787816 -0.1804907433268676 0 0 0 0
20891250 0.300673086757474 -0.002222519170968314 0.6822191826340694 -0.18078247319433097 0 0 0 0
20924196 0.3005949519110047 -0.0022337179718781137 0.6820025794535969 -0.18094330239959613 0 0 0 0
20957142 0.3007613496366363 -0.002316923862566153 0.6821921126488912 -0.18163373934311677 0 0 0 0
20990088 0.3008461824064655 -0.0024651329510517604 0.6819748772424278 -0.1817465392391534 0 0 0 0
21023034 0.30084135778338555 -0.00242177186703122 0.6817488581446114 -0.1820259991634867 0 0 0 0
21055980 0.30101029187887485 -0.002425065262217165 0.6816246463592327 -0.18185703421775612 0 0 0 0
21088926 0.3009006835318831 -0.002619827172891011 0.681813475934274 -0.18242798752443523 0 0 0 0
21121872 0.3007168589381489 -0.0025092008271557988 0.6810641394618844 -0.1821972874734904 0 0 0 0
21154818 0.3011075758998819 -0.0025346568389573226 0.6814529056199212 -0.18271704116925572 0 0 0 0
21187764 0.3011299854426871 -0.00262151415286116 0.6814096730915357 -0.18344542242830025 0 0 0 0
21220710 0.3010550726465944 -0.0027156592297405764 0.6808860494058762 -0.18298546075036365 0 0 0 0
21253656 0.3012776991639927 -0.0028424356604351596 0.6810232970945934 -0.1833323948141928 0 0 0 0
21286602 0.301303505288697 -0.0027162388190673722 0.6807917068081455 -0.1839023173187434 0 0 0 0
21319548 0.3013580803148484 -0.0028485002349379783 0.680812996725961 -0.18407325114685863 0 0 0 0
21352494 0.301422762871058 -0.0029761121722495392 0.6803245941927034 -0.18400400418395357 0 0 0 0
21385440 0.30134340821867645 -0.002971863570970682 0.6799764529432917 -0.1843346951868955 0 0 0 0
21418386 0.30149235463609375 -0.0029372924903733762 0.680535134255063 -0.18490061337308605 0 0 0 0
21451332 0.3014989351750679 -0.0030120442016806346 0.6800911619284428 -0.18487146383396055 0 0 0 0
21484278 0.30160502911105097 -0.0031661104839630087 0.680285279344833 -0.18530637019435184 0 0 0 0
21517224 0.30172343233203563 -0.003179067134791493 0.6801144028574706 -0.18606157963606335 0 0 0 0
21550170 0.30171139607415826 -0.003292033174458773 0.6795807329931671 -0.18605082122161543 0 0 0 0
21583116 0.30177425678017583 -0.003335019050250748 0.6794208730931038 -0.185985064100466 0 0 0 0
21616062 0.30190995937445353 -0.003208926239654671 0.6800741969686257 -0.18663991548108594 0 0 0 0
21649008 0.301843094718129 -0.0033584029006880974 0.679205688858997 -0.18617870491978056 0 0 0 0
21681954 0.30189799797129485 -0.0032740917515474595 0.6792780430114195 -0.18641193513742682 0 0 0 0
21714900 0.30194959154042117 -0.0034234191339198266 0.6796211953397894 -0.1876109680218084 0 0 0 0
21747846 0.30197568180971 -0.003421637551732689 0.6791612859801953 -0.18749237200525498 0 0 0 0
21780792 0.3020873814899908 -0.003423337881856714 0.6791955715601353 -0.1876188606504629 0 0 0 0
21813738 0.30209650614931705 -0.003533507165727771 0.6786714474750583 -0.1875112813288237 0 0 0 0
21846684 0.3023101448960259 -0.0036057859637719973 0.679011650081013 -0.1880512233197802 0 0 0 0
21879630 0.30229111674047787 -0.003555862382563133 0.6785486731516612 -0.1884966172170821 0 0 0 0
21912576 0.3024144889561307 -0.0036218199336333625 0.6788634407657318 -0.18887043897109385 0 0 0 0
21945522 0.30237559840733547 -0.003670543101241818 0.6784390122244315 -0.18896145427100888 0 0 0 0
21978468 0.30232146011803623 -0.0037510626598833627 0.6783918461601303 -0.18879669622873824 0 0 0 0
22011414 0.30244398381206833 -0.0036990115281895853 0.6785993086362907 -0.1897068756871575 0 0 0 0
22044360 0.30247203047952825 -0.00389624101766195 0.6780859017099805 -0.18905288813382745 0 0 0 0
22077306 0.3026432311153112 -0.003930908478977517 0.6781967269289317 -0.1897594784283108 0 0 0 0
22110252 0.30264253895423565 -0.004022968766976917 0.6777272193807493 -0.1903679904027646 0 0 0 0
22143198 0.3027296704402444 -0.00415586687675882 0.6779785212087931 -0.19070281020274688 0 0 0 0
22176144 0.3027330323765733 -0.004102421211389791 0.6778019659337879 -0.190918070829893 0 0 0 0
22209090 0.3028539955628533 -0.004041348134151661 0.6778013703953528 -0.19103935585697038 0 0 0 0
22242036 0.30290043748755063 -0.004140004995868878 0.6775727608058283 -0.1914185528567293 0 0 0 0
22274982 0.30273902461135055 -0.004094451256437721 0.6772261379965351 -0.19157721330313568 0 0 0 0
22307928 0.3028758749759644 -0.00436085835462986 0.677605935189747 -0.19184926001907618 0 0 0 0
22340874 0.3028760217627228 -0.0041603807741524106 0.6771775400140688 -0.19199469234994634 0 0 0 0
22373820 0.3029621868476411 -0.004327799609307038 0.6768760524324475 -0.1922894152220653 0 0 0 0
22406766 0.3029378246556827 -0.004326885446410674 0.6766060224219973 -0.19217353575832358 0 0 0 0
22439712 0.3032855675124306 -0.004485855291232718 0.6767860073928881 -0.19257083804221217 0 0 0 0
22472658 0.3033255082210477 -0.004433719805035726 0.6765982660210585 -0.19322661926029092 0 0 0 0
22505604 0.30335598987836615 -0.004459483898666275 0.6764299393433824 -0.19330021723602106 0 0 0 0
22538550 0.30337049270131683 -0.0047242999889610515 0.6763801441214706 -0.19366730445676938 0 0 0 0
22571496 0.3032425820423363 -0.004565591958136725 0.6761348545592419 -0.19335470915820896 0 0 0 0
22604442 0.3034381541917999 -0.004552872378106547 0.6764454069446793 -0.19414424726694912 0 0 0 0
22637388 0.3034155920470207 -0.004722412645671075 0.6759842003016776 -0.1939859563645472 0 0 0 0
22670334 0.3036620574096256 -0.004800315579424843 0.6760121535225972 -0.19463394465933193 0 0 0 0
22703280 0.3036712365385081 -0.004831908985254285 0.6758241487927829 -0.19485227279146153 0 0 0 0
22736226 0.30373694276992264 -0.005097208023370919 0.6759664871246999 -0.19522899387711698 0 0 0 0
22769172 0.30361463718784 -0.004891288107960827 0.6754656999016535 -0.19501274983258227 0 0 0 0
22802118 0.3037463432819164 -0.004929242010820607 0.675506238678893 -0.1954957873200969 0 0 0 0
22835064 0.3040389413006935 -0.005080892711729289 0.6754212481883823 -0.19623709704416736 0 0 0 0
22868010 0.3038579611779177 -0.005109660183975011 0.674847671260513 -0.19609768327308275 0 0 0 0
22900956 0.30386725557048544 -0.0052236214539319445 0.6748354173960325 -0.19640484327399296 0 0 0 0
22933902 0.30384794200453763 -0.005221555159401008 0.6748207713402051 -0.19633819011323023 0 0 0 0
22966848 0.304079478096742 -0.005294650217669345 0.6754279952455462 -0.19706682545182952 0 0 0 0
22999794 0.30399829022994934 -0.00538840924784576 0.6748370668257757 -0.19668500411337278 0 0 0 0
23032740 0.3043337887929512 -0.005504837323171706 0.6747847966246016 -0.1977649733739054 0 0 0 0
23065686 0.30406768313174776 -0.0054952082866056426 0.6743781771954699 -0.19778581185551652 0 0 0 0
23098632 0.30432037114752886 -0.005492036240208699 0.6744263988577054 -0.19802826880097835 0 0 0 0
23131578 0.30428252746933876 -0.005651086315631532 0.674704670848382 -0.19806112147636967 0 0 0 0
23164524 0.30428783323646097 -0.005620729314360006 0.6744022453136458 -0.19816910697071094 0 0 0 0
23197470 0.3044274618482395 -0.005483288039129143 0.674055110809351 -0.19863063669838538 0 0 0 0
23230416 0.3045027648707745 -0.005598015229196392 0.6736971208911497 -0.19843201072620315 0 0 0 0
23263362 0.30444643957735906 -0.00568376683649837 0.6736653058074473 -0.1988275339010805 0 0 0 0
23296308 0.3046764964992181 -0.005662379307755011 0.6737551927380616 -0.19922405582695643 0 0 0 0
23329254 0.3048370773490723 -0.005853233924946908 0.6737101617165282 -0.19970497513342067 0 0 0 0
23362200 0.30463988807053616 -0.005958403009373083 0.6734725172344729 -0.20009642593555554 0 0 0 0
23395146 0.30464267862999717 -0.0057982371770778415 0.6734306711787821 -0.19998496064856602 0 0 0 0
23428092 0.3048569536657873 -0.005927606845951403 0.6731791121268107 -0.2001544449382825 0 0 0 0
23461038 0.3050973793872535 -0.006092446129629558 0.6732161945224716 -0.20099539540867542 0 0 0 0
23493984 0.3048141167960023 -0.006084955975399992 0.6728812168553103 -0.20083858811147293 0 0 0 0
23526930 0.3050624095774155 -0.006224297535882836 0.6729953906955898 -0.20110651531433799 0 0 0 0
23559876 0.30509448078401624 -0.006124851268175771 0.6725868978239723 -0.20126981647719808 0 0 0 0
23592822 0.30532200034840506 -0.006153167167684084 0.6728740094875753 -0.20182765628815552 0 0 0 0
23625768 0.3049592558329482 -0.006154953425542523 0.6722695341352461 -0.20215900481879193 0 0 0 0
23658714 0.30515994446181394 -0.006359803056153704 0.6721554212395173 -0.2021230375774088 0 0 0 0
23691660 0.30532098857643797 -0.006457633450925636 0.6724450514915261 -0.2022596177387255 0 0 0 0
23724606 0.30520952467473966 -0.006386790869346287 0.6721744777216576 -0.20235123905959096 0 0 0 0
23757552 0.30536646333897094 -0.006462780053218312 0.6720934760401962 -0.20283182450277376 0 0 0 0
23790498 0.3053943670361168 -0.006432426191672961 0.6720896858652332 -0.20296331737740744 0 0 0 0
23823444 0.305429085540073 -0.006555633093101841 0.6715216040048156 -0.20327764274561386 0 0 0 0
23856390 0.30553612266773467 -0.006628945743790069 0.672074246612621 -0.20355549541593695 0 0 0 0
23889336 0.3054869357826839 -0.006530546116520645 0.6715356570489813 -0.20359867792059647 0 0 0 0
23922282 0.30565768752315775 -0.00679675395235099 0.6713569474237949 -0.20423929105900163 0 0 0 0
23955228 0.3057453996117932 -0.006804309841834571 0.6713864434971737 -0.20419791199688722 0 0 0 0
23988174 0.3056680957934407 -0.006908670536847124 0.6710098869831169 -0.20502739916199858 0 0 0 0
24021120 0.3057397143446663 -0.006921733264837258 0.6707829198783749 -0.20477692199934222 0 0 0 0
24054066 0.30591088642183756 -0.0070298952975948814 0.6713741670773279 -0.2051748560965398 0 0 0 0
24087012 0.30601072035564086 -0.007045101054206933 0.6705592763672082 -0.2053892712008549 0 0 0 0
24119958 0.30598277999558254 -0.006888077717134118 0.670425363437745 -0.20525823870750065 0 0 0 0
24152904 0.3062840828444211 -0.007083749279274447 0.6707435457702489 -0.20584376098020885 0 0 0 0
24185850 0.3060190761495739 -0.007221542607375429 0.6702972391404478 -0.20654843189145136 0 0 0 0
24218796 0.3060580977696179 -0.007139088641638823 0.6701656277606536 -0.20627353472060642 0 0 0 0
24251742 0.3062760368871836 -0.00713154257118444 0.6701210915144865 -0.2066845272194014 0 0 0 0
24284688 0.30637505682534516 -0.00729688645505976 0.6704231862004901 -0.2068489387771898 0 0 0 0
24317634 0.3064949953399582 -0.007396969197087915 0.6702250864337308 -0.2070165125709414 0 0 0 0
24350580 0.3063183008466319 -0.007428947459661754 0.6694744313484173 -0.20734341168761009 0 0 0 0
24383526 0.306422326082132 -0.007558411184692255 0.6697105262102943 -0.20749812498569287 0 0 0 0
24416472 0.3064655661971887 -0.007327874428957838 0.6696053536331478 -0.20779024732122545 0 0 0 0
24449418 0.3066218486895818 -0.007602417398096452 0.6695119319873849 -0.20801866994572396 0 0 0 0
24482364 0.30659364441723125 -0.007529192329420346 0.6690234389447066 -0.20792883175572013 0 0 0 0
24515310 0.30662651229225946 -0.00779337759035532 0.6692691708102475 -0.20917456920826677 0 0 0 0
24548256 0.3066088883714112 -0.00771206129131353 0.6686984987089789 -0.20882113292528434 0 0 0 0
24581202 0.3067605367604155 -0.007932041802908322 0.6691977389878652 -0.20927406698737722 0 0 0 0
24614148 0.30668691243677754 -0.0076471300990285825 0.6688404777491703 -0.2090514629437612 0 0 0 0
24647094 0.3069643632035464 -0.007842774937928235 0.6688327985738518 -0.20989275572585517 0 0 0 0
24680040 0.3071462530439398 -0.00806701548990118 0.6685663275193618 -0.2098788729617992 0 0 0 0
24712986 0.3071659995769005 -0.00788386406262103 0.6687020828635268 -0.21000117373499122 0 0 0 0
24745932 0.3070291082759514 -0.00792670667178793 0.6682834452382547 -0.21006673336866843 0 0 0 0
24778878 0.30717170404890204 -0.008047997111372388 0.6683664898535748 -0.21077667308767853 0 0 0 0
24811824 0.30696310221325956 -0.008133167198073683 0.6678173660548626 -0.21073698274313038 0 0 0 0
24844770 0.30728942060071784 -0.008309606527407512 0.6681154589697913 -0.21126411032350192 0 0 0 0
24877716 0.3073474653844646 -0.008239262435347075 0.6676594357550379 -0.21124608817830653 0 0 0 0
24910662 0.3074062361604686 -0.008196974601390104 0.6674174401143323 -0.21125332958904958 0 0 0 0
24943608 0.3075972436184268 -0.008331817602325901 0.6677360637288303 -0.21196930317613322 0 0 0 0
24976554 0.3074985340437229 -0.008465235964668178 0.6674090858527872 -0.21226695209583218 0 0 0 0
25009500 0.3075304085139841 -0.008488111043903339 0.6672160505275706 -0.21253226971439762 0 0 0 0
25042446 0.30762071664495805 -0.008522857358366952 0.6669189577204611 -0.21236560118863596 0 0 0 0
25075392 0.30765279710837695 -0.008491507466166686 0.667204443054431 -0.21293730683847115 0 0 0 0
25108338 0.3077659828781715 -0.008679019928236794 0.666869109010301 -0.21302720714093382 0 0 0 0
25141284 0.3078599735680305 -0.008708101158848515 0.666918247250998 -0.2128985149626934 0 0 0 0
25174230 0.30780385052964193 -0.008682276879095445 0.6665997978698313 -0.2136998822700802 0 0 0 0
25207176 0.30782462935359006 -0.00874377941052947 0.6663067094154443 -0.21342786802285477 0 0 0 0
25240122 0.30794840197885104 -0.008791268681372876 0.6666726296517564 -0.21425646685344338 0 0 0 0
25273068 0.3080317564790738 -0.008809719651914677 0.6663656152090794 -0.21436919589787876 0 0 0 0
25306014 0.308165454869262 -0.00891840968738839 0.6662483535961652 -0.21465570385893537 0 0 0 0
25338960 0.3082010473694158 -0.008885428322336965 0.666274860869971 -0.21477841367779832 0 0 0 0
25371906 0.3081604883613664 -0.009252086429479759 0.6659593458051435 -0.2150821155311339 0 0 0 0
25404852 0.3081449786958799 -0.009146192898447196 0.665237343370818 -0.21510857016771967 0 0 0 0
25437798 0.30839338110384823 -0.009053191867159483 0.6659837311642721 -0.2154705138231977 0 0 0 0
25470744 0.3084417886593496 -0.00920987303242751 0.6654408586380595 -0.21573235385411074 0 0 0 0
25503690 0.30834954676104287 -0.009261064772764074 0.6650884330426791 -0.21568095739079238 0 0 0 0
25536636 0.3085109078739622 -0.009392518276761503 0.6654587888762062 -0.2164175639484228 0 0 0 0
25569582 0.3084404351793739 -0.009442033867878128 0.6650722150853694 -0.21662664642296417 0 0 0 0
25602528 0.3085426619528522 -0.009495789935229582 0.6648482063958355 -0.21675293555039807 0 0 0 0
25635474 0.3086695381957259 -0.009619699020890082 0.6651286868236957 -0.21712237529673326 0 0 0 0
25668420 0.30873376509620903 -0.009482284828085642 0.665334019393383 -0.21696171246050994 0 0 0 0
25701366 0.3088414791001458 -0.00959630487976346 0.6649745552869801 -0.2175245289792729 0 0 0 0
25734312 0.3088735577233503 -0.009600646166216255 0.6644661391596158 -0.2172190975345277 0 0 0 0
25767258 0.3087639507297041 -0.009760414853459394 0.6644725735300128 -0.21820160064306357 0 0 0 0
25800204 0.3089444097791221 -0.009851483114981607 0.6645211304431338 -0.21829875086960235 0 0 0 0
25833150 0.3089322163865115 -0.00963687672178032 0.6638219094461261 -0.21815616754897363 0 0 0 0
25866096 0.3089771229661095 -0.009691290340873614 0.6637202570534981 -0.21849191586885142 0 0 0 0
25899042 0.3092208280728258 -0.009971329328675506 0.6638074547180088 -0.21838856597835204 0 0 0 0
25931988 0.30905966188678563 -0.00995496283731679 0.6633290786797343 -0.21884017447802928 0 0 0 0
25964934 0.30921002010514936 -0.009998706622957657 0.663553162517924 -0.219399313091943 0 0 0 0
25997880 0.30936694412126997 -0.009981980393807734 0.6635853670408934 -0.2195098733841334 0 0 0 0
26030826 0.30939401982489073 -0.010196604725996736 0.6634955120003058 -0.21968333940177998 0 0 0 0
26063772 0.30932546947382183 -0.010228872370531742 0.6630177651484055 -0.21980260179160163 0 0 0 0
26096718 0.30937492467169136 -0.010360141685986195 0.6631539188567966 -0.22032752564828403 0 0 0 0
26129664 0.3096020408369936 -0.010438618610444126 0.6632503449806342 -0.22085225589987115 0 0 0 0
26162610 0.30937137482522403 -0.010267617286018976 0.6626774320948359 -0.22056714771232414 0 0 0 0
26195556 0.3096579800127924 -0.01031283193663254 0.6623733502988013 -0.22069885127761807 0 0 0 0
26228502 0.30974579732201185 -0.010408338095492681 0.6623815109327796 -0.2208202697520683 0 0 0 0
26261448 0.3097462888727429 -0.01045635358834241 0.6623501764046211 -0.22113040513509805 0 0 0 0
26294394 0.3096793843479596 -0.010671921470234717 0.6623798343623465 -0.22201436146471992 0 0 0 0
26327340 0.3097556352627483 -0.010760156480360713 0.6618214256419485 -0.22228052104152568 0 0 0 0
26360286 0.3098411301421784 -0.010722617523552056 0.6622759639144556 -0.2225165113426404 0 0 0 0
26393232 0.3098575791416761 -0.010673569343375678 0.6620578319544805 -0.22266868182478203 0 0 0 0
26426178 0.3098024374802808 -0.010772890613577557 0.6619422529530966 -0.222950948057609 0 0 0 0
26459124 0.31009289793338485 -0.010820977086499298 0.6611682866576505 -0.22267910045575004 0 0 0 0
26492070 0.31014035009583585 -0.010766686983034792 0.6613738391810083 -0.22301708001245635 0 0 0 0
26525016 0.31017841168341964 -0.010900030563955063 0.6612833747838156 -0.22324894286051356 0 0 0 0
26557962 0.31018232830630227 -0.011085179724714454 0.6610387551135267 -0.22387974490604393 0 0 0 0
26590908 0.31038962035809403 -0.011094305702247018 0.6609094084374053 -0.2240537697576538 0 0 0 0
26623854 0.31028005228765804 -0.011088937196962894 0.6614726329324744 -0.22441384037821072 0 0 0 0
26656800 0.31031326222853295 -0.011162596988033952 0.6606882029390868 -0.22448087701013056 0 0 0 0
26689746 0.31064622379751106 -0.011205938480894208 0.6608809913706375 -0.22465615875205192 0 0 0 0
26722692 0.31056024207434124 -0.011298711197788447 0.6604835499513825 -0.22452298706118587 0 0 0 0
26755638 0.31057706366435267 -0.011473398001580952 0.6604005190527893 -0.2254548961004455 0 0 0 0
26788584 0.3106165665053136 -0.011290081293691754 0.6605768967025071 -0.22548170362547465 0 0 0 0
26821530 0.31071780653352354 -0.01147581568462957 0.6603325577179855 -0.2257416252536026 0 0 0 0
26854476 0.3107596864422814 -0.011441709686685248 0.6599737266783968 -0.22565132253682454 0 0 0 0
26887422 0.3108008803072601 -0.011657783092577036 0.6597227199372097 -0.22632442309830172 0 0 0 0
26920368 0.3108522811938687 -0.011689574445919067 0.659644603525624 -0.22636920329418397 0 0 0 0
26953314 0.31099390192104237 -0.011759290311660134 0.6595074762429093 -0.22629503613644936 0 0 0 0
26986260 0.3110323134342813 -0.011571216929427733 0.6597386222128943 -0.22676639326825826 0 0 0 0
27019206 0.3112398745054486 -0.01182612730514666 0.6593171869590162 -0.22704609812204601 0 0 0 0
27052152 0.31123560644395304 -0.011773829428962775 0.659154112628129 -0.22730579463605036 0 0 0 0
27085098 0.31119869565006164 -0.011877812308489239 0.6590230408370485 -0.22739075497661762 0 0 0 0
27118044 0.31116320993449664 -0.011915669648528781 0.6591420147572926 -0.22760482669454626 0 0 0 0
27150990 0.31124440782609913 -0.012129981269961027 0.6587786476093497 -0.2280180628244596 0 0 0 0
27183936 0.31120938281749977 -0.012254223024074206 0.6586456803747165 -0.2283238762428227 0 0 0 0
27216882 0.31155085780051683 -0.012286553983052865 0.658438253498408 -0.22836820317552342 0 0 0 0
27249828 0.31134448923977887 -0.0121162348747014 0.6585386964448647 -0.22863627068448059 0 0 0 0
27282774 0.3117477439366199 -0.01230998810275465 0.65807097732038 -0.22871085582464482 0 0 0 0
27315720 0.31144996525276486 -0.012333073510426305 0.6581177924090835 -0.2290020803577662 0 0 0 0
27348666 0.31156915446024086 -0.01241291493093458 0.6582444963658756 -0.2291490952244161 0 0 0 0
27381612 0.31159829650288734 -0.012670040680933706 0.6579752463627139 -0.22997296517076923 0 0 0 0
27414558 0.31189623011317724 -0.012585669967958719 0.6575454117288024 -0.2299359427730426 0 0 0 0
27447504 0.3118407735072166 -0.012478899730927012 0.6580078897689954 -0.23013908942304936 0 0 0 0
27480450 0.3119565557896716 -0.012587845448477632 0.6573618005856495 -0.23003292377156562 0 0 0 0
27513396 0.3120910642544221 -0.012663091167962107 0.6573422554105482 -0.230763747672297 0 0 0 0
27546342 0.31196797421060934 -0.012737983364718047 0.6574006739770186 -0.2306932754483723 0 0 0 0
27579288 0.3119535465293773 -0.01289659007511553 0.6568836985386143 -0.23114389009013658 0 0 0 0
27612234 0.3120831536740524 -0.012783401789318648 0.6569751510078388 -0.23162618202458124 0 0 0 0
27645180 0.31239355252068274 -0.012768086292963403 0.6569906189062312 -0.231594544526323 0 0 0 0
27678126 0.3122387179743091 -0.013082645247367634 0.6567646031033869 -0.23162811665208707 0 0 0 0
27711072 0.3122520839109445 -0.0130659095714157 0.6564041332239628 -0.2321587824982329 0 0 0 0
27744018 0.312334836178972 -0.013101881153809518 0.6565883808847804 -0.23237591006358552 0 0 0 0
27776964 0.3125786221978364 -0.013137682449461886 0.6560954686208363 -0.23244021035827653 0 0 0 0
27809910 0.312493025049143 -0.013398682588164278 0.6559470290282081 -0.23247771344719168 0 0 0 0
27842856 0.3123961739835084 -0.013269276310617847 0.6561215260509591 -0.2328976048039181 0 0 0 0
27875802 0.31258552925135674 -0.013285962368444565 0.6559556858257668 -0.2333755314770875 0 0 0 0
27908748 0.31261398073350777 -0.013182929761341505 0.6556961936963943 -0.2332632440396786 0 0 0 0
27941694 0.3128208360234016 -0.013303073046730802 0.6554051902522078 -0.2335052695832418 0 0 0 0
27974640 0.3127958201719523 -0.013496811316128808 0.6553766691363402 -0.23404916963905167 0 0 0 0
28007586 0.3125921413060012 -0.01350441638817879 0.6550740687567236 -0.2339873382243605 0 0 0 0
28040532 0.31288111588268014 -0.013680678505765376 0.6550625459291864 -0.23426059983599992 0 0 0 0
28073478 0.3128906227125796 -0.013518544141374421 0.6549806574781123 -0.23449322462075523 0 0 0 0
28106424 0.31307812846637617 -0.013604612200718605 0.6550727185855998 -0.23483005162133583 0 0 0 0
28139370 0.31298288834391774 -0.013803219474249125 0.654824150611167 -0.2352424145598253 0 0 0 0
28172316 0.3129630287818184 -0.01387787858931608 0.6545930306578361 -0.23496913914430775 0 0 0 0
28205262 0.313154289345481 -0.013994254090158174 0.6546206538850579 -0.2357402838192873 0 0 0 0
28238208 0.31325717304327777 -0.014014640725543445 0.6544302463222774 -0.23591239668307362 0 0 0 0
28271154 0.3133050476375855 -0.013901211111393762 0.6542531961161244 -0.23594816777943528 0 0 0 0
28304100 0.31365838952592645 -0.01406956562833139 0.6540463378403416 -0.23639089404818764 0 0 0 0
28337046 0.3132716397726361 -0.014158464400392185 0.6538075712925148 -0.23664401238538008 0 0 0 0
28369992 0.31336556546472 -0.014393115615724537 0.6536828892629335 -0.23697281413510524 0 0 0 0
28402938 0.3133851033702195 -0.01433981501062543 0.6536969858825752 -0.2368491281425905 0 0 0 0
28435884 0.3134969576181599 -0.014377446919967262 0.6531949830575765 -0.2371924711690149 0 0 0 0
28468830 0.31361097979519664 -0.01437874264480808 0.653712621563603 -0.23735163421560806 0 0 0 0
28501776 0.3136998328697813 -0.014469915948297427 0.6529479096519195 -0.2375040725102561 0 0 0 0
28534722 0.3139167674358824 -0.014469072964325334 0.6530544007505916 -0.2378219480477812 0 0 0 0
28567668 0.3138524551237194 -0.014675486698129028 0.6529915601342582 -0.23843109951984076 0 0 0 0
28600614 0.3139443936426106 -0.01465096202108778 0.653213596762734 -0.2386951604391656 0 0 0 0
28633560 0.3139788116018747 -0.014651876069611817 0.6524513972899861 -0.23844540268626405 0 0 0 0
28666506 0.31379948747211384 -0.014647244402898012 0.6527949445688973 -0.23879836780913322 0 0 0 0
28699452 0.3140221472499773 -0.014883872135523082 0.6522890393613584 -0.23884923670915126 0 0 0 0
28732398 0.314222215727694 -0.014852863648317857 0.6525769554222093 -0.23965856189676935 0 0 0 0
28765344 0.3141266306164726 -0.01490645091706663 0.6519586536750002 -0.23946782254274546 0 0 0 0
28798290 0.3144210375277229 -0.014924778376000434 0.6524524003428857 -0.2400200878715696 0 0 0 0
28831236 0.3141523879052021 -0.015098596671357784 0.651925027928051 -0.24002068420072445 0 0 0 0
28864182 0.31437376447205795 -0.015192718520761792 0.6515446828904072 -0.24032431422782813 0 0 0 0
28897128 0.3143657135031499 -0.015129259434785726 0.6513089194408087 -0.24037531149431435 0 0 0 0
28930074 0.3145761518012445 -0.015154254939289484 0.6515413279536317 -0.24050819110592603 0 0 0 0
28963020 0.31442564167430465 -0.015369451183693142 0.651313001835108 -0.2412210040501071 0 0 0 0
28995966 0.31450813051110676 -0.015491987781577727 0.6511001940021682 -0.24073838449442667 0 0 0 0
29028912 0.3145680368294045 -0.015441848200945688 0.6510906951232401 -0.2414217746651285 0 0 0 0
29061858 0.31457695456841944 -0.01550555450073598 0.6503144529001601 -0.24161408282609 0 0 0 0
29094804 0.31485859142569156 -0.015477762547064641 0.6506212428494736 -0.24171192875251074 0 0 0 0
29127750 0.31477102498649584 -0.015609906950778036 0.6508973612963733 -0.24206626410141074 0 0 0 0
29160696 0.3147857187144521 -0.015838518483558228 0.6503286153431571 -0.2422071415196375 0 0 0 0
29193642 0.31501928770874515 -0.015688467866447932 0.6506205311912918 -0.24290676600179864 0 0 0 0
29226588 0.3151166319642328 -0.01571042275893937 0.6506256238279139 -0.24309800548294283 0 0 0 0
29259534 0.31525734201533356 -0.01579391324505706 0.6502422743829768 -0.24346586559068256 0 0 0 0
29292480 0.3150059976750668 -0.015937696046110728 0.649737799699391 -0.24318609591128787 0 0 0 0
29325426 0.3151773771524233 -0.016045810853258034 0.6497112201009438 -0.24346208962612137 0 0 0 0
29358372 0.3152533253631321 -0.015944354595039654 0.6495667900023955 -0.24394657214036225 0 0 0 0
29391318 0.3152652549564027 -0.01604462550523417 0.6493486162423879 -0.24387294456353517 0 0 0 0
29424264 0.31542169830053957 -0.016087803922941846 0.6490181259683825 -0.2441726932600224 0 0 0 0
29457210 0.31546456959168484 -0.016191221525024748 0.6494532400392748 -0.24483691690351608 0 0 0 0
29490156 0.3153279002109348 -0.016301915763764673 0.6492653559480319 -0.24474308627967303 0 0 0 0
29523102 0.3154385274822261 -0.016345778762336293 0.6484928416755962 -0.24494388535392453 0 0 0 0
29556048 0.3154472926454662 -0.016514732174738787 0.6486762858802799 -0.24519800823780294 0 0 0 0
29588994 0.3156417456359319 -0.01646855806194294 0.6484200855083196 -0.24528348690168894 0 0 0 0
29621940 0.3157555682060545 -0.016469217819669056 0.6482055824804197 -0.24544603813690147 0 0 0 0
29654886 0.31590613289823083 -0.016547922554045535 0.648598385463001 -0.24598207453436835 0 0 0 0
29687832 0.3155658726030756 -0.016672519385198755 0.6479709324843953 -0.24597016186907272 0 0 0 0
29720778 0.3158667262551647 -0.016674696480330542 0.6480491746171357 -0.24610264936544715 0 0 0 0
29753724 0.31607333872362525 -0.01677837200842353 0.6480151202731679 -0.2468254396417189 0 0 0 0
29786670 0.31609525989419607 -0.016762823670270974 0.6479377726857839 -0.24710176818480775 0 0 0 0
29819616 0.31598877523486896 -0.01703697818945545 0.64720653209653 -0.24678134548438624 0 0 0 0
29852562 0.31619504436588053 -0.017103439367357347 0.6476323171571507 -0.24704785565375537 0 0 0 0
29885508 0.31626458767054083 -0.017008705385853546 0.6467968826581318 -0.24751398451316137 0 0 0 0
29918454 0.31629799644715273 -0.017068347984736082 0.6468678525139208 -0.24756014161623657 0 0 0 0
29951400 0.3164604809627967 -0.01709051675055327 0.6474320098404259 -0.24820493891780354 0 0 0 0
29984346 0.31621934229570453 -0.017235641507347767 0.6464348499003701 -0.2480785262320817 0 0 0 0
30017292 0.3163203598437721 -0.017260950056038026 0.6466473353421629 -0.24822115455215749 0 0 0 0
30050238 0.3164455650785332 -0.017333901128587282 0.6466475846653025 -0.24881066238251723 0 0 0 0
30083184 0.3165511553950986 -0.017360433528537028 0.6458352856302756 -0.24868270408536217 0 0 0 0
30116130 0.31662232076930885 -0.01736848798178817 0.6460569645923068 -0.24869014587000948 0 0 0 0
30149076 0.31669312576712877 -0.017480148219209277 0.6462638425478413 -0.24922052121473284 0 0 0 0
30182022 0.3166110987607113 -0.017543752849378147 0.6457082105697695 -0.2492622258483038 0 0 0 0
30214968 0.31679543043365704 -0.017779537423861534 0.6458247418776832 -0.2495664643360023 0 0 0 0
30247914 0.3168071016226558 -0.017614365357648817 0.6458312429059618 -0.2500280888740297 0 0 0 0
30280860 0.31697013340653135 -0.017695203287095684 0.6451776698064062 -0.2500752093468444 0 0 0 0
30313806 0.316973801931039 -0.017811330158993638 0.6458452140714358 -0.2505495392223373 0 0 0 0
30346752 0.3169836570040078 -0.01787425605897533 0.6454239157032676 -0.2507754841372482 0 0 0 0
30379698 0.31710932676877013 -0.018089457420798906 0.6450371321918543 -0.2506347284675884 0 0 0 0
30412644 0.31704748216368117 -0.018261545228832013 0.6452253279860607 -0.2515884690155153 0 0 0 0
30445590 0.3172537552701541 -0.01808560088387442 0.6451891964463126 -0.2517319593014571 0 0 0 0
30478536 0.3173485577676761 -0.01810588653181272 0.6447935746858703 -0.2516189468049138 0 0 0 0
30511482 0.3172527057008042 -0.017963848998951728 0.6442631517947386 -0.2517499927581502 0 0 0 0
30544428 0.31742474535591864 -0.018246651579070218 0.6447664878319749 -0.2523146382373582 0 0 0 0
30577374 0.3173487819820585 -0.018390267897359838 0.6441739279899776 -0.25179833261057344 0 0 0 0
30610320 0.31724793270001095 -0.018552124275834164 0.6441684626037015 -0.25254479933498997 0 0 0 0
30643266 0.3176735707427001 -0.01853044097263561 0.6440585400717147 -0.25245251651506506 0 0 0 0
30676212 0.3175780754348104 -0.01863383263093519 0.6439923060673515 -0.25305974806701054 0 0 0 0
30709158 0.3175868437677934 -0.018606471000377003 0.6438574602594827 -0.253035032746999 0 0 0 0
30742104 0.3177466389703906 -0.018579733320374194 0.6433021243028397 -0.2532770395776688 0 0 0 0
30775050 0.317814109344308 -0.018706680830633655 0.6432151308312498 -0.25359232851855895 0 0 0 0
30807996 0.31789693005393393 -0.01872811322568946 0.6437035023107605 -0.25383633175758047 0 0 0 0
30840942 0.3179141437988349 -0.018944429197446908 0.6434444419389264 -0.2541516679970227 0 0 0 0
30873888 0.3178853103647281 -0.018977960009797297 0.6430440474349142 -0.25417196677650417 0 0 0 0
30906834 0.31795613887288116 -0.0189997594893702 0.6426249753504484 -0.2542219231487901 0 0 0 0
30939780 0.318238429772957 -0.019114477861690342 0.6425438599250906 -0.25479203004552814 0 0 0 0
30972726 0.31817867977424497 -0.019018870145790994 0.6425166035733569 -0.25492650692429997 0 0 0 0
31005672 0.3181656475231466 -0.0191833143707522 0.6428476532590027 -0.25535679418352397 0 0 0 0
31038618 0.31813025285048097 -0.01933268294362679 0.6422995056059821 -0.25524309660595595 0 0 0 0
31071564 0.3182911616612553 -0.019142674180847804 0.6421035122290217 -0.2555634056110146 0 0 0 0
31104510 0.3185803684564697 -0.019446061124130803 0.6419592491685618 -0.2559520213429264 0 0 0 0
31137456 0.3185156343017289 -0.019446356998531325 0.6423205167666488 -0.25644016205939985 0 0 0 0
31170402 0.318353177982223 -0.01955122567836746 0.6415030483584268 -0.2561165303798538 0 0 0 0
31203348 0.3185108717935004 -0.01955820643086867 0.6415037442640765 -0.25605960909300335 0 0 0 0
31236294 0.3187518919185997 -0.019627887751391185 0.641116613684299 -0.2568146505295946 0 0 0 0
31269240 0.31882190745604555 -0.01969679736499657 0.6415570145353935 -0.2571699507622649 0 0 0 0
31302186 0.3185298025351148 -0.01971267003333064 0.6406328266772512 -0.25681554221650527 0 0 0 0
31335132 0.31868637250385595 -0.01984612943244133 0.6410805978403357 -0.2572815264369236 0 0 0 0
31368078 0.3189960404034075 -0.02001183885676684 0.6404675349311986 -0.257667006124972 0 0 0 0
31401024 0.31880979290136313 -0.019914576539219773 0.6402263139456914 -0.25763306610540787 0 0 0 0
31433970 0.3188370761071635 -0.02001944750463559 0.6400377629632138 -0.25770591736237375 0 0 0 0
31466916 0.319078759055958 -0.02027840089784737 0.6401620751888738 -0.25861671164771893 0 0 0 0
31499862 0.3192277887267651 -0.02031363105078147 0.6402087867498548 -0.2588344053318758 0 0 0 0
31532808 0.31909933957871356 -0.02023573040089618 0.6397871645436235 -0.25879304740142367 0 0 0 0
31565754 0.3191308431537433 -0.02020663828725192 0.6394534458906667 -0.25848677197875547 0 0 0 0
31598700 0.31917062148431746 -0.020513545135091505 0.6399289289731609 -0.2596401134668225 0 0 0 0
31631646 0.319297304739072 -0.020384593517908358 0.639583564408015 -0.25958888020698456 0 0 0 0
31664592 0.3195199895334019 -0.020543573615249416 0.6393223576931721 -0.259770766810627 0 0 0 0
31697538 0.3195310528846076 -0.020684839886410813 0.639952551780735 -0.2602195163202747 0 0 0 0
31730484 0.31944971402426414 -0.020657285452007554 0.638876048946124 -0.2597763386864277 0 0 0 0
31763430 0.31951867752190377 -0.020871805136447638 0.6389297041801064 -0.26044165375408396 0 0 0 0
31796376 0.31968204228778535 -0.020758872892331404 0.6392116139768098 -0.26080152837451803 0 0 0 0
31829322 0.3195910016678648 -0.020691372836011426 0.6384119806700725 -0.26054867721114683 0 0 0 0
31862268 0.3196632902668159 -0.021029805171998706 0.638766049259047 -0.2610544549437312 0 0 0 0
31895214 0.31983583909668084 -0.021193365498505132 0.6384449550628872 -0.26175716522038733 0 0 0 0
31928160 0.3198342465391057 -0.02124159904714109 0.6383151799406284 -0.2621252727099777 0 0 0 0
31961106 0.3199962017468203 -0.021253816792788257 0.6381729578444727 -0.2613679943101638 0 0 0 0
31994052 0.3200190674289362 -0.021318699867433902 0.6379946259469642 -0.26178253910315274 0 0 0 0
32026998 0.3199885761649483 -0.021133974179189115 0.637806691021476 -0.26222241588498735 0 0 0 0
32059944 0.32025549924357455 -0.021403680542605455 0.6375000865220635 -0.2626316407103978 0 0 0 0
32092890 0.320282166895393 -0.021356599269272022 0.6379167720891572 -0.26281818748247027 0 0 0 0
32125836 0.3200556685263127 -0.021435484620417136 0.6371796024778098 -0.26265598704775006 0 0 0 0
32158782 0.32027487179417563 -0.021500585812579888 0.6372877997581734 -0.2628582410499485 0 0 0 0
32191728 0.32047148597372516 -0.02154494787783727 0.6371655119911994 -0.26325583043779116 0 0 0 0
32224674 0.3205650254246427 -0.021638690240387115 0.6369226268447162 -0.26381039270614987 0 0 0 0
32257620 0.32050523806656145 -0.021647595136315076 0.6371968522225653 -0.2639681270618223 0 0 0 0
32290566 0.3204076738063635 -0.021890583489050253 0.6367537514536857 -0.26426428223314313 0 0 0 0
32323512 0.3206729904920892 -0.02195208791751399 0.6364398049323805 -0.26398765880092906 0 0 0 0
32356458 0.32052969449773194 -0.021765346371486433 0.6357710324928194 -0.26432189463129535 0 0 0 0
32389404 0.3206474043207146 -0.022016473030566423 0.6357481880606016 -0.26421508813479727 0 0 0 0
32422350 0.3206154127439686 -0.02216782788105623 0.6358472932417861 -0.2645965333896619 0 0 0 0
32455296 0.320690884912284 -0.022352910943165147 0.6359877836365634 -0.26558564154611153 0 0 0 0
32488242 0.3208874194326017 -0.022200677594233383 0.6360299317368306 -0.2650512869787666 0 0 0 0
32521188 0.32110020183464877 -0.02220431596628654 0.6358734328944391 -0.2655418673456139 0 0 0 0
32554134 0.32095095476360214 -0.02225702686204202 0.6346730496857678 -0.26549985218130917 0 0 0 0
32587080 0.3209684150222166 -0.02230131799511817 0.6351464349525161 -0.26572602240865983 0 0 0 0
32620026 0.32112813832013526 -0.022599164111564735 0.6354907946316557 -0.26634842514160345 0 0 0 0
32652972 0.3210193587524598 -0.022339608518634282 0.6345931995447615 -0.26572638520040637 0 0 0 0
32685918 0.3212677090721696 -0.022861717278340216 0.6350120655860513 -0.2671116159040217 0 0 0 0
32718864 0.3212925095503256 -0.022636182701813556 0.6345542219986335 -0.26657440510337255 0 0 0 0
32751810 0.3216378339738104 -0.022693907762520026 0.6343298107091484 -0.26738268482024424 0 0 0 0
32784756 0.321484686274499 -0.022661741920724468 0.6346016546345595 -0.267374216357258 0 0 0 0
32817702 0.3212833959692754 -0.022796495491160855 0.6337345627387186 -0.26704535364712756 0 0 0 0
32850648 0.32166529962294904 -0.023097685030221752 0.6342474933517341 -0.2682866891240709 0 0 0 0
32883594 0.32134878988544796 -0.022893522784247968 0.6338733388822329 -0.2677070722899788 0 0 0 0
32916540 0.32148654785167763 -0.0228926092539298 0.6338758475357025 -0.2677573740962744 0 0 0 0
32949486 0.32204985830701593 -0.02309536139576412 0.6334752171546104 -0.2686072900222318 0 0 0 0
32982432 0.3217518386446421 -0.023150228389356126 0.6332421407855916 -0.2685142809827761 0 0 0 0
33015378 0.3218335099881988 -0.02336479094498589 0.6335661278636847 -0.2691562235579382 0 0 0 0
33048324 0.32207774299844755 -0.02353662799459611 0.633291146978086 -0.2693150477433459 0 0 0 0
33081270 0.3218610603277009 -0.02326970398700579 0.6328872695155311 -0.2689866368365633 0 0 0 0
33114216 0.3221430241021237 -0.02358641503125284 0.6329840827275738 -0.26949434939843786 0 0 0 0
33147162 0.32207394034249504 -0.0234347991814548 0.632147830913187 -0.2694454391285087 0 0 0 0
33180108 0.3222869148159698 -0.023591453459292793 0.632587920972648 -0.2699811631252906 0 0 0 0
33213054 0.32220798337845774 -0.02380899931643996 0.6325748778435556 -0.270219702189657 0 0 0 0
33246000 0.32217226330389603 -0.023772947319465925 0.6322638603018684 -0.27038267443730046 0 0 0 0
33278946 0.32225499090347026 -0.02365912649919786 0.6319274679026328 -0.27040887614276554 0 0 0 0
33311892 0.3222913992754774 -0.02392448031715615 0.631867812273329 -0.27056309147040947 0 0 0 0
33344838 0.3223563571504003 -0.023863382736065496 0.6315744729062401 -0.270511398224759 0 0 0 0
33377784 0.3224188170808882 -0.023957855486474576 0.6315157899873307 -0.2710447121688162 0 0 0 0
33410730 0.3227350020162824 -0.02412106121818822 0.6317144545362917 -0.27160772377717457 0 0 0 0
33443676 0.3225495938247481 -0.024014407270066016 0.6312910364058836 -0.271591485356268 0 0 0 0
33476622 0.3226423110790958 -0.024171470147103354 0.6306996492348053 -0.2714699988344122 0 0 0 0
33509568 0.3227892014211798 -0.024223596393155796 0.6312715350607332 -0.272560184012509 0 0 0 0
33542514 0.3231124938579181 -0.0243258955455135 0.6309712074025207 -0.2722846554768033 0 0 0 0
33575460 0.3227506074672869 -0.024606059888808037 0.6304751524406353 -0.27277452946625225 0 0 0 0
33608406 0.322972860890884 -0.024512167300258614 0.6305607657540955 -0.2724965912377438 0 0 0 0
33641352 0.3230403148121181 -0.02451308890338057 0.630478545686452 -0.2731527591760844 0 0 0 0
33674298 0.32302747357641065 -0.02468137749917653 0.6303199126816349 -0.27337999311823763 0 0 0 0
33707244 0.32316902052355084 -0.02463519401280696 0.6298007890121329 -0.2728523431986877 0 0 0 0
33740190 0.3229177759219442 -0.024861629598772285 0.629610562855602 -0.2738860837823263 0 0 0 0
33773136 0.32334193188064486 -0.02475275232558816 0.6297908459632988 -0.27348860465127234 0 0 0 0
33806082 0.3232823281550141 -0.02502858353466465 0.6295504398516422 -0.27416742482348516 0 0 0 0
33839028 0.3233239039781623 -0.0252600441349406 0.6295155081205144 -0.27478439522863163 0 0 0 0
33871974 0.32343712679231684 -0.02510608148665923 0.6290081617164959 -0.2740737615333025 0 0 0 0
33904920 0.323260232754645 -0.025146567737403876 0.6292118852931551 -0.2751169081019261 0 0 0 0
33937866 0.323718953239438 -0.02522789273384592 0.6289592166394725 -0.2749151026422364 0 0 0 0
33970812 0.3236072557445734 -0.02526698476531555 0.6284145906477411 -0.2746050642594742 0 0 0 0
34003758 0.3236196177192633 -0.025356702676811407 0.6287567894585455 -0.27554613066998895 0 0 0 0
34036704 0.32362831447333984 -0.025377711776096646 0.6284207608762695 -0.27524615052905727 0 0 0 0
34069650 0.3237926255931129 -0.02549989768830988 0.6283597827902905 -0.2758116079864481 0 0 0 0
34102596 0.3239367317335238 -0.025738591133331556 0.6280711011247468 -0.27622985058231425 0 0 0 0
34135542 0.32384735923998037 -0.025649748784291708 0.6280861451772399 -0.2766976053559752 0 0 0 0
34168488 0.3241542668579025 -0.025748317116091508 0.628125402084665 -0.2765766443267776 0 0 0 0
34201434 0.3238255080939823 -0.02564095459082939 0.6278922631096414 -0.27680699508540607 0 0 0 0
34234380 0.32405394776042695 -0.025874868381623423 0.6275791150969667 -0.27674587957302793 0 0 0 0
34267326 0.324250861639328 -0.026097993047879277 0.6274878739880992 -0.27708335583765653 0 0 0 0
34300272 0.32438234020532825 -0.025988594281841502 0.6274119411353575 -0.27737357614657765 0 0 0 0
34333218 0.3242918050341851 -0.026052721622381616 0.6272733840532877 -0.2777735858673932 0 0 0 0
34366164 0.3243042823952529 -0.02612110152829625 0.6269445324826901 -0.27767229425316364 0 0 0 0
34399110 0.32431724222958647 -0.02611533238081353 0.6271091672755369 -0.27776709078939515 0 0 0 0
34432056 0.32454874087266555 -0.026390518763025752 0.6267954653295471 -0.27820542339515636 0 0 0 0
34465002 0.3244269965700997 -0.026191991278045466 0.6265336205383522 -0.27789164751797646 0 0 0 0
34497948 0.32449717550023255 -0.02634870706700234 0.62620214660891 -0.27844547957466936 0 0 0 0
34530894 0.32454665383279807 -0.02645208734486926 0.6259390816817421 -0.2788777621230508 0 0 0 0
34563840 0.3247017806608468 -0.026590408737826438 0.6257810336564144 -0.27910072514366957 0 0 0 0
34596786 0.32461257378488534 -0.026617870061896354 0.6257055547132285 -0.27917512491744384 0 0 0 0
34629732 0.32468535751374106 -0.026548892817647964 0.6254339868016057 -0.27922609997328846 0 0 0 0
34662678 0.32489674692781256 -0.026868423861761855 0.6255644491914034 -0.27969043255233444 0 0 0 0
34695624 0.3250245594647906 -0.026758515631472073 0.6254236303217267 -0.27952318714895835 0 0 0 0
34728570 0.3249414083987214 -0.026807009786651657 0.6253067320278675 -0.2801316891394925 0 0 0 0
34761516 0.3250625650882669 -0.02695497326130288 0.62505551525137 -0.27987597389423247 0 0 0 0
34794462 0.32495540136270573 -0.02696339727018516 0.6249263116189233 -0.2805648125372513 0 0 0 0
34827408 0.3251320460825835 -0.02713709500866497 0.6246969002339204 -0.280489609813545 0 0 0 0
34860354 0.3252063816879807 -0.027299822202991618 0.6243538292812854 -0.2811395266126123 0 0 0 0
34893300 0.3253456699904158 -0.027405515308187873 0.6242746760699861 -0.2812986894412604 0 0 0 0
34926246 0.325349257810447 -0.027269684659943463 0.6240961911933682 -0.2810481206662607 0 0 0 0
34959192 0.3254995585106928 -0.027457531579227628 0.6241571201559077 -0.2815223878323149 0 0 0 0
34992138 0.32539830994439417 -0.02740394761473975 0.623650884109061 -0.2816859792061747 0 0 0 0
35025084 0.32552715572473884 -0.027494190565085855 0.6237630609273127 -0.2817400221302833 0 0 0 0
35058030 0.32553732204426944 -0.02738736364101289 0.6235529788626681 -0.2819728211395035 0 0 0 0
35090976 0.3258062625071231 -0.027663036166457027 0.6234947530393347 -0.2820679096104115 0 0 0 0
35123922 0.3257717616599877 -0.02767041585087273 0.6233076665617086 -0.28233365492907003 0 0 0 0
35156868 0.32581678821233867 -0.027876592617726542 0.6230055569241584 -0.28267559872667114 0 0 0 0
35189814 0.325765586538269 -0.027913008369038546 0.6227469966460681 -0.283049814881232 0 0 0 0
35222760 0.3259534976347037 -0.02815245611164115 0.6228835445885587 -0.28373553221946757 0 0 0 0
35255706 0.32611898456556665 -0.02827418814498045 0.6225828377220104 -0.2837627091971378 0 0 0 0
35288652 0.32612840584968356 -0.02789527827621288 0.6226772051483299 -0.2831866388065132 0 0 0 0
35321598 0.3260489517653254 -0.028160632092806528 0.6223939724120489 -0.2838747370024453 0 0 0 0
35354544 0.3262591779461657 -0.02815941780683735 0.6224796416124212 -0.2846498639597366 0 0 0 0
35387490 0.32601495265728186 -0.028388689989979236 0.6220660172569711 -0.2842053613266993 0 0 0 0
35420436 0.3263591859836717 -0.02832724347310401 0.6217269576800767 -0.2842335020914712 0 0 0 0
35453382 0.3263679396146954 -0.02846062249432751 0.621908607434791 -0.2846898069625549 0 0 0 0
35486328 0.32634284934629887 -0.028685564835446146 0.6214398296891321 -0.2851870315645164 0 0 0 0
35519274 0.3265032506064316 -0.02861060439831473 0.6215806932460964 -0.28514511394456055 0 0 0 0
35552220 0.32647057375552635 -0.028578237525433047 0.6213119753828565 -0.28525221823564023 0 0 0 0
35585166 0.3266967130115391 -0.028776461222917 0.6206887892544742 -0.28506127760020245 0 0 0 0
35618112 0.3266580898468816 -0.02895295925233222 0.6208049107764532 -0.28572452280458904 0 0 0 0
35651058 0.3268165278533399 -0.028974984235789095 0.6209862572074271 -0.2862258694442221 0 0 0 0
35684004 0.32671940300649227 -0.02886479414336958 0.6208320013653736 -0.28582167233024786 0 0 0 0
35716950 0.3266595006549566 -0.02903648257354745 0.6201146080750044 -0.2860835049241283 0 0 0 0
35749896 0.3267455410955522 -0.02909876390994982 0.6200127288028121 -0.28633528897179716 0 0 0 0
35782842 0.3269284916431045 -0.02932321078955941 0.6200977374887535 -0.287375439041087 0 0 0 0
35815788 0.3271078986887733 -0.029377098707355803 0.6196713221457214 -0.2864738903580162 0 0 0 0
35848734 0.32702122384133187 -0.029314241260490936 0.6200232675029058 -0.2872593075875188 0 0 0 0
35881680 0.3270559606428325 -0.029429276786869987 0.6193830156090921 -0.2869309654814889 0 0 0 0
35914626 0.3271869771193757 -0.029511491068202864 0.6197471622765289 -0.287667166312526 0 0 0 0
35947572 0.32739320666012145 -0.029572610913161834 0.619315673370184 -0.2876668040679654 0 0 0 0
35980518 0.32723882014582983 -0.029705419589218105 0.6189218984996974 -0.28800097112364903 0 0 0 0
36013464 0.3273265893102497 -0.029896597482870962 0.6190114386845602 -0.2886935316639596 0 0 0 0
36046410 0.3274257354598661 -0.02975430164696634 0.6187709554953313 -0.2880498541280252 0 0 0 0
36079356 0.3274999264462505 -0.029799458621069926 0.6190232908505594 -0.28885617317454254 0 0 0 0
36112302 0.32744240385176104 -0.02988050666819418 0.6184498378268444 -0.2886674902235005 0 0 0 0
36145248 0.3274925042610997 -0.02996418340444417 0.6184148925331949 -0.28911099961170517 0 0 0 0
36178194 0.32763819699602237 -0.030044167891645584 0.6182369383166555 -0.28914023880121376 0 0 0 0
36211140 0.32770224607685233 -0.030347003039498655 0.6176924214424812 -0.2893414664487311 0 0 0 0
36244086 0.3277108248421328 -0.030200148663464467 0.6178184203853887 -0.28939562136611036 0 0 0 0
36277032 0.32781776766018356 -0.030331400144283413 0.6179150552414265 -0.29003028722668944 0 0 0 0
36309978 0.32793171546792316 -0.030305342008184872 0.6176173232638453 -0.29021473561394934 0 0 0 0
36342924 0.3279931171312347 -0.030700914753612335 0.6175316012896678 -0.29069655566720043 0 0 0 0
36375870 0.3280423896607732 -0.030600921350653426 0.6170625745829896 -0.29051950785723146 0 0 0 0
36408816 0.32800627278146893 -0.030575750513717834 0.6174011736457484 -0.2908661768586945 0 0 0 0
36441762 0.3281397671352364 -0.030552198222786583 0.6166089549182724 -0.29077837896439745 0 0 0 0
36474708 0.3281292391268097 -0.03065170132831195 0.6169306931057246 -0.2911406847467495 0 0 0 0
36507654 0.32829197620774714 -0.030906267119901618 0.616457317332694 -0.2911091446295015 0 0 0 0
36540600 0.3285167052125876 -0.030979019317930193 0.6165051289390113 -0.2917417473285815 0 0 0 0
36573546 0.32840379261072755 -0.031124131084791923 0.6162935483074085 -0.29224644217204365 0 0 0 0
36606492 0.32851449178125236 -0.030972983011481457 0.616027103339846 -0.29168941512437935 0 0 0 0
36639438 0.3284840764960004 -0.030913784044566715 0.616166563929945 -0.2922573391193309 0 0 0 0
36672384 0.3283552342035115 -0.031369672656414105 0.6155943052474817 -0.29246681660513824 0 0 0 0
36705330 0.3285925523406336 -0.03136743426051839 0.6157842789928131 -0.2925332675023686 0 0 0 0
36738276 0.328882193194426 -0.0313254713048091 0.6151865476527675 -0.2926196761160513 0 0 0 0
36771222 0.32869678630662696 -0.03175767249609751 0.6149437549893488 -0.2925997692618471 0 0 0 0
36804168 0.3288357790016612 -0.03104751040894357 0.6150332189801171 -0.293500862424657 0 0 0 0
36837114 0.32889366540657033 -0.03146689590212909 0.6148464309955536 -0.29352088277075494 0 0 0 0
36870060 0.32901282688693223 -0.03184590402636247 0.6147923949603775 -0.2939326231549899 0 0 0 0
36903006 0.3289091966091668 -0.03162865643851703 0.614597528252425 -0.29351286813575883 0 0 0 0
36935952 0.32897175725144295 -0.031958348188238 0.6145213606632793 -0.29400151332735425 0 0 0 0
36968898 0.32899092883003894 -0.031879661828907314 0.6143372021147471 -0.29410664821078014 0 0 0 0
37001844 0.3292903371308613 -0.031935035033100884 0.61409783596936 -0.2945258359371536 0 0 0 0
37034790 0.3291906362191655 -0.03209892249183403 0.6137098553597301 -0.2943310907286163 0 0 0 0
37067736 0.3293121200653831 -0.032000307429755265 0.6135031436576067 -0.2946958598410463 0 0 0 0
37100682 0.3293277328005187 -0.032139148735994105 0.6136795064561639 -0.2950583149824947 0 0 0 0
37133628 0.329487910377348 -0.03223264551489623 0.6133500203260132 -0.29496682665659846 0 0 0 0
37166574 0.32956614206390217 -0.03235204735579717 0.6130991064355329 -0.29514193398615807 0 0 0 0
37199520 0.3296078515950247 -0.03247716103769242 0.6128206872069757 -0.2956107857505318 0 0 0 0
37232466 0.3296137655979612 -0.03243338399375423 0.6132362949229245 -0.29591879758151907 0 0 0 0
37265412 0.3295070309390382 -0.032529393208118214 0.6124908083640512 -0.2956745001857497 0 0 0 0
37298358 0.32976712840887357 -0.032656452010501796 0.6124652979960756 -0.2963356216209636 0 0 0 0
37331304 0.3296624348814204 -0.032966396331727245 0.612260784010525 -0.2965519224281656 0 0 0 0
37364250 0.32990984006762875 -0.032860088741259535 0.6122877669838556 -0.29631845671175777 0 0 0 0
37397196 0.3299490159538993 -0.032812298303785715 0.6124005379050523 -0.29685192905332536 0 0 0 0
37430142 0.3297958570023267 -0.032921436285223656 0.6116443154439761 -0.2964726947621098 0 0 0 0
37463088 0.3300651980539278 -0.033017696347416525 0.6118672590418083 -0.2972157607750737 0 0 0 0
37496034 0.3302667657849391 -0.03311447777100682 0.6114852802423435 -0.29721709705709864 0 0 0 0
37528980 0.33026334946896974 -0.03318863573065564 0.6115065715842076 -0.29739900822262777 0 0 0 0
37561926 0.33007938110252866 -0.03345174520997426 0.6113433384351892 -0.2982078744510115 0 0 0 0
37594872 0.33027322443641477 -0.03323322823259249 0.6109934489037652 -0.29791343090842415 0 0 0 0
37627818 0.33031194338869585 -0.03336295343429006 0.6112421819611132 -0.29818969574211385 0 0 0 0
37660764 0.33039829673247245 -0.0334542155826021 0.6108381038654213 -0.29858232599247125 0 0 0 0
37693710 0.33063040360020085 -0.03356013250285345 0.610601634367954 -0.2982928804022442 0 0 0 0
37726656 0.33043791163769093 -0.033752313836410856 0.6105850607970198 -0.29924766772914213 0 0 0 0
37759602 0.33055584381514985 -0.03364182527094913 0.610141266891083 -0.29898366933758286 0 0 0 0
37792548 0.3306318337983006 -0.03370964164971144 0.6100022558656507 -0.29909119275138735 0 0 0 0
37825494 0.3307319217612299 -0.03389148723799889 0.6101113769675637 -0.29926109859658445 0 0 0 0
37858440 0.33073189710831097 -0.034074764886457116 0.6095292031824382 -0.2994185611554985 0 0 0 0
37891386 0.33091515523279275 -0.03395716103805428 0.6097958141700344 -0.3000292853535466 0 0 0 0
37924332 0.3309091957666646 -0.03432567179005807 0.6097433610003241 -0.30039748107686887 0 0 0 0
37957278 0.3309420297808537 -0.0342695113776973 0.6091501046830089 -0.2997730782725627 0 0 0 0
37990224 0.33102217391878697 -0.034213875436207526 0.6092608708082252 -0.3004148149443994 0 0 0 0
38023170 0.3311308120583997 -0.03437160554255026 0.6091928838025772 -0.3007321480621807 0 0 0 0
38056116 0.33114716544675116 -0.03447195498818245 0.608746470274723 -0.3010194112660001 0 0 0 0
38089062 0.33113670099484227 -0.03459078985105785 0.6083302866895567 -0.3010704909790073 0 0 0 0
38122008 0.33133523166325735 -0.03461670936291481 0.6083238966074307 -0.30150916113571136 0 0 0 0
38154954 0.33141870394246575 -0.03480370279128465 0.6083191518661936 -0.3015803551876059 0 0 0 0
38187900 0.33136992042999247 -0.034649814816606374 0.6079217569271547 -0.30135251814429187 0 0 0 0
38220846 0.33142413564138573 -0.03490218472031629 0.6081167859612185 -0.30200902013513226 0 0 0 0
38253792 0.3315179154848053 -0.03505907449332179 0.6081168938023457 -0.30242881839527525 0 0 0 0
38286738 0.3315263214765804 -0.03523323368286223 0.6075837242505688 -0.30235177385406886 0 0 0 0
38319684 0.33162291986571224 -0.035364667730688436 0.6071970126605868 -0.302745369368347 0 0 0 0
38352630 0.3317541371285142 -0.035308521194364076 0.6071037249196496 -0.3027590686204593 0 0 0 0
38385576 0.3317209661730736 -0.03520424274315876 0.6069143895004149 -0.30275835049400374 0 0 0 0
38418522 0.3318561301955978 -0.03517353500279702 0.6072652174232339 -0.3031103414212546 0 0 0 0
38451468 0.33186228278079166 -0.03533206358949101 0.6068063484321808 -0.30311592024072403 0 0 0 0
38484414 0.331949299326666 -0.035570600868837024 0.6066695235068036 -0.3037266994940081 0 0 0 0
38517360 0.33189883323564734 -0.03577890544920221 0.6063187987168929 -0.3038422221381995 0 0 0 0
38550306 0.3320166281985644 -0.035433064672780866 0.6062978144167742 -0.3038514706098493 0 0 0 0
38583252 0.3319163600247595 -0.03569703101774738 0.6059282515158616 -0.3040077672611422 0 0 0 0
38616198 0.3323206666227079 -0.035758425603252444 0.6060253877246281 -0.3041608666873884 0 0 0 0
38649144 0.3321334218930893 -0.03596189953826309 0.6058436536202784 -0.3046836871692805 0 0 0 0
38682090 0.3322110420986473 -0.0358576413713566 0.6054773226184932 -0.30456642820082236 0 0 0 0
38715036 0.3324038234612331 -0.035980648914460574 0.6055955781273725 -0.3047805583233069 0 0 0 0
38747982 0.3323682351700746 -0.036129681731261104 0.6051759595792175 -0.3047800340097583 0 0 0 0
38780928 0.3325152006955506 -0.036226912813174084 0.6051449881538292 -0.3049740821138133 0 0 0 0
38813874 0.33267192069287865 -0.036235327275736244 0.6048895036828618 -0.3052105497533502 0 0 0 0
38846820 0.3326103543297213 -0.03645911480110419 0.6048714470119332 -0.30572016882486003 0 0 0 0
38879766 0.33261555468474563 -0.03664617747866889 0.6044914160175403 -0.3058514224870132 0 0 0 0
38912712 0.3325276180606623 -0.0363476060184482 0.6045863075635627 -0.30584302445689276 0 0 0 0
38945658 0.33266494160353227 -0.03655995483535561 0.6038222221658188 -0.30620075909334565 0 0 0 0
38978604 0.3326943015820669 -0.03672965079247197 0.6039895022481006 -0.3064549055695406 0 0 0 0
39011550 0.33293364107795914 -0.036779730314197616 0.6038453395259981 -0.3068566470045756 0 0 0 0
39044496 0.33296541256528067 -0.03684510007763421 0.603960668785376 -0.3068515198472079 0 0 0 0
39077442 0.3331342636443121 -0.036902526115263 0.6035792709154733 -0.30713108308837084 0 0 0 0
39110388 0.33328749497969073 -0.03695593116411953 0.6034324620113375 -0.307234238740383 0 0 0 0
39143334 0.333272118497165 -0.03704215570628485 0.6029438578957781 -0.3074199863104406 0 0 0 0
39176280 0.3332591060132302 -0.037199907009191416 0.6035096303625316 -0.30782031478382893 0 0 0 0
39209226 0.33323256340805923 -0.03721460602227992 0.6027378561496279 -0.30789489450134416 0 0 0 0
39242172 0.33330809645150095 -0.03733185672842343 0.6026222264176 -0.30792108669666685 0 0 0 0
39275118 0.3332512877785214 -0.037433253475840936 0.6023467183173474 -0.3083349582468603 0 0 0 0
39308064 0.3334973485734805 -0.037387486365348006 0.6024744878607973 -0.308390244885664 0 0 0 0
39341010 0.3334283059658561 -0.03737848314688833 0.6022477497348468 -0.3084027098303793 0 0 0 0
39373956 0.33356271722943936 -0.03760342601421542 0.6023451689305915 -0.30882891961524184 0 0 0 0
39406902 0.33361585288387224 -0.0376720025890579 0.6019541547986414 -0.3089697361034523 0 0 0 0
39439848 0.33379844321131763 -0.03789085427615833 0.601707826628729 -0.308967622930056 0 0 0 0
39472794 0.3337840321570842 -0.037844600740573886 0.6016923233327721 -0.309312694166004 0 0 0 0
39505740 0.3337833216715156 -0.037936526626536404 0.6010253096708761 -0.30950388395088335 0 0 0 0
39538686 0.33378868858921085 -0.03800497414765199 0.6014479867341938 -0.3096394390297975 0 0 0 0
39571632 0.3338340834801903 -0.03805905816598422 0.6009356383939339 -0.30970107778241124 0 0 0 0
39604578 0.33409628968987565 -0.038410019252679686 0.6007125525052522 -0.3099906380328815 0 0 0 0
39637524 0.3341570468501046 -0.03820574513420059 0.6007630226874516 -0.3102953707719082 0 0 0 0
39670470 0.3342882967720687 -0.038218448238983606 0.6003733945882266 -0.31053677445399763 0 0 0 0
39703416 0.3341419713790147 -0.03840595198008657 0.600664268728643 -0.31073131221886197 0 0 0 0
39736362 0.33410968890974574 -0.038485431055512886 0.5999511175950216 -0.31076468383148004 0 0 0 0
39769308 0.33449486962362157 -0.038724317601139986 0.5997607864315329 -0.3109225593485309 0 0 0 0
39802254 0.33436303461450545 -0.03880599324018856 0.5997975451049001 -0.3116686320008931 0 0 0 0
39835200 0.3344410811453735 -0.03842961271411368 0.599563327549451 -0.3111882798323434 0 0 0 0
39868146 0.3344969101634513 -0.03886189229994428 0.5997426552705621 -0.3120228420574793 0 0 0 0
39901092 0.33438042994176187 -0.03876685802593977 0.599096382606543 -0.31161826933421893 0 0 0 0
39934038 0.3346096112100116 -0.03904156617329668 0.5990419133395967 -0.3119128445967089 0 0 0 0
39966984 0.3345926308576195 -0.03924637050596006 0.5989117447873438 -0.3125021988899266 0 0 0 0
39999930 0.33482799950268677 -0.03914169080777591 0.5985043921580007 -0.3126115294227421 0 0 0 0
