# HZ S RI R 50
300000 0.09166100394692349 0.06931972301669127 -0.03123719477288431 -0.010184032816891782 0 0 0 0
332946 0.11521832972892873 0.11981358355147699 -0.07584664669284957 -0.044217635091663224 0 0 0 0
365892 0.15595340926684734 0.13767690435615168 -0.11788430107088095 -0.04387467407837627 0 0 0 0
398838 0.18831423638332442 0.13489799616399087 -0.14430917622445974 -0.030564507598900677 0 0 0 0
431784 0.1984793132295374 0.15388909290136318 -0.15851450280211227 -0.12824300025608382 0 0 0 0
464730 0.21464869665478886 0.14447300118966938 -0.17643520758779413 -0.1196729879145384 0 0 0 0
497676 0.22710058463045787 0.13463582370697066 -0.18888049864020318 -0.11124612299428012 0 0 0 0
530622 0.23567912671490435 0.12606912467386325 -0.1978660961456747 -0.10317140291289478 0 0 0 0
563568 0.242294955443112 0.11842133869685609 -0.20455835365383954 -0.09591415937887936 0 0 0 0
596514 0.24741684065753594 0.11164658996865089 -0.20965158828917707 -0.08982920299812543 0 0 0 0
629460 0.2514882545388918 0.10574413435572405 -0.2134597302059117 -0.08409712021605809 0 0 0 0
662406 0.2548748542350886 0.10011750445830535 -0.2166472093593293 -0.0794587934780867 0 0 0 0
695352 0.2576727444943953 0.09527868065861786 -0.2193286849233384 -0.07503927453917845 0 0 0 0
728298 0.25995029782161183 0.09095928539274599 -0.2213391308709714 -0.07111632927177286 0 0 0 0
761244 0.26208185804332806 0.08685161988004345 -0.22295272037866268 -0.06753647350939933 0 0 0 0
794190 0.26367798107690554 0.08306081323747588 -0.22429181929797445 -0.06415885065845275 0 0 0 0
827136 0.265300034510979 0.07983679114036747 -0.22581533741239992 -0.06139658855388919 0 0 0 0
860082 0.26643396295927246 0.07661949253121281 -0.22678973221027124 -0.058553534678714436 0 0 0 0
893028 0.26747369272698174 0.07369496350951955 -0.2277585723443959 -0.05610487386107875 0 0 0 0
925974 0.26833950250283684 0.07098429551145201 -0.22848040436047273 -0.05369865752363869 0 0 0 0
958920 0.26936165104528864 0.06823893918969948 -0.22929212296725182 -0.05160109050365986 0 0 0 0
991866 0.27002515927918835 0.06617097052903412 -0.22986726901949225 -0.049514089704191966 0 0 0 0
1024812 0.2707088010211844 0.06388546313347453 -0.23031439407111495 -0.04788231842387773 0 0 0 0
1057758 0.27131447542450216 0.06194960238976727 -0.2308911975362487 -0.04604951879779033 0 0 0 0
1090704 0.2718560760852144 0.06004323794732482 -0.23147946294825603 -0.044374660176907804 0 0 0 0
1123650 0.2722587585642257 0.058317501493243704 -0.2317497289584238 -0.0429553484219784 0 0 0 0
1156596 0.27282482835645916 0.056630540305302186 -0.23214795367324806 -0.041403243611692064 0 0 0 0
1189542 0.2732316096405481 0.05505225954368621 -0.23246926732542716 -0.040121703422302986 0 0 0 0
1222488 0.2737759162632144 0.053466037896782774 -0.23282806067297052 -0.038990402114450734 0 0 0 0
1255434 0.2738772603581851 0.05196262738326194 -0.23311214128251512 -0.03772531737772801 0 0 0 0
1288380 0.27418871038213394 0.05068782956618314 -0.23328027483181699 -0.036495741147472116 0 0 0 0
1321326 0.27427344601784004 0.04933530003810225 -0.2334756933540884 -0.035540790741069535 0 0 0 0
1354272 0.27461839534641086 0.0481602853701005 -0.2336329009168019 -0.034391652352619484 0 0 0 0
1387218 0.27479202535238817 0.046936615006544044 -0.23388044822734266 -0.03329654019990552 0 0 0 0
1420164 0.27518519670573865 0.045781890059439626 -0.23406583154341556 -0.03253896181515159 0 0 0 0
1453110 0.27534537430937783 0.04462842010636057 -0.23426999344696456 -0.03148808353282795 0 0 0 0
1486056 0.27535545260368605 0.04368203212612887 -0.2342855400270128 -0.030588813711307516 0 0 0 0
1519002 0.2756321227049267 0.04272425402804757 -0.2345169667573213 -0.029743674992825667 0 0 0 0
1551948 0.2756826089880191 0.041883710682866726 -0.23467784083758036 -0.028942862954166333 0 0 0 0
1584894 0.27588060814815385 0.04101479821547144 -0.23463998419488594 -0.028044417389150596 0 0 0 0
1617840 0.27601140369546123 0.0401337789581415 -0.23496911981857135 -0.02754635398164515 0 0 0 0
1650786 0.27611335326233294 0.0393267931694679 -0.23502059345612245 -0.026707778297926747 0 0 0 0
1683732 0.27608546836510134 0.03861251305263959 -0.23514860064795162 -0.025955559902333312 0 0 0 0
1716678 0.27626215719773767 0.03786900947193653 -0.23516740659065197 -0.02531949748584036 0 0 0 0
1749624 0.2763569162270692 0.037120336729912 -0.23527697021062885 -0.02466072829575822 0 0 0 0
1782570 0.27644795063426153 0.03650715065494412 -0.23537834344963288 -0.024048679498062 0 0 0 0
1815516 0.2766323944364888 0.03578534320039302 -0.23541455420698354 -0.023432657500216933 0 0 0 0
1848462 0.2766272788090612 0.03512708637319673 -0.23545282932778638 -0.022814019678395487 0 0 0 0
1881408 0.2766709599825337 0.03455725606460946 -0.23550504939966918 -0.022312931406122692 0 0 0 0
1914354 0.276674115742766 0.03401321301033407 -0.2355712195189602 -0.021689428829754553 0 0 0 0
1947300 0.2767569181660525 0.0334812837431496 -0.23567004841343683 -0.0212222489902213 0 0 0 0
1980246 0.27681541208837057 0.03287266712551099 -0.23546427137602344 -0.02071245778875226 0 0 0 0
2013192 0.27682679734493737 0.03235413587185235 -0.23572737650651873 -0.02001644933206121 0 0 0 0
2046138 0.2768280869389135 0.03189401038044155 -0.2358067988392887 -0.019502865704556716 0 0 0 0
2079084 0.27693342299581736 0.031403585559658324 -0.23585537556396166 -0.019009904062771206 0 0 0 0
2112030 0.27709877778129127 0.03092088347012524 -0.23596140129792453 -0.018602826538073092 0 0 0 0
2144976 0.27700453217190485 0.03039915908151534 -0.23588871734254893 -0.018127155842931515 0 0 0 0
2177922 0.27709074841251013 0.030139997616775795 -0.23592276989445302 -0.01769486012709044 0 0 0 0
2210868 0.27698464909348947 0.02961957548426349 -0.23603684066334132 -0.01732025999027401 0 0 0 0
2243814 0.27716831613683574 0.02921334305476812 -0.23596513396976074 -0.016912910524046254 0 0 0 0
2276760 0.27737857457265586 0.028685488183670834 -0.2362546366908893 -0.01638895944407823 0 0 0 0
2309706 0.27715784290094375 0.028409177157613853 -0.23618417462644212 -0.016134936940535263 0 0 0 0
2342652 0.27733280524851595 0.027924914888958464 -0.23610096448404227 -0.015555616134411926 0 0 0 0
2375598 0.27733294523475893 0.027673728014184558 -0.236165895048758 -0.015154817229661425 0 0 0 0
2408544 0.2773980037317015 0.02716150685344123 -0.23636842616998666 -0.014792434349346623 0 0 0 0
2441490 0.2773170199708743 0.026878753000098912 -0.23630363794813006 -0.014418726841416806 0 0 0 0
2474436 0.2770679840320702 0.026617009389100686 -0.2363192122011941 -0.014027390146514154 0 0 0 0
2507382 0.2775025167616271 0.026368607436865865 -0.23628442628575833 -0.013739712475676773 0 0 0 0
2540328 0.2774888585098259 0.02604838590628189 -0.2363782018320008 -0.01334078527742011 0 0 0 0
2573274 0.2773123869526051 0.025718622714544784 -0.2363168154336767 -0.013015399671129115 0 0 0 0
2606220 0.27745328837604616 0.025459887184222287 -0.2364763744844081 -0.0125238243182025 0 0 0 0
2639166 0.2775686646062476 0.02514869865458636 -0.2364956432817021 -0.01228164545327362 0 0 0 0
2672112 0.27750134504766966 0.024854894735800326 -0.23639922280298759 -0.011842307190376584 0 0 0 0
2705058 0.2776089429299757 0.024591929918529515 -0.23640651158744183 -0.011571923393929755 0 0 0 0
2738004 0.27768783565687 0.024389191832029825 -0.23653033387408381 -0.011410322126025454 0 0 0 0
2770950 0.27768873441381847 0.024119600402261174 -0.23650431698009394 -0.010961853372118878 0 0 0 0
2803896 0.27750928292294025 0.02384997146321654 -0.23645740675536245 -0.010721092894657794 0 0 0 0
2836842 0.2774831630337293 0.023673759389770177 -0.2365163587438425 -0.010381276088314953 0 0 0 0
2869788 0.27771585466294557 0.023311941327867108 -0.23665490700455602 -0.009915847417348642 0 0 0 0
2902734 0.27776970988589206 0.023138583303539354 -0.23648803561328938 -0.009748383526764184 0 0 0 0
2935680 0.2776512600773887 0.022830708258199967 -0.2365159690122149 -0.009337469751593795 0 0 0 0
2968626 0.27775060131197876 0.022607713607122045 -0.23675790507851455 -0.009172822440594555 0 0 0 0
3001572 0.27780245216222227 0.022491451343920405 -0.23660911053646694 -0.008766792428378339 0 0 0 0
3034518 0.27790245408924846 0.02234833210249109 -0.2366535639143881 -0.008450625547598385 0 0 0 0
3067464 0.27772742584513516 0.02192635016417571 -0.23658456437824657 -0.008211875978976818 0 0 0 0
3100410 0.27777946143327314 0.021846428422648945 -0.23657391112931522 -0.007933085355635704 0 0 0 0
3133356 0.27777509080640067 0.021653412027469236 -0.23676793952314965 -0.007623328104493885 0 0 0 0
3166302 0.27797657539965653 0.021581927081568912 -0.23668234784286696 -0.007395799515017948 0 0 0 0
3199248 0.2779172732853944 0.021325039889922546 -0.23667699567834125 -0.0071164912757012205 0 0 0 0
3232194 0.2779581915561514 0.021052714687719024 -0.23673321418117904 -0.0068267008079210285 0 0 0 0
3265140 0.27793418765610245 0.020959152063031544 -0.23664493340733317 -0.006603825916918077 0 0 0 0
3298086 0.27803438780517137 0.020759240045745024 -0.23669600334487687 -0.006399031342304323 0 0 0 0
3331032 0.27792885986633264 0.020600472812419657 -0.23668443957578977 -0.006188822873615595 0 0 0 0
3363978 0.2780161581228795 0.020429841266948655 -0.23661490087319326 -0.005904154973523302 0 0 0 0
3396924 0.2782022894189323 0.0201287971809458 -0.23667132202593724 -0.005629445248232522 0 0 0 0
3429870 0.27801100861495986 0.01991051187067315 -0.23684385253199788 -0.005257584302918696 0 0 0 0
3462816 0.27801150409555037 0.019904030789537466 -0.23666741844129457 -0.005130931730326505 0 0 0 0
3495762 0.2782502861381436 0.019790358285119526 -0.23683435187440005 -0.004891429655165149 0 0 0 0
3528708 0.27802443561495915 0.019691356362019963 -0.23656030679815523 -0.00450770910399052 0 0 0 0
3561654 0.27834610794032333 0.019442518472723075 -0.23666767485560095 -0.004389570277163782 0 0 0 0
3594600 0.27839384295342223 0.01929409202770107 -0.23659211306083874 -0.004204820405673618 0 0 0 0
3627546 0.27823354956535207 0.019026348915253226 -0.2367850006382987 -0.0038707231020417227 0 0 0 0
3660492 0.27836823716281106 0.018992140286148578 -0.23663415292394516 -0.0036590556166403616 0 0 0 0
3693438 0.2781949220102932 0.018940558711638765 -0.23673412306868186 -0.003528086409713139 0 0 0 0
3726384 0.27840899708274164 0.018744515677344916 -0.23681066376022575 -0.0032507408582933377 0 0 0 0
3759330 0.27830885436162817 0.018508312717631512 -0.23689696278889133 -0.0029412988911802843 0 0 0 0
3792276 0.2784533278639531 0.018450372583056433 -0.2367004205510356 -0.0027746273791501405 0 0 0 0
3825222 0.27849371839300957 0.01828474000839038 -0.23675665305665217 -0.002529165563945989 0 0 0 0
3858168 0.27849923512072516 0.01813892457384357 -0.2367033256196601 -0.0023083559314425787 0 0 0 0
3891114 0.2784874314116703 0.018123013751614278 -0.23679773809880283 -0.002060178918021906 0 0 0 0
3924060 0.27847887516393116 0.017938718037866737 -0.2368385270935275 -0.0019105590875415199 0 0 0 0
3957006 0.2783735668831492 0.017921561441385524 -0.2366276372876066 -0.0016155261965770228 0 0 0 0
3989952 0.2786096430981849 0.017750662834430123 -0.23657010006550033 -0.0014411881724675478 0 0 0 0
4022898 0.2787489606530496 0.017571495308900162 -0.23677392112889584 -0.0011938855327195887 0 0 0 0
4055844 0.2786117576291078 0.017407091729389836 -0.23667912982294018 -0.0010329228392503892 0 0 0 0
4088790 0.27874464353268397 0.017354029192643918 -0.2367147714485823 -0.0007818197209040553 0 0 0 0
4121736 0.2787031735835906 0.017137930124817385 -0.2368081411027866 -0.0005921286407462979 0 0 0 0
4154682 0.2786733049774358 0.01713833871406659 -0.23656090717390524 -0.0005293311416372404 0 0 0 0
4187628 0.27898188174504396 0.01703145640102484 -0.23680167859643658 -0.00020098143447924125 0 0 0 0
4220574 0.27888669916542846 0.016955294676891455 -0.23677669562583084 -8.034918349850671e-06 0 0 0 0
4253520 0.2788042227185318 0.016754351424048918 -0.23678454362936566 0.000221279513636719 0 0 0 0
4286466 0.27900869538558704 0.016679984530585033 -0.23672859881448086 0.0004951429297866963 0 0 0 0
4319412 0.2789946424062562 0.016571905461398286 -0.2366394379769102 0.0006221303477577259 0 0 0 0
4352358 0.2789592959275938 0.0164941784456749 -0.23669473573864327 0.0008909134475824423 0 0 0 0
4385304 0.27879072463651383 0.016329577413551646 -0.2367316976679597 0.0011214325120267456 0 0 0 0
4418250 0.27897705716539545 0.016206860725226792 -0.23654991987728277 0.001148020313420986 0 0 0 0
4451196 0.2792474374522999 0.016167324421615382 -0.2368350648378629 0.0013316662996791604 0 0 0 0
4484142 0.27911782268819474 0.01613485201491275 -0.23672915442844017 0.0015521383297471504 0 0 0 0
4517088 0.27917911245227556 0.015905269664530555 -0.2367345189496121 0.0017858773500893212 0 0 0 0
4550034 0.2792434015448903 0.01582214300718993 -0.23668458868608253 0.0019235958108129146 0 0 0 0
4582980 0.2792899202587494 0.01568669809621294 -0.23671264311391726 0.0021167305060628126 0 0 0 0
4615926 0.2790414728848482 0.015789564983546663 -0.23672915406805722 0.002414466705668775 0 0 0 0
4648872 0.2794175692157356 0.015563050768226542 -0.23668932771607415 0.002476948218926941 0 0 0 0
4681818 0.2795430641531859 0.015409047864990017 -0.2366591099730274 0.0027054992866239924 0 0 0 0
4714764 0.2793745809644361 0.01553460251911004 -0.2367737640449918 0.0029389765070255668 0 0 0 0
4747710 0.2793215099626099 0.015332634891884429 -0.23672326982642222 0.0029774416736706704 0 0 0 0
4780656 0.27956969036698154 0.015143957293565833 -0.23672534062730205 0.0033306641835996907 0 0 0 0
4813602 0.27947208594395273 0.014999217195050277 -0.23665038849059983 0.0034837428202289422 0 0 0 0
4846548 0.2794504643879803 0.015109143530541484 -0.23662874196824896 0.0036701183578712825 0 0 0 0
4879494 0.27948379325748257 0.015006090601766683 -0.2367859853240977 0.0038508725260160206 0 0 0 0
4912440 0.27954701454834496 0.014863220821401278 -0.23666393230613833 0.004001764767511566 0 0 0 0
4945386 0.27968081966311487 0.014717443026578451 -0.23675472257103125 0.004303056769405166 0 0 0 0
4978332 0.27970218309594685 0.014782104300386447 -0.23683292071145218 0.0042883761320176095 0 0 0 0
5011278 0.2796515557845463 0.014654180158211055 -0.236531836076634 0.004627793416307921 0 0 0 0
5044224 0.27964582868346743 0.014479273693247589 -0.23652856973219102 0.004809136903109651 0 0 0 0
5077170 0.27961096400881097 0.014539392020404092 -0.2366384033487953 0.004830857170358416 0 0 0 0
5110116 0.279773263521412 0.014428826968549677 -0.23660817423166203 0.00501152395949288 0 0 0 0
5143062 0.2797138112007905 0.014246027361589917 -0.23669950483865243 0.005308293810974528 0 0 0 0
5176008 0.2797559204541186 0.014288628716054406 -0.23671630729057752 0.005350281933070248 0 0 0 0
5208954 0.2796780265215091 0.014234806448857615 -0.23651639341814468 0.00545936272553042 0 0 0 0
5241900 0.2797728706354495 0.014228660972646192 -0.2364753901519901 0.005749681407686751 0 0 0 0
5274846 0.279965593826288 0.01407677934794883 -0.2366650111651216 0.0060330445981695655 0 0 0 0
5307792 0.28005920173769805 0.01377609131826267 -0.23665106984431922 0.006131360799373806 0 0 0 0
5340738 0.2803394512842264 0.013706649234923018 -0.23670577017665032 0.006404330694382758 0 0 0 0
5373684 0.2801370993402597 0.013854246660338704 -0.23669252808361557 0.006384864055641685 0 0 0 0
5406630 0.2800773282704199 0.013706088619137045 -0.23672457222770749 0.006655006335616274 0 0 0 0
5439576 0.280159819676849 0.013592452629195008 -0.23672923218888564 0.006807031565346972 0 0 0 0
5472522 0.2800493674778159 0.013740242051366189 -0.23657738032494172 0.007045358381679049 0 0 0 0
5505468 0.2801203802897757 0.013556920426545905 -0.23654146250991293 0.007112466700355225 0 0 0 0
5538414 0.28044643251827817 0.01332110576294754 -0.23670874958621 0.007328437842561355 0 0 0 0
5571360 0.2803057273430441 0.013427074746369862 -0.2365430076022057 0.007327092181909084 0 0 0 0
5604306 0.28027016333631216 0.013341918220079269 -0.23654111298081584 0.007564062131121634 0 0 0 0
5637252 0.28040767738160943 0.013152061432946394 -0.23649253533929931 0.007790888164816549 0 0 0 0
5670198 0.2803291203639252 0.01307205943974028 -0.2365697295266232 0.007928240881256324 0 0 0 0
5703144 0.28037562546046235 0.012981866982200382 -0.23658110690695766 0.008151091702364381 0 0 0 0
5736090 0.2803900905660053 0.01292398446272113 -0.23652146910475688 0.008308777126690746 0 0 0 0
5769036 0.2804200888117879 0.012973809670618003 -0.2364910888760612 0.008383505351298805 0 0 0 0
5801982 0.28069214688630784 0.012877272066988688 -0.23643824794498575 0.008544644216848623 0 0 0 0
5834928 0.2809531530718275 0.012676475371079018 -0.23656495734937796 0.008839169242934337 0 0 0 0
5867874 0.2806464510920879 0.012802966322519867 -0.23648604303475074 0.008908441729779934 0 0 0 0
5900820 0.28055650544822247 0.012716838961197885 -0.2365559222959951 0.009105802377835516 0 0 0 0
5933766 0.28066075246300676 0.012763706807170585 -0.23647142859146436 0.00916666284560568 0 0 0 0
5966712 0.2805180680250446 0.01266459124585177 -0.23636297457942948 0.009383121241586422 0 0 0 0
5999658 0.2807733778043087 0.01240835434768858 -0.23660541154406856 0.009628911641218837 0 0 0 0
6032604 0.28085402476025484 0.012352691574275829 -0.2363784435543166 0.009601907774163013 0 0 0 0
6065550 0.28099800808900643 0.012252782582895385 -0.23653090199330004 0.00991008593181696 0 0 0 0
6098496 0.2810704360511779 0.012334592098560583 -0.23656090168104468 0.010087341285560453 0 0 0 0
6131442 0.2807179332291348 0.012386873109741948 -0.23655712772271154 0.010149044472922081 0 0 0 0
6164388 0.28079858478980035 0.01230496426859441 -0.2364473748597502 0.010369215739851566 0 0 0 0
6197334 0.2809694679584351 0.012144648964342654 -0.23633126515855488 0.010454905251690825 0 0 0 0
6230280 0.2809227561207373 0.012130332841321286 -0.23631438107151126 0.010541971770988126 0 0 0 0
6263226 0.2813003341661114 0.011960203822711441 -0.2363864541758361 0.010898052244720785 0 0 0 0
6296172 0.281010658512743 0.012152360944094383 -0.23641638802490975 0.010830661589432846 0 0 0 0
6329118 0.2809540386042867 0.011838821715721502 -0.23620974892353427 0.010995567417873872 0 0 0 0
6362064 0.2812711827346639 0.011987598559214769 -0.23648699503875018 0.011282641463535623 0 0 0 0
6395010 0.2811409248965015 0.011777390584796554 -0.23638342624473038 0.011259769936515803 0 0 0 0
6427956 0.2810900014444299 0.011705121681587221 -0.2363676116901276 0.01150530163355007 0 0 0 0
6460902 0.2813755221405713 0.011567379466862765 -0.23626319126818154 0.011720927084346697 0 0 0 0
6493848 0.2811024424469605 0.011766686511729097 -0.23640398735501666 0.011838417703207078 0 0 0 0
6526794 0.2813336152091958 0.011491443779847364 -0.23629553361757094 0.01193851477158433 0 0 0 0
6559740 0.2812414734517111 0.011445527990994622 -0.23621088183591646 0.012066362555370703 0 0 0 0
6592686 0.2814387137460378 0.011433789457566295 -0.23640089764085848 0.012310558216348688 0 0 0 0
6625632 0.28125531529735 0.011313028914847133 -0.23628934057680176 0.01235817755185304 0 0 0 0
6658578 0.2814829125397037 0.011321413873687639 -0.2363058068983326 0.012610533458919089 0 0 0 0
6691524 0.28130784135836623 0.0112544476918476 -0.2363661935159061 0.012694385215921533 0 0 0 0
6724470 0.2814722681533081 0.011087768072921729 -0.2362594554158438 0.012914466618114684 0 0 0 0
6757416 0.281572199616238 0.01127870285560892 -0.23638153745216006 0.013059832285727017 0 0 0 0
6790362 0.28162262847207054 0.01108995134151727 -0.236197961372279 0.013082327241746607 0 0 0 0
6823308 0.2818089709987576 0.01092787818033294 -0.2364057285889752 0.013395638243598062 0 0 0 0
6856254 0.28176386202793535 0.010985396470642533 -0.2362757202495191 0.013387145624356962 0 0 0 0
6889200 0.2818376877070765 0.010949282978571962 -0.2363007803341545 0.01363404477761623 0 0 0 0
6922146 0.2795002203864906 0.014296752123930915 -0.2364185174155683 0.015423805822863526 0 0 0 0
6955092 0.27978063090915817 0.014374355299332705 -0.23646595301931575 0.015473440351563804 0 0 0 0
6988038 0.27970702031082656 0.014231342625239918 -0.23640439114476905 0.015577279789164858 0 0 0 0
7020984 0.2798533197636337 0.014092035084091084 -0.23654414675036176 0.015893063452467545 0 0 0 0
7053930 0.2797496358121385 0.014252407964291135 -0.23644031684814218 0.01603149886815063 0 0 0 0
7086876 0.2800437029417049 0.013772669557860039 -0.23658086929846567 0.016298933541700394 0 0 0 0
7119822 0.27982934220032446 0.014106598293352186 -0.23657220559333886 0.016451994627129575 0 0 0 0
7152768 0.27975999904739846 0.013964012420058099 -0.23632088783877217 0.016518997931635457 0 0 0 0
7185714 0.2800377273940444 0.013970431658415595 -0.23642680874781333 0.01677528175034709 0 0 0 0
7218660 0.28002062182774706 0.013779319231313508 -0.23628796301933552 0.016923651545328183 0 0 0 0
7251606 0.279881046126162 0.013966320534382863 -0.23609480521005924 0.0169969407051171 0 0 0 0
7284552 0.2798310980042405 0.013802086814616945 -0.2361369448574203 0.017212156090570956 0 0 0 0
7317498 0.2799958516862796 0.013667652485393368 -0.23608090584151759 0.017295104263550454 0 0 0 0
7350444 0.2801294227216371 0.013676525231385957 -0.23625191814602184 0.017628616284523817 0 0 0 0
7383390 0.2800749995909348 0.013633613246990889 -0.23607669633841272 0.017562588776990667 0 0 0 0
7416336 0.2803662333503926 0.013407874879097403 -0.2361766719493634 0.017859615981759072 0 0 0 0
7449282 0.2802129745138638 0.013506246366095324 -0.2360703538736861 0.01792625051656182 0 0 0 0
7482228 0.28024203061231623 0.013357550119925121 -0.2359513793737225 0.018072661708154983 0 0 0 0
7515174 0.2803630543882719 0.013408031177189922 -0.23606997396581436 0.018190330516313205 0 0 0 0
7548120 0.2803634454497911 0.013398335723310699 -0.2359936360701029 0.018304343689348863 0 0 0 0
7581066 0.28048691009001286 0.013148256846995688 -0.2360520585567872 0.01854786156231132 0 0 0 0
7614012 0.2804216257612377 0.01318455393910188 -0.2361755150623729 0.01866309693008485 0 0 0 0
7646958 0.28025042447721693 0.013346650336174456 -0.2359710061363149 0.018705514053306928 0 0 0 0
7679904 0.2804123224663659 0.013136904423518244 -0.23600121966963736 0.018853001944492846 0 0 0 0
7712850 0.28043267621415 0.013358492983114503 -0.23591354282581925 0.01891693655275927 0 0 0 0
7745796 0.28055085659501294 0.01318919368168639 -0.23573203209641425 0.018953272270262066 0 0 0 0
7778742 0.2805031122662653 0.013082952538701089 -0.23601426177460438 0.019280565253700595 0 0 0 0
7811688 0.280669326259776 0.013104921687471446 -0.23594127099892426 0.01935856131535671 0 0 0 0
7844634 0.280572712565349 0.01293159239921314 -0.23581662785901147 0.019458855685903956 0 0 0 0
7877580 0.2807100422176677 0.012936817222927692 -0.23579845479644507 0.019597366746990606 0 0 0 0
7910526 0.2808083579915309 0.012836540946251617 -0.23589215885960696 0.01988113793265995 0 0 0 0
7943472 0.2806395509766018 0.01290029962779055 -0.2357497872730643 0.019922572567071573 0 0 0 0
7976418 0.2807422098093681 0.01285387465225798 -0.23577125193970613 0.020010044331354917 0 0 0 0
8009364 0.2807541387636912 0.012758905624422457 -0.23569858514535472 0.020101834007850754 0 0 0 0
8042310 0.28083595292183755 0.0126653467266723 -0.23564106058801298 0.0202671637615691 0 0 0 0
8075256 0.28095507235372347 0.012710058217219069 -0.2357382122102428 0.0204183607401853 0 0 0 0
8108202 0.2811622684953762 0.012593058984790741 -0.23580083383203645 0.02062590848685001 0 0 0 0
8141148 0.2809699253502406 0.012603038252558874 -0.2357590316301908 0.020656507599193366 0 0 0 0
8174094 0.28104460315827456 0.012557071504297058 -0.23572689841716152 0.020811579421171296 0 0 0 0
8207040 0.2810696324609965 0.012478357637069701 -0.23573648761724947 0.020996799583572926 0 0 0 0
8239986 0.28112968910743125 0.012471392364013517 -0.2356484833648489 0.021191502737764385 0 0 0 0
8272932 0.2811618930317233 0.012398647912835821 -0.23553645028875847 0.02127772203990225 0 0 0 0
8305878 0.2811848407154149 0.01233318198053132 -0.23566048711495302 0.02152080384098023 0 0 0 0
8338824 0.28122446806809626 0.012250534837350653 -0.23575979245920187 0.02168761818331618 0 0 0 0
8371770 0.28102449353185127 0.012308433791246425 -0.2356243128176712 0.02165097868725862 0 0 0 0
8404716 0.28128045421719383 0.01221120200563273 -0.23546809727355666 0.021729844056492087 0 0 0 0
8437662 0.28137224273341355 0.012112483341243006 -0.23546365382785203 0.021884559349028356 0 0 0 0
8470608 0.28150800070317616 0.01221472782927697 -0.23566022522295982 0.02209737843285403 0 0 0 0
8503554 0.2815125937235169 0.012075050526456556 -0.23562552986732113 0.02234883298918479 0 0 0 0
8536500 0.28159616908751883 0.011982320567983694 -0.23558456545150694 0.022412249721212838 0 0 0 0
8569446 0.28136713377814226 0.01215865522864937 -0.2355044600554413 0.02251727955557608 0 0 0 0
8602392 0.28153395962174094 0.011895824375076778 -0.23534551721074265 0.02267376557120836 0 0 0 0
8635338 0.28159413606893635 0.011867792625452983 -0.23550937409629535 0.02275427537318657 0 0 0 0
8668284 0.2816915373640721 0.01176471097978604 -0.23549311570290565 0.022906595269936714 0 0 0 0
8701230 0.2817464408917948 0.011746077970616225 -0.23545475251541906 0.023142407548423897 0 0 0 0
8734176 0.2815447171534505 0.011897716141259885 -0.23543407819566678 0.023130487107932522 0 0 0 0
8767122 0.28156286252628576 0.011933202165653778 -0.2354728679461765 0.0232937905993101 0 0 0 0
8800068 0.28176796396840414 0.011711071568665701 -0.2353095479773818 0.023387155091382967 0 0 0 0
8833014 0.28178268397687456 0.011724577526736743 -0.2355124716414242 0.023578013771264783 0 0 0 0
8865960 0.281847531064422 0.011514691671068819 -0.23531101280040195 0.02366169437068435 0 0 0 0
8898906 0.281875284138603 0.011574416199399109 -0.2354474684689041 0.023882551095530054 0 0 0 0
8931852 0.2818335128028654 0.011637684653882721 -0.23531546651250318 0.02395488943862709 0 0 0 0
8964798 0.28191412417703215 0.011560964999990084 -0.23525368853996054 0.024044543130841964 0 0 0 0
8997744 0.28190694724355453 0.011417983716363848 -0.23520445258978687 0.02420651163585791 0 0 0 0
9030690 0.2819314895321739 0.011558067474426613 -0.23522946069439143 0.02430117040845575 0 0 0 0
9063636 0.2820420930775527 0.011472793566254176 -0.235160888006296 0.02447668336850228 0 0 0 0
9096582 0.2822012477705758 0.011317416084267716 -0.23533849866666867 0.024626158858878977 0 0 0 0
9129528 0.2821791164881739 0.011303219894511694 -0.235279378928754 0.024857337242238632 0 0 0 0
9162474 0.2821742483181039 0.011240651745001419 -0.2351849086666746 0.024841781731963133 0 0 0 0
9195420 0.2821546059753074 0.011282892349673881 -0.23522458078725095 0.02491482322734315 0 0 0 0
9228366 0.2821485497406133 0.011079156576535699 -0.23521376334768682 0.025230263050119422 0 0 0 0
9261312 0.2822502377518873 0.011070454630057921 -0.2352063956432354 0.025313975644579618 0 0 0 0
9294258 0.2824607898586536 0.01103401007516682 -0.23516036729568032 0.02543196691009705 0 0 0 0
9327204 0.28217669623953456 0.011160555107423992 -0.23500469779437422 0.025618672340214317 0 0 0 0
9360150 0.2822159171528901 0.011202267024711577 -0.23513067117227027 0.025627911310535875 0 0 0 0
9393096 0.2824208710288108 0.011045167810214146 -0.23506553217427772 0.025758193533838996 0 0 0 0
9426042 0.2824260592051544 0.010921812113241239 -0.23499203214110484 0.025884167941510994 0 0 0 0
9458988 0.282504402432022 0.011063598755416248 -0.23505746411673678 0.025994990724326383 0 0 0 0
9491934 0.2826643656136197 0.010835159974405286 -0.2349855384980657 0.026264255479874828 0 0 0 0
9524880 0.28273944742828155 0.010771919185154955 -0.2351379797140013 0.026385851609085038 0 0 0 0
9557826 0.2826113420090637 0.010892369727741534 -0.23514002165361358 0.02646380151351278 0 0 0 0
9590772 0.2824672800568778 0.010830882285839585 -0.23493316344880882 0.026570771473706557 0 0 0 0
9623718 0.28270864660273315 0.01074400392290224 -0.2349254775131162 0.026716007078793715 0 0 0 0
9656664 0.2827671861906618 0.010583758247339271 -0.23501765048289264 0.026877091373497024 0 0 0 0
9689610 0.28283825124152995 0.010558701213251951 -0.23485201480381612 0.02698806665129057 0 0 0 0
9722556 0.2828093652486161 0.01064901668711944 -0.2349862866736122 0.027097125785775326 0 0 0 0
9755502 0.2828961738680816 0.010510641744923117 -0.2349249388975987 0.027208420964481148 0 0 0 0
9788448 0.28279201761344797 0.010560512850737504 -0.23466856110980222 0.027330203760720862 0 0 0 0
9821394 0.2830018032462347 0.010481253254843758 -0.23485581762784266 0.02743668967850388 0 0 0 0
9854340 0.28304339594550987 0.010336348227730467 -0.23476606761161625 0.027632947326271383 0 0 0 0
9887286 0.2830548166306489 0.010340136793043235 -0.23486627795994502 0.027758483032737563 0 0 0 0
9920232 0.2829119687818587 0.010459639907404669 -0.23486397486583674 0.027752701999302114 0 0 0 0
9953178 0.28294243223835686 0.010402010739118958 -0.23479829662286625 0.02796331517010096 0 0 0 0
9986124 0.28294729246577693 0.010275082630260236 -0.23464469774890812 0.028112479364967555 0 0 0 0
10019070 0.28327021569308186 0.010462805408283267 -0.23476941326760012 0.02826589929235229 0 0 0 0
10052016 0.28321968063639896 0.01014242303972903 -0.23467723094058768 0.028366501869236765 0 0 0 0
10084962 0.2831194212257439 0.010087175696844199 -0.23473652779972082 0.028611720473885806 0 0 0 0
10117908 0.2831233177178943 0.010236108011108821 -0.23472680882306096 0.028622494227448753 0 0 0 0
10150854 0.2834053963809216 0.009995534754099759 -0.23477650562460198 0.028843396802313633 0 0 0 0
10183800 0.2832396243494738 0.010031123854499106 -0.23451512352946374 0.02885426992383558 0 0 0 0
10216746 0.2833488493646358 0.010081266059727145 -0.23456176212882282 0.029030949713153464 0 0 0 0
10249692 0.28349925786497787 0.010074424663406027 -0.2346363542251902 0.029081762723029404 0 0 0 0
10282638 0.2834493417057767 0.009819054681354597 -0.23471033482076098 0.029374550163470375 0 0 0 0
10315584 0.28326487378771803 0.01002784312087297 -0.23458313786883953 0.029449366741624832 0 0 0 0
10348530 0.28351697497098344 0.00990003426269702 -0.2345120243598076 0.029384754185115006 0 0 0 0
10381476 0.28363604434489126 0.009766579607300537 -0.23460672587025308 0.029705094572857485 0 0 0 0
10414422 0.2835423562383636 0.009769815941853843 -0.23453757649073514 0.029785553773863018 0 0 0 0
10447368 0.2836789005048776 0.0097282736970924 -0.23450574590130463 0.02989323548958546 0 0 0 0
10480314 0.2835714628408196 0.009685874177429762 -0.23450537477424974 0.03011109915346318 0 0 0 0
10513260 0.283705126533173 0.009761296978019108 -0.23449028727138 0.03020252634663824 0 0 0 0
10546206 0.28376134568905453 0.009596736923557654 -0.23438205200715034 0.030284768632475655 0 0 0 0
10579152 0.28372124968543827 0.009590075508163546 -0.2343851632603336 0.03037870577689976 0 0 0 0
10612098 0.2838032196554903 0.009593513641542484 -0.23440324273315438 0.03056038470300217 0 0 0 0
10645044 0.28397148709009146 0.009546325313706026 -0.2343659651987899 0.030665408370675773 0 0 0 0
10677990 0.28377717464397767 0.009533984945766492 -0.23442591640105162 0.030922209533960663 0 0 0 0
10710936 0.28391983854526837 0.009360359476245377 -0.2343582169443243 0.030949900128450645 0 0 0 0
10743882 0.2838749060310971 0.009376033949966127 -0.23422123067759196 0.031054603879858478 0 0 0 0
10776828 0.2841655923779144 0.009364282686237008 -0.23422739699424128 0.031145469307535784 0 0 0 0
10809774 0.2839382960745498 0.009390523137699686 -0.23427797133856293 0.031340637703411875 0 0 0 0
10842720 0.2840006370195476 0.00930640021155039 -0.23431033084867064 0.03145061221943646 0 0 0 0
10875666 0.2841548199378428 0.009258450363671865 -0.23407545741175279 0.031563885609007324 0 0 0 0
10908612 0.2840201864599621 0.009377937651895435 -0.234199429961474 0.0316064857037584 0 0 0 0
10941558 0.2843326719499748 0.009152049260579569 -0.23418160842446034 0.03178307355354014 0 0 0 0
10974504 0.28425994191870374 0.009043138890572126 -0.2340848318805993 0.031947561977788835 0 0 0 0
11007450 0.28418050926425753 0.008997698811717714 -0.23419214522426404 0.03217744620207336 0 0 0 0
11040396 0.28438039887426214 0.00913639947711469 -0.2340917099800313 0.03220063048782788 0 0 0 0
11073342 0.2844286372682406 0.008949418224191086 -0.23415380211328105 0.03230299767103232 0 0 0 0
11106288 0.28443513066728854 0.00891940983148513 -0.23400645300509726 0.03242071363192035 0 0 0 0
11139234 0.2844428695070572 0.009013744944076947 -0.23403099435801644 0.03254167496904325 0 0 0 0
11172180 0.2845820216469448 0.008989357085953085 -0.23408221620127856 0.032575540651292915 0 0 0 0
11205126 0.2847060444833831 0.00888236937311135 -0.23393902969443076 0.032763200322980426 0 0 0 0
11238072 0.28457007475278717 0.008814071369259106 -0.23398464256328907 0.03306674927961069 0 0 0 0
11271018 0.28448616880926936 0.008867264798223376 -0.2340939946809388 0.03308816212748611 0 0 0 0
11303964 0.2847191122522433 0.008592242176903455 -0.2339258132366989 0.0331255558011166 0 0 0 0
11336910 0.28477961094693327 0.008784732912777787 -0.23395510108184883 0.03326616702612872 0 0 0 0
11369856 0.28475272928362894 0.008692706238447376 -0.2338063379126936 0.03336871713644031 0 0 0 0
11402802 0.28474231864984567 0.008716084431925937 -0.23394878004482095 0.033589780197703194 0 0 0 0
11435748 0.28485962019321986 0.008650693420080135 -0.2339138189978788 0.03367813863849044 0 0 0 0
11468694 0.28503965090016303 0.008624604209489621 -0.233832187251876 0.03377796102592307 0 0 0 0
11501640 0.2848175198193394 0.008449107079251514 -0.23378289594309856 0.03395949890356882 0 0 0 0
11534586 0.28476433901009063 0.008437712244745023 -0.23384429195752326 0.033995829323031336 0 0 0 0
11567532 0.2850015826907214 0.008434027782627567 -0.23374248928245722 0.03416070046459781 0 0 0 0
11600478 0.2851403093583055 0.008499647926843925 -0.233739728282753 0.03430229878183175 0 0 0 0
11633424 0.28524109526004887 0.008391220435074969 -0.23383132070096482 0.034403291030310965 0 0 0 0
11666370 0.28501573815691084 0.008303801699894413 -0.23370046037990697 0.034618163524658366 0 0 0 0
11699316 0.28499985467324 0.008446331610431786 -0.23357673128775422 0.03479585249316758 0 0 0 0
11732262 0.2851230849049997 0.008337793954272303 -0.2338012834522198 0.0347904907170621 0 0 0 0
11765208 0.28528575882315566 0.008278340178621628 -0.23356199444040043 0.034901017699335166 0 0 0 0
11798154 0.2852697857785483 0.008290093037541798 -0.23360161226682902 0.03499602042087254 0 0 0 0
11831100 0.28550354016512597 0.008087815044563022 -0.23358905758557336 0.03514538142668422 0 0 0 0
11864046 0.2851602575757359 0.008194877339390382 -0.23359959712600148 0.03537198749109754 0 0 0 0
11896992 0.28522867439156135 0.008067917645858192 -0.23348810023777436 0.03546440828923482 0 0 0 0
11929938 0.2853888291222834 0.008028654815556447 -0.23354464037559206 0.035490289083253 0 0 0 0
11962884 0.28544872482472067 0.008054049712573256 -0.23347463022105017 0.0355758998821094 0 0 0 0
11995830 0.28556049698851205 0.007969623601401153 -0.2335035053891648 0.03570709490609319 0 0 0 0
12028776 0.28569999327500795 0.007950805542514656 -0.23339732408608657 0.03590464647831404 0 0 0 0
12061722 0.2854950618120606 0.008033335286579695 -0.23345198193522546 0.03605567290114854 0 0 0 0
12094668 0.2856067458389391 0.007849318290049806 -0.23341095983711926 0.03618703333186414 0 0 0 0
12127614 0.285549659869964 0.00798045292352952 -0.23347509299682395 0.03634150183375296 0 0 0 0
12160560 0.28556216908680465 0.007898415884812071 -0.2334231483652019 0.03645597432121303 0 0 0 0
12193506 0.2857668806877554 0.007664238727446073 -0.2334031726427743 0.03653448044523965 0 0 0 0
12226452 0.2857011531994758 0.007795321557397832 -0.23338092583996015 0.036592313395296026 0 0 0 0
12259398 0.28584141839321586 0.007760466150008449 -0.23331359910668217 0.03678274318635354 0 0 0 0
12292344 0.28592683532575375 0.007639363901825675 -0.2331944457005751 0.03680234312894866 0 0 0 0
12325290 0.2858144989651744 0.007545586614704579 -0.23314755243518778 0.03689684823886095 0 0 0 0
12358236 0.2860085606232259 0.007513578747206143 -0.23328579969525445 0.03711191377278162 0 0 0 0
12391182 0.2860606164357738 0.007594851679480572 -0.2332409698747362 0.037255052119299345 0 0 0 0
12424128 0.2860517505865968 0.007510239186868109 -0.23311754361335438 0.03742620231088431 0 0 0 0
12457074 0.2859555236184182 0.007501624858839054 -0.2331921901056302 0.03745358704662661 0 0 0 0
12490020 0.28616667544075375 0.007462561247970795 -0.23311045261153046 0.03759511252075107 0 0 0 0
12522966 0.2861327146838065 0.007306275243360152 -0.23297286311399368 0.037684770006680836 0 0 0 0
12555912 0.2862517567324541 0.007378225945627229 -0.23299993707812866 0.037777064312018514 0 0 0 0
12588858 0.28623727610145067 0.00732096368527654 -0.23302760306059278 0.037944283787325124 0 0 0 0
12621804 0.28631441481675096 0.0073216445714199005 -0.2330312211443562 0.03808525185568117 0 0 0 0
12654750 0.2862972021466595 0.00726253967012182 -0.2329880579978716 0.03816031108328244 0 0 0 0
12687696 0.28632013458231176 0.007301641368163441 -0.23292729921504804 0.03828448662753915 0 0 0 0
12720642 0.2864717831943369 0.007299431304802202 -0.23298104236461922 0.038513930473599405 0 0 0 0
12753588 0.2862013522341166 0.007279766572879762 -0.23297906048753633 0.03867415725805876 0 0 0 0
12786534 0.2864348259789551 0.007015304859793442 -0.23290925827831246 0.03865567004991775 0 0 0 0
12819480 0.28659757165810074 0.007052525698024058 -0.23291523077982634 0.038683499887919526 0 0 0 0
12852426 0.2864140475945556 0.007000755022874955 -0.23279878677856658 0.038935224202836606 0 0 0 0
12885372 0.28651022988329394 0.007043293929983555 -0.23283804349364742 0.03904509223640751 0 0 0 0
12918318 0.2867210148219172 0.006885721250180689 -0.2328187864149621 0.03925209956876764 0 0 0 0
12951264 0.28676957053709484 0.0069304611136797615 -0.2327348904939954 0.039330009435250404 0 0 0 0
12984210 0.28657043804034144 0.0069849613307392715 -0.2328049484895824 0.039398144658440236 0 0 0 0
13017156 0.28665024302284675 0.006806853346974141 -0.23278345137600545 0.03947905933618911 0 0 0 0
13050102 0.2867495294664047 0.006722871245204378 -0.23262880308365583 0.039640781452673565 0 0 0 0
13083048 0.28683910546676467 0.006811285038264129 -0.23265576770659868 0.03978881268592013 0 0 0 0
13115994 0.28688861435939805 0.0068196709076503706 -0.23264673403051803 0.03993910884205113 0 0 0 0
13148940 0.28674480651643597 0.006865937087227083 -0.2326336535862059 0.03994592774828211 0 0 0 0
13181886 0.2867875175606703 0.006646085510496951 -0.2326252602297899 0.04005018376261573 0 0 0 0
13214832 0.28705745074195477 0.006638217065405862 -0.23263928436752487 0.04024262504682046 0 0 0 0
13247778 0.28681546284832105 0.006734534701422826 -0.23254388554122227 0.040230307623813064 0 0 0 0
13280724 0.2870197821555002 0.006666611929728989 -0.23254324873622265 0.04039005019570046 0 0 0 0
13313670 0.2870382211386074 0.006586453657251622 -0.2323681659334793 0.04051421585814883 0 0 0 0
13346616 0.28724375266633445 0.006443750544155026 -0.23245161834131303 0.040725771267257134 0 0 0 0
13379562 0.28713673092961856 0.006482590063489545 -0.23243423058843246 0.04081459693936371 0 0 0 0
13412508 0.2870637634414139 0.006673975839119455 -0.2324517020644884 0.04089950002979491 0 0 0 0
13445454 0.28731444563104036 0.006309565659519132 -0.2324391983748001 0.04102511003188759 0 0 0 0
13478400 0.28731238503932666 0.00641536639058189 -0.23243051534482806 0.04137065127375615 0 0 0 0
13511346 0.28723875040078983 0.006328862177080904 -0.23234147901246502 0.04125764739527816 0 0 0 0
13544292 0.2874000257974235 0.006319397609258884 -0.23253633767293003 0.04154604671077165 0 0 0 0
13577238 0.2875050697676134 0.006195097063576074 -0.23241800195970952 0.041536637064935836 0 0 0 0
13610184 0.28757034846099055 0.006380853846874312 -0.23236021043769697 0.041599062657367736 0 0 0 0
13643130 0.28756541899622906 0.006187281435279859 -0.23225761846404783 0.04176693094356251 0 0 0 0
13676076 0.28779268203458286 0.006105557790638964 -0.23230108337576377 0.041971224465687365 0 0 0 0
13709022 0.2877035069312387 0.006020370997032866 -0.23226835972253526 0.0421291553236192 0 0 0 0
13741968 0.28754564836373125 0.0061967419546139655 -0.23223417186949963 0.04216539452039116 0 0 0 0
13774914 0.28760302662825943 0.006144948109117307 -0.2321519364497457 0.042195408941935186 0 0 0 0
13807860 0.28766405650738647 0.005937160020583216 -0.23219813153068186 0.04239701184133423 0 0 0 0
13840806 0.2876962425118862 0.00588330545519752 -0.23211845942799683 0.04256353091512108 0 0 0 0
13873752 0.28794668916571314 0.005923946668296473 -0.232153171721421 0.042538928218388394 0 0 0 0
13906698 0.28782930774788124 0.005860698515483641 -0.2320316093460208 0.04276834462470468 0 0 0 0
13939644 0.2878628565612187 0.005940621169043271 -0.23211439497519007 0.042829639631663544 0 0 0 0
13972590 0.28784247976137295 0.0057299127942249456 -0.23202613225928279 0.042992971760332545 0 0 0 0
14005536 0.2878761377018195 0.005843566060673237 -0.23197299524810217 0.04312991990061078 0 0 0 0
14038482 0.2881800035742815 0.005835552647792485 -0.2319953213088997 0.04315179164746696 0 0 0 0
14071428 0.28812547321069887 0.005680600242521643 -0.23203527595496415 0.043400030522921074 0 0 0 0
14104374 0.2880118207300664 0.005594224742567268 -0.2319444963545559 0.043533618528789286 0 0 0 0
14137320 0.28816066721114647 0.005674685023013264 -0.23199097742922314 0.04358158398435933 0 0 0 0
14170266 0.2882353938921005 0.005607585506483475 -0.23184783166723497 0.043655464044530086 0 0 0 0
14203212 0.2881344401950338 0.005606901924947902 -0.23183709460869076 0.04376813834095099 0 0 0 0
14236158 0.28832202856951555 0.005525281850704113 -0.23177277748965097 0.04386024422788158 0 0 0 0
14269104 0.2884125081138511 0.0054945956702739315 -0.2317351810814525 0.04399661250965425 0 0 0 0
14302050 0.28848767139334364 0.0054141778668955485 -0.2316427008696248 0.04425528981256698 0 0 0 0
14334996 0.2884145862318148 0.005439366940598214 -0.23173052323908372 0.04428129449533803 0 0 0 0
14367942 0.2884159818417727 0.005345513923310301 -0.2317885219287014 0.0443955471129802 0 0 0 0
14400888 0.28839412369700546 0.005450314090201208 -0.2316463128306634 0.04454476387166154 0 0 0 0
14433834 0.28861556958501017 0.005278503287469287 -0.23159201135284752 0.04466392056569969 0 0 0 0
14466780 0.28873193191220353 0.005269007297467628 -0.23171943676629947 0.044758339670809305 0 0 0 0
14499726 0.28875751188293486 0.00504782251372851 -0.2317188777527417 0.04502219296325147 0 0 0 0
14532672 0.2889046162688454 0.005186723985328219 -0.2316488734702793 0.04507675670334722 0 0 0 0
14565618 0.2886753129539337 0.005333535830458981 -0.2315470697380621 0.04507141867126374 0 0 0 0
14598564 0.28876238680476646 0.005176811688359482 -0.23149065559193804 0.045231106315683785 0 0 0 0
14631510 0.2887600967903924 0.005164728610638221 -0.23158108960304094 0.045301711510429644 0 0 0 0
14664456 0.28890054079966543 0.005065473605245547 -0.23146905612429483 0.045439193216491425 0 0 0 0
14697402 0.28906714986645843 0.0048804741445855095 -0.2314963247537667 0.04570659667891632 0 0 0 0
14730348 0.2887444974315198 0.005219123608553351 -0.23134072254905058 0.04567273070630017 0 0 0 0
14763294 0.2888629927194775 0.005118605688031502 -0.23131432374165922 0.04578524295702396 0 0 0 0
14796240 0.2890845353572124 0.004812086861471951 -0.2315216415740495 0.04600347979436384 0 0 0 0
14829186 0.28893023560504216 0.0049586924461055785 -0.2313110460852058 0.04602221078500803 0 0 0 0
14862132 0.28920222553227787 0.004751790734446609 -0.23126825272338147 0.04617444789069193 0 0 0 0
14895078 0.2893535408035947 0.004760758221786903 -0.23128999688145238 0.04628778357359402 0 0 0 0
14928024 0.2890399817655273 0.004805953684434798 -0.2311341813876249 0.04636357946804741 0 0 0 0
14960970 0.2892759853684994 0.004829877640350585 -0.2312350491178282 0.04648414208301939 0 0 0 0
14993916 0.28948338084770997 0.00459446896521145 -0.23123260717230165 0.046668125443249636 0 0 0 0
15026862 0.28928163071232 0.004658898621836606 -0.23123809586258012 0.04683287306198753 0 0 0 0
15059808 0.2893802752877282 0.004710209286077223 -0.23107777188387213 0.04676608580953802 0 0 0 0
15092754 0.28966873981939195 0.004566509799313431 -0.23124937311651025 0.04699622757172623 0 0 0 0
15125700 0.289621790244091 0.004563760811200633 -0.23122914753613563 0.04714027876513397 0 0 0 0
15158646 0.2894922506608755 0.004715180490473142 -0.23105255185439555 0.047219627361724865 0 0 0 0
15191592 0.2895289687878419 0.0045329223211829734 -0.23105595628957334 0.04729643032022798 0 0 0 0
15224538 0.2896847831771958 0.0044607417048907515 -0.23099326122937505 0.047430376667071006 0 0 0 0
15257484 0.2895348001766908 0.004524639819873896 -0.23104696064890354 0.04761917442350119 0 0 0 0
15290430 0.28965877514152427 0.0042789160412924 -0.23078448581768404 0.047568789292934906 0 0 0 0
15323376 0.2898872466685848 0.004273638802473592 -0.23098968888546997 0.04785221240710336 0 0 0 0
15356322 0.28976988358048406 0.004487030909042148 -0.2307987624093959 0.04785097681739393 0 0 0 0
15389268 0.2896425303749917 0.004285117283245451 -0.23079230160857622 0.047948119052994995 0 0 0 0
15422214 0.2898574865733344 0.004255841889948861 -0.23077080750532108 0.04804344396535968 0 0 0 0
15455160 0.289776917688583 0.004273342335749586 -0.23086078114746136 0.04819340587099804 0 0 0 0
15488106 0.2900605777004763 0.004202871236518445 -0.23062275196613172 0.048323295993170444 0 0 0 0
15521052 0.2900555147231799 0.004225895969985444 -0.23070370551829464 0.04842390495911131 0 0 0 0
15553998 0.29015325527191305 0.003972488495178604 -0.2307822632426543 0.04867819174425307 0 0 0 0
15586944 0.29003567025765153 0.004112978819785417 -0.23067480099994508 0.04871842109328775 0 0 0 0
15619890 0.29034929246645824 0.003930576552143692 -0.23066595438306842 0.04886824652387915 0 0 0 0
15652836 0.29017917533046195 0.003930851466666907 -0.23070821589847487 0.04894217187414854 0 0 0 0
15685782 0.2902096133676877 0.003974733955716711 -0.23063935309773262 0.04907461842606254 0 0 0 0
15718728 0.2902903580455886 0.003932450607601387 -0.23056442755381576 0.049239707397451885 0 0 0 0
15751674 0.2902916605833159 0.0038835946860230073 -0.23046165761287363 0.04934485479288255 0 0 0 0
15784620 0.2905174770622896 0.003867629380285667 -0.23049767385408798 0.04942390587720854 0 0 0 0
15817566 0.2905867275784532 0.0038194774368413066 -0.23080485729054454 0.04947981758209472 0 0 0 0
15850512 0.2903896845892032 0.00387479942070399 -0.2303391289505528 0.049640505322134335 0 0 0 0
15883458 0.2906161300228042 0.003713706553959962 -0.2305443031375376 0.04974495483654178 0 0 0 0
15916404 0.29049732035837955 0.003655848670887594 -0.23039481737687292 0.049859202336900776 0 0 0 0
15949350 0.2905306430686291 0.003747629472969996 -0.23026939017765574 0.049944207548636266 0 0 0 0
15982296 0.2907506236052402 0.0034898395061733786 -0.23044599726534545 0.05016415039875887 0 0 0 0
16015242 0.29069060933803537 0.0036390461355070205 -0.23023717407527622 0.050196439197063514 0 0 0 0
16048188 0.29062154891478975 0.003710665533318423 -0.23025192743789924 0.05035491904402345 0 0 0 0
16081134 0.2907963721558942 0.0033267223338330374 -0.2303059061994615 0.050532669963300456 0 0 0 0
16114080 0.29069546473896424 0.003431248442573878 -0.23026201681349856 0.05061959799260153 0 0 0 0
16147026 0.2908993003282358 0.003510002906760261 -0.23014045411864953 0.05063518978976517 0 0 0 0
16179972 0.29107969142447015 0.0033160323590184586 -0.2302444276928287 0.0507907215926156 0 0 0 0
16212918 0.29118939565319885 0.0032549579921562176 -0.23008306013441368 0.05086461849958176 0 0 0 0
16245864 0.2909551993135428 0.003355945155864674 -0.23013445443851382 0.051059364912854316 0 0 0 0
16278810 0.2908979845387305 0.0032795177288458452 -0.2301293776047292 0.05110256668181239 0 0 0 0
16311756 0.29111657440261485 0.0032951345178691117 -0.23006931281961998 0.051305948908080955 0 0 0 0
16344702 0.29122532905766857 0.003220205531438778 -0.22991074478781584 0.05129490493456016 0 0 0 0
16377648 0.29133789664091997 0.0031339986058264192 -0.23001457817511622 0.05149829281539583 0 0 0 0
16410594 0.29124699436404683 0.0032418094749922257 -0.23007205400925382 0.051560117339617566 0 0 0 0
16443540 0.29142482294080946 0.003059469341583826 -0.2299035525544796 0.05173708179168334 0 0 0 0
16476486 0.2913464805963208 0.00307310340196313 -0.22987575088285636 0.05187029997701884 0 0 0 0
16509432 0.2913479266988029 0.003053541281757664 -0.22975404441663522 0.05192614341596052 0 0 0 0
16542378 0.2914113243771527 0.0030438445961558755 -0.22976081312911015 0.052002269675114315 0 0 0 0
16575324 0.2915123709815104 0.0029105233985782302 -0.22983175211211784 0.052103876556968465 0 0 0 0
16608270 0.29156707620304123 0.0028169069812699495 -0.22979340421624894 0.05241174228295418 0 0 0 0
16641216 0.2916012721850593 0.002824443661726463 -0.2296921844678728 0.05239719619677484 0 0 0 0
16674162 0.291775288705896 0.0028447043937242476 -0.22977271614112108 0.05245661197312741 0 0 0 0
16707108 0.292110895362081 0.0027866218965367172 -0.2297208960308046 0.05254871418539152 0 0 0 0
16740054 0.2917049463808415 0.002866996847571625 -0.2296319547690469 0.052699888669273026 0 0 0 0
16773000 0.2917528784557481 0.002780917753437303 -0.2296018582090468 0.05286320339740978 0 0 0 0
16805946 0.2922072974588336 0.002659900728994641 -0.22954290037164676 0.05288040378684065 0 0 0 0
16838892 0.29147530160272866 0.0026246847451504175 -0.2295288598446329 0.053034883148085105 0 0 0 0
16871838 0.29218940609450417 0.002446024794416679 -0.2294372357805765 0.053148444824389365 0 0 0 0
16904784 0.29206303857954835 0.0025037376735478323 -0.22940265530746923 0.053212514785794925 0 0 0 0
16937730 0.29183976366153036 0.0024850159045624906 -0.22949520987136782 0.05340640503893701 0 0 0 0
16970676 0.2922738529693509 0.002644286905096191 -0.22943901580564505 0.053433428312044624 0 0 0 0
17003622 0.2922682681602602 0.0023607453184705234 -0.22939085416358682 0.053845189393759846 0 0 0 0
17036568 0.29203229333362546 0.0025541267467895142 -0.22924681402024666 0.053770393844675676 0 0 0 0
17069514 0.29222131416409336 0.002418981678920559 -0.22938416276646287 0.05385503393099492 0 0 0 0
17102460 0.2921560017715939 0.002470433851742693 -0.22926617603143684 0.05399135027561759 0 0 0 0
17135406 0.2923278460423446 0.00226739713498804 -0.22940745669861587 0.05423858758870698 0 0 0 0
17168352 0.2921842223000914 0.002351910192045182 -0.22926681262208434 0.05423148564422384 0 0 0 0
17201298 0.2923012912648267 0.0022029674504495693 -0.22923134296694198 0.05433416520628297 0 0 0 0
17234244 0.29256555025883907 0.002157721854411752 -0.2291885500004781 0.05441273701498584 0 0 0 0
17267190 0.29230649144438936 0.0022003214022554636 -0.2291270692930154 0.05458500764112664 0 0 0 0
17300136 0.2924842844934712 0.0020611000474717368 -0.2290438099373344 0.0546340370742485 0 0 0 0
17333082 0.2927421040496085 0.0018613222156706973 -0.22905337742956466 0.05479088666946788 0 0 0 0
17366028 0.2924695199421841 0.002125060716706815 -0.22889292241045014 0.05487719271170032 0 0 0 0
17398974 0.29268473427921776 0.0022872857600787933 -0.229077455671209 0.05490346233818906 0 0 0 0
17431920 0.2926110267481125 0.002007319215049414 -0.22892741202025946 0.05520242026910003 0 0 0 0
17464866 0.2929752846024351 0.00189668566954903 -0.22914796419178024 0.05537021478329087 0 0 0 0
17497812 0.2930236352203065 0.0018707653220524259 -0.22899546679914332 0.055365016587818096 0 0 0 0
17530758 0.2931900710850332 0.0017355456318570214 -0.22874478583558697 0.05561275607124629 0 0 0 0
17563704 0.29330450664864316 0.0022894210537589936 -0.22867439198188766 0.05566517976483921 0 0 0 0
17596650 0.29302515479763985 0.0016111195337036761 -0.22871112531330198 0.05566199782692274 0 0 0 0
17629596 0.293039103552753 0.0017563629705964843 -0.22869080532156139 0.05568484281553261 0 0 0 0
17662542 0.2931571164513571 0.0014885227841044896 -0.22860702595498872 0.05588351052908126 0 0 0 0
17695488 0.293469830517933 0.001380508132003239 -0.22873902816100125 0.05602371309316617 0 0 0 0
17728434 0.29322174016316205 0.0014181425826581071 -0.22870717592973167 0.0561816987001054 0 0 0 0
17761380 0.29326847912457626 0.0016916541361943081 -0.22872641550586448 0.05622987893372063 0 0 0 0
17794326 0.29319234516950216 0.0015412266323573227 -0.22869652061168308 0.05627460208750976 0 0 0 0
17827272 0.29328478017967663 0.0013962559368294152 -0.22855431706511553 0.056542650678454896 0 0 0 0
17860218 0.2931860788258595 0.0013831999019832343 -0.22858743514894012 0.05653794352870279 0 0 0 0
17893164 0.2934245948683813 0.0014429605868784966 -0.22849055192160864 0.05665943824021663 0 0 0 0
17926110 0.29344850019607477 0.0012491416152973919 -0.2284931534151106 0.05685598691261401 0 0 0 0
17959056 0.29344823971985223 0.0014179939845833944 -0.22845666824530217 0.056961378492886725 0 0 0 0
17992002 0.2937015337827465 0.0011650671242327383 -0.22836235100622623 0.05691988575229316 0 0 0 0
18024948 0.29367301547518165 0.0013090744933600509 -0.2284616667855458 0.05713139295919836 0 0 0 0
18057894 0.2936414049236935 0.0010812815730286253 -0.22841165461895752 0.057311165274100934 0 0 0 0
18090840 0.2936784501197056 0.0014888453688690333 -0.22837008370310966 0.057334547172076845 0 0 0 0
18123786 0.29383648750233937 0.000970309559384827 -0.22832692444005112 0.057408105027043216 0 0 0 0
18156732 0.2938495242174898 0.00097391874588025 -0.2282033565573938 0.057698982707149876 0 0 0 0
18189678 0.2941241133240592 0.0010097953372222696 -0.22826738466962077 0.057648690085056804 0 0 0 0
18222624 0.29396557139704155 0.0009712994156164046 -0.22829394452076518 0.05786034603243559 0 0 0 0
18255570 0.29385122660802787 0.0009473591767830034 -0.22811918674256867 0.057893919793682816 0 0 0 0
18288516 0.2940189526677027 0.000911067674665007 -0.22811661740644656 0.05813703126043788 0 0 0 0
18321462 0.2940350450335056 0.0007890179095808301 -0.22808689381713051 0.0582411375934711 0 0 0 0
18354408 0.29419985922638187 0.0008187593041469447 -0.22817159795313235 0.05825305917858353 0 0 0 0
18387354 0.29397753903572715 0.0006614544682607624 -0.22806173079326927 0.05830058894164594 0 0 0 0
18420300 0.2941779597556619 0.0008868935931063874 -0.22790235724176605 0.05828402021850601 0 0 0 0
18453246 0.29415001622316644 0.0007597250606537397 -0.2280488888352934 0.058668270011856614 0 0 0 0
18486192 0.29422313915761505 0.0007146911477260234 -0.22796364151706378 0.05879565626710447 0 0 0 0
18519138 0.29444232355685995 0.0005923735003476505 -0.22792853289621454 0.05882051393259686 0 0 0 0
18552084 0.2944432454473119 0.0005546401556255624 -0.22786316896614342 0.05888074913855313 0 0 0 0
18585030 0.29449008773639207 0.0006875598212004003 -0.22788438185668833 0.059107643694350974 0 0 0 0
18617976 0.29443528040282424 0.0006492930368077982 -0.22783753323157452 0.059081741401857284 0 0 0 0
18650922 0.2945440394534869 0.00032761087071698586 -0.22773724128228826 0.0593706029878747 0 0 0 0
18683868 0.29452597695944394 0.0004368014643483021 -0.22773891037062552 0.05937916726106213 0 0 0 0
18716814 0.29479097055528575 0.0003548540496702639 -0.2277163225088178 0.05937011342002792 0 0 0 0
18749760 0.2947841689690338 0.0003655286586696131 -0.22768299245415544 0.059572293647177484 0 0 0 0
18782706 0.2947143950421076 0.0003429129692358762 -0.2277076907276135 0.059719031286822453 0 0 0 0
18815652 0.29481472377451146 0.0002616664216087411 -0.22759034526367053 0.059766216786694165 0 0 0 0
18848598 0.29497364124688624 0.0002591134443871338 -0.2276445462175695 0.05999651120414339 0 0 0 0
18881544 0.29493064640084415 0.0002582737024274584 -0.22749834245068842 0.05996438595788266 0 0 0 0
18914490 0.29505726086616924 0.0002507842633359097 -0.22766031638798476 0.0602212747837799 0 0 0 0
18947436 0.29518964859507746 -1.2393911978097459e-05 -0.227646058752071 0.06028994528318072 0 0 0 0
18980382 0.29511947752309214 5.509509536173996e-05 -0.2274138289965865 0.06030258573943468 0 0 0 0
19013328 0.2949687953922639 0.00018227023060221492 -0.2274505014992045 0.06042805583342423 0 0 0 0
19046274 0.295202631775232 -2.9538036293986196e-05 -0.22732603622908468 0.0606288830791633 0 0 0 0
19079220 0.2950899723547972 -3.370155132180834e-05 -0.22749801738593972 0.060848602523097 0 0 0 0
19112166 0.2952366685481134 -1.954790939971732e-06 -0.22728009239129804 0.060759364978268456 0 0 0 0
19145112 0.29526997153852164 -0.00025861685656776515 -0.2273808901614265 0.061001580147216516 0 0 0 0
19178058 0.29547682938932496 -0.00013940200485082388 -0.22735073940620174 0.06112094933189797 0 0 0 0
19211004 0.29537838524872534 -7.26537818738012e-05 -0.2272569474067096 0.06111011630181257 0 0 0 0
19243950 0.2954544874860307 -0.0003351793263426449 -0.22720759715510935 0.061278716727508876 0 0 0 0
19276896 0.29541517333803546 -0.00018937405009849623 -0.2271516890250178 0.06147126440015368 0 0 0 0
19309842 0.29563767444032085 -0.000409659484898495 -0.22718877622031244 0.061554616352563596 0 0 0 0
19342788 0.2957981412714212 -0.00028439192001403907 -0.22718070546093175 0.06165467126527169 0 0 0 0
19375734 0.29547746258526264 -0.00032790986823555754 -0.22701277443506843 0.06166108456672413 0 0 0 0
19408680 0.2957771397386152 -0.0004785520328773705 -0.22705918498298822 0.06185207621239361 0 0 0 0
19441626 0.2956300153003809 -0.0003842223889033968 -0.2270154641069214 0.06184171317605635 0 0 0 0
19474572 0.29571808710450553 -0.0006401006536413759 -0.2269415203954587 0.06206944330098278 0 0 0 0
19507518 0.29587316529121593 -0.0005206184663913734 -0.22693297016056224 0.06208745391053488 0 0 0 0
19540464 0.29591847898369844 -0.0005237420739611215 -0.22685594719372557 0.062310897278399585 0 0 0 0
19573410 0.29598822701570626 -0.0007105660261788769 -0.2268554023485847 0.062392198408517015 0 0 0 0
19606356 0.29594607141685425 -0.0006676412495735277 -0.22666680217937948 0.06249648229673012 0 0 0 0
19639302 0.2960993658145723 -0.000637411073421456 -0.2267994200882227 0.06252283479726523 0 0 0 0
19672248 0.29614507420613817 -0.000756717695250965 -0.22674946556877876 0.0626533727458005 0 0 0 0
19705194 0.29607065042333164 -0.0008223435379166593 -0.2266861005626944 0.06277822980715851 0 0 0 0
19738140 0.2962642140188886 -0.0007957636665510022 -0.226735919135837 0.0627368458766183 0 0 0 0
19771086 0.29618177397280676 -0.0008574739985578699 -0.22661184425388767 0.06303382326455129 0 0 0 0
19804032 0.2962934863512416 -0.0010452590054626733 -0.22659375241398835 0.06324759264124265 0 0 0 0
19836978 0.29643004773973636 -0.001008733598390491 -0.22653826759041135 0.06312609474979224 0 0 0 0
19869924 0.29647134525139035 -0.0010173702481336368 -0.2265745122830002 0.06339273405178303 0 0 0 0
19902870 0.2963867113256838 -0.0009595326260688155 -0.22653799395222096 0.06350928274469546 0 0 0 0
19935816 0.296468616469967 -0.0011931465140005528 -0.22642509465152003 0.06355879181124918 0 0 0 0
19968762 0.296512971927831 -0.001048149803113184 -0.2263943566750451 0.0636791037684241 0 0 0 0
20001708 0.2966329434295055 -0.0012722567836934173 -0.22643615063116707 0.06377911477543032 0 0 0 0
20034654 0.296501244390079 -0.0013051362414041275 -0.22637313383962662 0.06402744914608058 0 0 0 0
20067600 0.2967149355747274 -0.0012289905191238087 -0.22628843005937083 0.06395944558255244 0 0 0 0
20100546 0.29668216317314094 -0.0012079221686652427 -0.22628219830556193 0.0641681558309852 0 0 0 0
20133492 0.29687195222647933 -0.001463956851368347 -0.2262565008461916 0.06428089161520524 0 0 0 0
20166438 0.2968768309194394 -0.0014258252297705792 -0.22627899829700254 0.06443870457593127 0 0 0 0
20199384 0.29679569136857 -0.001460653545531997 -0.22609369672726684 0.06443016523502902 0 0 0 0
20232330 0.2969927338610023 -0.0014797492863461242 -0.2261785995016728 0.06461264269335655 0 0 0 0
20265276 0.29708466587731813 -0.0016258893249465663 -0.22611451247738598 0.06470090200924593 0 0 0 0
20298222 0.29712875871353706 -0.0017063216169973822 -0.2260988016196634 0.06481940650704843 0 0 0 0
20331168 0.29725246164452485 -0.0015183033428282024 -0.2260104682039092 0.06486178150937703 0 0 0 0
20364114 0.29711361871642905 -0.0016329299256896803 -0.225999730013097 0.0651060287749637 0 0 0 0
20397060 0.2970908288205732 -0.001743130140480514 -0.2260035422636848 0.0651158117020554 0 0 0 0
20430006 0.2973163957784864 -0.0017829043303690271 -0.22603279243300436 0.06522391036790558 0 0 0 0
20462952 0.2973857073729838 -0.0018148995037414759 -0.2258616420805898 0.06539575267403006 0 0 0 0
20495898 0.29755754302670373 -0.001745854374506177 -0.22595661679527823 0.06544340793992127 0 0 0 0
20528844 0.2973792663658663 -0.0017984179017959756 -0.2258849530206458 0.06567033614335327 0 0 0 0
20561790 0.2975175305876429 -0.0018354531102216548 -0.225891878430033 0.06572201504045307 0 0 0 0
20594736 0.29760195689293495 -0.0019596619200305285 -0.225767515417126 0.06579074385256094 0 0 0 0
20627682 0.2976052215040494 -0.0019218603220632886 -0.22560848493430555 0.06588860264049068 0 0 0 0
20660628 0.29784854769664515 -0.001969549726870919 -0.2256742749271075 0.06605983362954311 0 0 0 0
20693574 0.2976375120229117 -0.002039296855447682 -0.22570986257062814 0.06618776797199427 0 0 0 0
20726520 0.2976388802932448 -0.0020501744559748136 -0.22567210832531384 0.0662955338339795 0 0 0 0
20759466 0.29754555652195125 -0.002116765203926164 -0.22551860334697918 0.06631540814276109 0 0 0 0
20792412 0.2978124331479726 -0.002240892929496802 -0.22565634690902572 0.06645410069350934 0 0 0 0
20825358 0.29804626519016264 -0.0022676610535265545 -0.22550893953632126 0.06651281431894776 0 0 0 0
20858304 0.298050742574279 -0.0022210465195163596 -0.2254255419839462 0.066697163141846 0 0 0 0
20891250 0.29790822561059666 -0.0023044617317058624 -0.2253919748824182 0.06686653196855748 0 0 0 0
20924196 0.29799367474018307 -0.0023459263715286845 -0.22531863074692882 0.06698332158173216 0 0 0 0
20957142 0.2982113115265404 -0.00242380650187506 -0.22554734165561385 0.0669756863652173 0 0 0 0
20990088 0.2982690852289696 -0.002471779028484607 -0.22539813524066907 0.06713087416270186 0 0 0 0
21023034 0.2981913466983408 -0.002539824720528462 -0.22519068894422237 0.06726094125384333 0 0 0 0
21055980 0.2983846681295218 -0.0024487751197389707 -0.22526553099869032 0.06724953849557795 0 0 0 0
21088926 0.2983523158231498 -0.0026889792961490968 -0.22530875107523948 0.06760368008441138 0 0 0 0
21121872 0.29813403528215676 -0.002568451441699261 -0.2250678032937261 0.06752755559274082 0 0 0 0
21154818 0.2984943069264893 -0.0026124905421117802 -0.2252012581386622 0.06762666611225031 0 0 0 0
21187764 0.2984534846323227 -0.002764439984388501 -0.22511049772378358 0.06779648099067154 0 0 0 0
21220710 0.29844105669104265 -0.0027559539333265695 -0.2250989647362705 0.06770460491283106 0 0 0 0
21253656 0.2986385429178174 -0.0029085012659529107 -0.22497948714366064 0.06795976641575484 0 0 0 0
21286602 0.29856573358014815 -0.002713806394632073 -0.22495435287977972 0.06811648685867099 0 0 0 0
21319548 0.2987658234044507 -0.0029822601057514935 -0.22510343597162039 0.06819959755334906 0 0 0 0
21352494 0.2987039735569459 -0.002941553956553863 -0.22479863663885225 0.06818943515214602 0 0 0 0
21385440 0.29872671196141104 -0.002924520931864004 -0.22474958044858026 0.06834484150301799 0 0 0 0
21418386 0.2988517641545058 -0.0030322622690451186 -0.22495559938231144 0.06852063090598351 0 0 0 0
21451332 0.2988416542461678 -0.003096823969345134 -0.2247772490682302 0.06845992299833827 0 0 0 0
21484278 0.2990123194970492 -0.0031887004818114185 -0.22469037753565532 0.06871198900322484 0 0 0 0
21517224 0.2991209216490332 -0.003086921908445952 -0.22471856726762093 0.06895703166362303 0 0 0 0
21550170 0.29912791724007814 -0.003360251885601554 -0.2246454729811292 0.06901828236931723 0 0 0 0
21583116 0.29922901275965336 -0.0031533601412338636 -0.22458447052108113 0.0689177873625201 0 0 0 0
21616062 0.29924987946370707 -0.0033572745254962827 -0.22477985509743922 0.06918472619559579 0 0 0 0
21649008 0.2992587387178719 -0.0033616137238082658 -0.22448101482456126 0.06909652923773596 0 0 0 0
21681954 0.2993114931770604 -0.003269478958504977 -0.22451074256585626 0.06925217672339537 0 0 0 0
21714900 0.2993409125106987 -0.0033100178382717933 -0.22457309984989532 0.06952943626669977 0 0 0 0
21747846 0.299206403713864 -0.0034407560187877996 -0.2244228516692428 0.0696837722994601 0 0 0 0
21780792 0.29953618851465225 -0.0035151557627767453 -0.22453065247504342 0.0696427215440361 0 0 0 0
21813738 0.2994861000712411 -0.0035593953783649157 -0.22429617092469908 0.06975356382459091 0 0 0 0
21846684 0.29962595675130127 -0.003717281968550638 -0.2242861006258552 0.07003922161915453 0 0 0 0
21879630 0.2995846170226171 -0.003550162840285549 -0.22409520662025276 0.06999600995832177 0 0 0 0
21912576 0.299671528086583 -0.0036066474842117733 -0.22416912889366514 0.07010809711209626 0 0 0 0
21945522 0.29974423483018187 -0.0037180125027386456 -0.22414490369708776 0.07020332760672554 0 0 0 0
21978468 0.299561901081352 -0.0036728805361574933 -0.2240901411463369 0.07015740047760799 0 0 0 0
22011414 0.29968584348357596 -0.0038173239033053464 -0.224205448115877 0.07048344148686567 0 0 0 0
22044360 0.2997574959175093 -0.003917115561395546 -0.2240237394419543 0.07040872918951326 0 0 0 0
22077306 0.30010427904225906 -0.004011500509101209 -0.22413681598193705 0.07073526234829104 0 0 0 0
22110252 0.30004890464283746 -0.004136105685465313 -0.2240432728481297 0.07086344694983973 0 0 0 0
22143198 0.30007145865325896 -0.004188192844601115 -0.22412188555293674 0.07102818133745809 0 0 0 0
22176144 0.3002745025629561 -0.0041135054717582435 -0.22410289239921008 0.07100661641545318 0 0 0 0
22209090 0.300229165051843 -0.004056826971452896 -0.2238792452663982 0.07110012577453223 0 0 0 0
22242036 0.3002369531367926 -0.00412838046409445 -0.22389585976829318 0.07125008939304593 0 0 0 0
22274982 0.3001820366331223 -0.0041227219400840455 -0.22384522472462964 0.07126946976241158 0 0 0 0
22307928 0.3001419068112427 -0.004274604673561064 -0.2238938743681088 0.07149118061959034 0 0 0 0
22340874 0.30022399240853676 -0.004156064193623072 -0.22374570798993648 0.07151828809784451 0 0 0 0
22373820 0.3004431963529389 -0.004347767947945307 -0.22372434618926845 0.07165434291263278 0 0 0 0
22406766 0.30028234719098584 -0.004297726732541803 -0.22367375332864592 0.0716081418892575 0 0 0 0
22439712 0.3006875832844454 -0.004467941464077639 -0.22362299475043007 0.07182110446030181 0 0 0 0
22472658 0.3006077860784333 -0.004427007638394825 -0.22358149021433135 0.07200291523087739 0 0 0 0
22505604 0.30049164965681063 -0.004386463001774503 -0.2234191432393603 0.07196484615111547 0 0 0 0
22538550 0.3007070704687787 -0.004756663124034884 -0.2235835341140169 0.07232053024716417 0 0 0 0
22571496 0.30061685830784696 -0.004527537104426286 -0.22336139262222196 0.072183102047121 0 0 0 0
22604442 0.30089763805898617 -0.004648996441918583 -0.223588068193052 0.07243972820276796 0 0 0 0
22637388 0.3006369083243848 -0.004771539594226149 -0.2233596635020957 0.0724216399987189 0 0 0 0
22670334 0.3009903581388684 -0.004850075371460734 -0.22331506147080818 0.07265453626157256 0 0 0 0
22703280 0.30102911651839137 -0.004738373323164649 -0.22336903639079195 0.07273244748011225 0 0 0 0
22736226 0.30105493979044035 -0.004994563659815373 -0.22333218057669718 0.0729269947478267 0 0 0 0
22769172 0.30093204003662305 -0.0047359478263989205 -0.22316708718540942 0.07280235855115337 0 0 0 0
22802118 0.3011068584359361 -0.004837468923998749 -0.22318764176618297 0.07302688470063688 0 0 0 0
22835064 0.30136130082138807 -0.0049669446348597 -0.2231343777634999 0.07321991664165876 0 0 0 0
22868010 0.3011454500790284 -0.005012272647722793 -0.22300774018541336 0.07313252733848234 0 0 0 0
22900956 0.3013016477140644 -0.005188486368064144 -0.22314718675644085 0.07339796362310758 0 0 0 0
22933902 0.30119276473293344 -0.004906028251389328 -0.2229846469687642 0.0733797986227384 0 0 0 0
22966848 0.3014246163472396 -0.005283742543873568 -0.22315097947027804 0.0736158330534324 0 0 0 0
22999794 0.301393988880909 -0.005251384505701253 -0.2229673619186461 0.0735120728099552 0 0 0 0
23032740 0.3016261567502327 -0.005373357609324438 -0.22296294370109304 0.0739107307251733 0 0 0 0
23065686 0.30146018586905066 -0.005343040232740224 -0.22290964516113984 0.07391517674298778 0 0 0 0
23098632 0.3016682640501254 -0.005467250000661213 -0.22292180100709003 0.07411468452444916 0 0 0 0
23131578 0.30157785141944843 -0.005386440111183036 -0.22296503304862325 0.07407257829551822 0 0 0 0
23164524 0.3015909887577663 -0.005400916792892339 -0.22279762396869446 0.07419887189385253 0 0 0 0
23197470 0.30176281543596745 -0.005394707029130175 -0.22276948494955368 0.07423402271259 0 0 0 0
23230416 0.30188226053045913 -0.0054790266938562135 -0.22265720548934406 0.07430572670378334 0 0 0 0
23263362 0.301802882845337 -0.0055461904552009484 -0.22257669920415746 0.07436832648202833 0 0 0 0
23296308 0.30200455401275134 -0.005612397850802171 -0.2225731898503053 0.0747223951015969 0 0 0 0
23329254 0.3020909507252198 -0.005768632980923748 -0.22265287731865946 0.07481640348422577 0 0 0 0
23362200 0.30193986820147506 -0.0057856344433208475 -0.22258299944358342 0.07497394416519125 0 0 0 0
23395146 0.30202525684241116 -0.005534034963683773 -0.22248576685964871 0.07476401441848861 0 0 0 0
23428092 0.302196152185535 -0.00576376493639905 -0.22256830739998945 0.07499604008593046 0 0 0 0
23461038 0.3024216758301707 -0.005941810742686289 -0.22245989779344535 0.07527160236827408 0 0 0 0
23493984 0.3022781525229051 -0.005929092393753601 -0.2223928919561319 0.07527451248590193 0 0 0 0
23526930 0.3022172593304218 -0.005949429834320928 -0.22245150704130945 0.07532359159784921 0 0 0 0
23559876 0.3023858865078661 -0.005934306862053488 -0.22233076766658047 0.07550874819597764 0 0 0 0
23592822 0.30260066348356474 -0.006063274275667673 -0.22230795751694893 0.07567163442891019 0 0 0 0
23625768 0.3023546495347563 -0.005950730866560502 -0.22220380350040406 0.07573594208089665 0 0 0 0
23658714 0.30254737251321306 -0.00624258100473539 -0.2221875800905316 0.07584734079032125 0 0 0 0
23691660 0.3025671708013754 -0.006379727763363417 -0.22217454580155357 0.07599791614263782 0 0 0 0
23724606 0.30257783473794614 -0.006298517530588277 -0.22210151043810156 0.0759660313902974 0 0 0 0
23757552 0.3028709933344326 -0.006269931018073121 -0.22217912436971235 0.07597313507134933 0 0 0 0
23790498 0.3027784484896594 -0.006256280502446077 -0.22202959135507158 0.07614191689036413 0 0 0 0
23823444 0.30271523292910146 -0.006380799859514773 -0.2219183011737767 0.07629798710228125 0 0 0 0
23856390 0.30286350176093885 -0.00641200493720351 -0.22205766981041583 0.07644345843777589 0 0 0 0
23889336 0.30282841679483413 -0.006318982375152977 -0.22186965475873263 0.07643566874061837 0 0 0 0
23922282 0.303076821277454 -0.006692451370938853 -0.22196267096616168 0.07672785877983067 0 0 0 0
23955228 0.3031175620811558 -0.006564871783494031 -0.2218322850027289 0.07671425631984033 0 0 0 0
23988174 0.30313263378288063 -0.00664070476512749 -0.22173248944460375 0.07695437365513018 0 0 0 0
24021120 0.3031192761961924 -0.006713522972219755 -0.22169228838833488 0.07694615636593614 0 0 0 0
24054066 0.30326960636480105 -0.0068246134289603145 -0.22186629632261445 0.07714702332390143 0 0 0 0
24087012 0.30333034735378955 -0.00684237125633612 -0.22165685707448984 0.07715834422230218 0 0 0 0
24119958 0.30332357103432284 -0.006737824481618703 -0.2215542657339609 0.0771618969367702 0 0 0 0
24152904 0.3035760718972214 -0.006782493830013969 -0.22158020446113705 0.0773640804084896 0 0 0 0
24185850 0.3034000080874738 -0.00692044997214299 -0.22152338713157235 0.07763188259223407 0 0 0 0
24218796 0.30327165552948715 -0.006952954093563578 -0.2214472581284932 0.0775906420872513 0 0 0 0
24251742 0.30358268923774145 -0.006930951068609882 -0.22138451239630844 0.07761810545240104 0 0 0 0
24284688 0.30383033795285036 -0.007070759990483767 -0.22159177462458904 0.07787077757792171 0 0 0 0
24317634 0.3037671643872959 -0.007205706958101878 -0.2213867154632507 0.07788016160533545 0 0 0 0
24350580 0.3036624279744482 -0.007210812161789877 -0.22123649270493687 0.07797601155604561 0 0 0 0
24383526 0.30370615104106335 -0.007326231441345174 -0.22137345266519226 0.07821830776936327 0 0 0 0
24416472 0.3038037972372377 -0.00720649292780972 -0.2212015637710649 0.07809679849212393 0 0 0 0
24449418 0.3039616032322761 -0.007320126412256205 -0.22118724043182506 0.07836552131608114 0 0 0 0
24482364 0.30399880398187434 -0.007319827405104863 -0.22110878438314888 0.07824721549749104 0 0 0 0
24515310 0.3039425940639134 -0.007498812597884833 -0.22114188946908542 0.07866534047265797 0 0 0 0
24548256 0.30396217225963357 -0.0075056612428659455 -0.22096464613408523 0.07862009924077361 0 0 0 0
24581202 0.3040504443353045 -0.00764619046321502 -0.22118976249841768 0.07890426786411386 0 0 0 0
24614148 0.3040135784665425 -0.007416222351515881 -0.2210498645244031 0.07877527034294599 0 0 0 0
24647094 0.30425667065209394 -0.007562649272944724 -0.22095919885337048 0.07899661838631963 0 0 0 0
24680040 0.30446916077664454 -0.007672692604870042 -0.22098441862810128 0.07903815232462953 0 0 0 0
24712986 0.30455655829033157 -0.007670727160115642 -0.22102602924297704 0.07924337631150948 0 0 0 0
24745932 0.3043798813545232 -0.007614816574562419 -0.22077849425309068 0.07921617129221743 0 0 0 0
24778878 0.3045665089614219 -0.007801358392635111 -0.22081900185466743 0.0794820260046876 0 0 0 0
24811824 0.30425484584031076 -0.00791712042319527 -0.22068054271422374 0.07957020830699242 0 0 0 0
24844770 0.304654717970399 -0.007998202968043395 -0.2208479964585932 0.07969630907501836 0 0 0 0
24877716 0.3046407865939563 -0.00795493001760692 -0.22061804914771252 0.07963144244121571 0 0 0 0
24910662 0.30478510570536405 -0.007875255610664425 -0.22057591746764244 0.07971709820992218 0 0 0 0
24943608 0.3050052983780227 -0.00798896939974037 -0.22068537952377965 0.07993548497319337 0 0 0 0
24976554 0.3049360836593231 -0.008146457892143138 -0.22057423334007517 0.08017528829090786 0 0 0 0
25009500 0.30491779145675385 -0.008148796849041504 -0.22057461865532443 0.08019444764672236 0 0 0 0
25042446 0.3049086028664047 -0.0082331733239164 -0.22036697210425688 0.08021565855928137 0 0 0 0
25075392 0.3050344831611214 -0.008228148999289761 -0.22052259301185562 0.08045291900649257 0 0 0 0
25108338 0.30508688369962905 -0.008341364072143543 -0.22039381051763704 0.080458935793927 0 0 0 0
25141284 0.3051549634147515 -0.008363518572498667 -0.2202893357741317 0.0804686535369912 0 0 0 0
25174230 0.3051696269879237 -0.008410279220487375 -0.22025611398270098 0.08062784704457981 0 0 0 0
25207176 0.305206287000359 -0.008525714857526632 -0.22010183159076815 0.08066694093951339 0 0 0 0
25240122 0.30523683237502114 -0.008489949026060102 -0.2202657007163657 0.08096138673347893 0 0 0 0
25273068 0.30537490726468364 -0.008393057489584948 -0.22021017907786092 0.0809016716941624 0 0 0 0
25306014 0.30542619242913116 -0.008543956473223379 -0.22019057260620997 0.08102766681225454 0 0 0 0
25338960 0.3054434830343177 -0.008658319721825531 -0.22006174259995148 0.08122410027970312 0 0 0 0
25371906 0.3054506518786892 -0.008920678075005937 -0.2199322513151586 0.08127971819297722 0 0 0 0
25404852 0.30552757809709763 -0.008727609109820006 -0.2198400635969796 0.08137288451391453 0 0 0 0
25437798 0.30564031956774323 -0.008616739186249235 -0.2200169693820367 0.08133830922870702 0 0 0 0
25470744 0.30580380847866695 -0.008911158065917099 -0.2199684454444651 0.08158919886443387 0 0 0 0
25503690 0.3056609983151159 -0.008889631647718482 -0.2197007797332486 0.08164270834490532 0 0 0 0
25536636 0.3057873016868789 -0.00904541640104243 -0.21983709803102286 0.08185378699391448 0 0 0 0
25569582 0.3058416842864023 -0.009133774734415661 -0.21973704545242098 0.08195349141636282 0 0 0 0
25602528 0.3058454684438128 -0.009142717003842511 -0.21971137425583878 0.08204443129982171 0 0 0 0
25635474 0.30603140482568264 -0.009260573266123798 -0.2197255714563263 0.08222893742642454 0 0 0 0
25668420 0.30606365601353713 -0.009132335100825189 -0.21977298353616861 0.08213369811762758 0 0 0 0
25701366 0.30620341038611215 -0.00932828617009646 -0.21976575406241405 0.08243346346811901 0 0 0 0
25734312 0.30611721451527546 -0.009248204353978362 -0.21941275468957927 0.08227661769273598 0 0 0 0
25767258 0.30609724050448794 -0.009396339820531374 -0.21956136375369337 0.08265619588984166 0 0 0 0
25800204 0.30630769802133095 -0.009491612430203663 -0.21960872786461083 0.08276373335105656 0 0 0 0
25833150 0.306328814119665 -0.009324576045857591 -0.21934801487231434 0.08263075881140965 0 0 0 0
25866096 0.30631239132797106 -0.009373090981678241 -0.219336715306468 0.08282299665353822 0 0 0 0
25899042 0.30656482346844854 -0.009580166897045828 -0.21930239623365452 0.08280753666750448 0 0 0 0
25931988 0.3063811677182994 -0.009570387660454965 -0.21919193282425356 0.08302322170335975 0 0 0 0
25964934 0.3064409269382161 -0.009557917037254662 -0.2193109254066079 0.08304282474817966 0 0 0 0
25997880 0.30675223577405314 -0.00968009744433227 -0.21918566269406378 0.08329712058912113 0 0 0 0
26030826 0.30677356950541873 -0.00977357504287798 -0.21922577706287386 0.08326694113263428 0 0 0 0
26063772 0.30660794344368697 -0.009821643538492573 -0.21908756428531162 0.08344638416894605 0 0 0 0
26096718 0.3067136073158613 -0.00992452040627337 -0.21908622532272468 0.08355490755029253 0 0 0 0
26129664 0.3068806158246422 -0.009998823627708703 -0.219101377059712 0.08373211215357686 0 0 0 0
26162610 0.30680850514324187 -0.009803588839605621 -0.2189848665802912 0.08370152290804865 0 0 0 0
26195556 0.3069962895666119 -0.009915818833020628 -0.2188878886670676 0.08377837444730936 0 0 0 0
26228502 0.3069976387131436 -0.009985582135667258 -0.21883011570874006 0.08382105570720735 0 0 0 0
26261448 0.3071256068169901 -0.010044293321898153 -0.21881550402380634 0.0840029620570934 0 0 0 0
26294394 0.30710157445539293 -0.010297994865345293 -0.21879255634445585 0.08426133014514871 0 0 0 0
26327340 0.30726033940275427 -0.010314755044771839 -0.2188023944767132 0.08438523325273063 0 0 0 0
26360286 0.3071640991622734 -0.010380785998331971 -0.21877732880707146 0.08452986366180024 0 0 0 0
26393232 0.3072588467023051 -0.01016289674232511 -0.21882680081106093 0.08453661809337489 0 0 0 0
26426178 0.3073290135813149 -0.010299075854648187 -0.2187526399639345 0.08462881326871914 0 0 0 0
26459124 0.30744160142708143 -0.010300149247500614 -0.21851046219669631 0.08463181796615532 0 0 0 0
26492070 0.30755635446487634 -0.010402855764604745 -0.2186435683736246 0.08482864151403183 0 0 0 0
26525016 0.3075777738595115 -0.01050557812713778 -0.2184524942155477 0.0848610114220681 0 0 0 0
26557962 0.3075698804238084 -0.010669907579651468 -0.21836612576736525 0.08508846697219241 0 0 0 0
26590908 0.30758357063946107 -0.0107150307094876 -0.21832655707702261 0.085266740698891 0 0 0 0
26623854 0.3075948143921762 -0.010668096504266443 -0.2184485045367828 0.08534115504846639 0 0 0 0
26656800 0.30772877312067876 -0.010645712381867317 -0.21831951875068967 0.08526437918961902 0 0 0 0
26689746 0.3080212315454787 -0.01078930405983595 -0.2182525270826003 0.08545601240089375 0 0 0 0
26722692 0.30794603887679134 -0.010776108788588805 -0.2182172167464436 0.08540400968221985 0 0 0 0
26755638 0.3079261868111713 -0.011004465292272347 -0.2182174836887215 0.08572349202687586 0 0 0 0
26788584 0.30799931550690707 -0.011036625251185312 -0.21823937473923818 0.08584794164382772 0 0 0 0
26821530 0.3079094040139679 -0.010982841756964993 -0.21809237825840308 0.08581008908202077 0 0 0 0
26854476 0.3081474913304518 -0.01105246910660063 -0.2179707476470256 0.08593470255047826 0 0 0 0
26887422 0.30822788489406483 -0.01102292312551034 -0.21799756192392847 0.08605889733410571 0 0 0 0
26920368 0.3082808365317946 -0.011219089789163148 -0.21797015307745615 0.0862179876406164 0 0 0 0
26953314 0.3082409909469241 -0.011399938705289438 -0.21778248678839376 0.08620519868224219 0 0 0 0
26986260 0.30845319489671086 -0.011158330313982482 -0.2180422929403353 0.08634450515282636 0 0 0 0
27019206 0.30845722609614934 -0.01124574775465161 -0.2178548010248402 0.0863511456912422 0 0 0 0
27052152 0.3084863582117612 -0.011252575520089493 -0.2178204678616559 0.08647061156166556 0 0 0 0
27085098 0.3085377934070061 -0.01143891972720198 -0.21783122022587187 0.08663658153559158 0 0 0 0
27118044 0.30854790613369265 -0.011534738589363176 -0.21767613854945486 0.08681922043285675 0 0 0 0
27150990 0.308701145087478 -0.011580978585258455 -0.21765261628944185 0.08678173004502734 0 0 0 0
27183936 0.3086052678174993 -0.011871282064603857 -0.21757668353451665 0.08710308534582747 0 0 0 0
27216882 0.3087454642715317 -0.011739355661599237 -0.21755887692094206 0.08712530353577068 0 0 0 0
27249828 0.3088264492421555 -0.011603310533951125 -0.21764424409023903 0.08717726204492737 0 0 0 0
27282774 0.3089530374247427 -0.011709204745761717 -0.21748897818981794 0.08716991877960029 0 0 0 0
27315720 0.3088797892497873 -0.01189429051061049 -0.21748946022240037 0.08740638733875036 0 0 0 0
27348666 0.3089488529090086 -0.011930351165524983 -0.21751189190891615 0.08744592551678647 0 0 0 0
27381612 0.30907345341957415 -0.01194686828345271 -0.21735108776883338 0.08751147730100266 0 0 0 0
27414558 0.3090782465093189 -0.01202092685887979 -0.21715067904048901 0.08775091277187345 0 0 0 0
27447504 0.3092625375861128 -0.012151342647361712 -0.21733697039673638 0.08776522017214732 0 0 0 0
27480450 0.3091892220801735 -0.01197867946212242 -0.2172279491428688 0.08778771984621551 0 0 0 0
27513396 0.30919150652137845 -0.012110706822047311 -0.21702839690114348 0.08789626077619138 0 0 0 0
27546342 0.309491305307976 -0.012267195672292674 -0.21710383379269083 0.08813782975151008 0 0 0 0
27579288 0.3093355840078929 -0.012372586022609672 -0.21704646690621637 0.0882688813845725 0 0 0 0
27612234 0.30959473906195617 -0.012250580949789047 -0.21712908136711356 0.08842327479776668 0 0 0 0
27645180 0.3094811706652029 -0.01227066263996666 -0.21691841654161387 0.08840018794123113 0 0 0 0
27678126 0.3096846326555958 -0.012433717122697332 -0.21692662438180574 0.08845370455557129 0 0 0 0
27711072 0.30958905973989964 -0.012345542488758068 -0.21678364446627268 0.08860642632321439 0 0 0 0
27744018 0.3096096657688425 -0.012668656749413382 -0.21681061674768837 0.08875178705800632 0 0 0 0
27776964 0.30986494133864784 -0.012628486719606011 -0.21687069700670777 0.08875357656988574 0 0 0 0
27809910 0.30998369359129474 -0.012697589651445351 -0.21674981661158474 0.08879297468966948 0 0 0 0
27842856 0.3097471865190299 -0.012705887617000025 -0.21671026251757392 0.08908918034398434 0 0 0 0
27875802 0.3098415889392291 -0.012796008497900156 -0.21659492473482647 0.08912942727179343 0 0 0 0
27908748 0.31005745854125777 -0.012695215078115803 -0.2167149056551076 0.08919025789850932 0 0 0 0
27941694 0.3100975856988747 -0.012683459810569848 -0.21656552512839897 0.08923341589526416 0 0 0 0
27974640 0.31040278693910733 -0.012928184052133855 -0.2165186295491533 0.08946422022916799 0 0 0 0
28007586 0.31007871721603014 -0.013006671183557658 -0.2164218936076976 0.0894992632543602 0 0 0 0
28040532 0.310209841049768 -0.013196821179390611 -0.2163728249178783 0.08962303275665338 0 0 0 0
28073478 0.31036032006992875 -0.0129798978339048 -0.21649217626276346 0.08964955161924779 0 0 0 0
28106424 0.3101427447275539 -0.012974952861398456 -0.2163211191027959 0.08972056376698642 0 0 0 0
28139370 0.3105506099661973 -0.013273998155682134 -0.21633878861755915 0.09011551193299096 0 0 0 0
28172316 0.3103137148244348 -0.013160716119463397 -0.21623061694630408 0.08985980485679636 0 0 0 0
28205262 0.31055647722366175 -0.01351501483768267 -0.21625495201569628 0.09032394355734182 0 0 0 0
28238208 0.3105722570640175 -0.013584198309907031 -0.2161481802576269 0.09045721364809223 0 0 0 0
28271154 0.310734653550693 -0.013339214792943038 -0.21631064372465436 0.09027908781227947 0 0 0 0
28304100 0.31072365365206817 -0.013383581007109253 -0.21602924834509502 0.09039615052849144 0 0 0 0
28337046 0.3108418735082122 -0.013609472674220503 -0.21597034443115662 0.09064167535124326 0 0 0 0
28369992 0.31090726303142435 -0.013756205807537844 -0.2159096062798061 0.09070317515487743 0 0 0 0
28402938 0.31072116185142284 -0.01360001921941702 -0.2159436002666492 0.09067110931693365 0 0 0 0
28435884 0.3107962262534237 -0.013775424194751742 -0.21575918718282386 0.09091422875429292 0 0 0 0
28468830 0.3109469795515522 -0.013986965341876753 -0.21590019339806094 0.09110350234299516 0 0 0 0
28501776 0.3111914726871434 -0.013804823457996005 -0.21594951438057905 0.09099365114058688 0 0 0 0
28534722 0.3110745937024282 -0.013807771819630554 -0.21565097289435534 0.09102444532954837 0 0 0 0
28567668 0.31132724982367077 -0.013945541684699234 -0.21574615811355816 0.09126878705658194 0 0 0 0
28600614 0.3112545370005209 -0.014150489455599673 -0.21564996245284168 0.0915278187556821 0 0 0 0
28633560 0.31141583426724384 -0.014147295082283046 -0.21565309490848938 0.09135429547266635 0 0 0 0
28666506 0.31132319959936006 -0.014001092647684092 -0.21551187708559422 0.09156772548309601 0 0 0 0
28699452 0.3114895781839754 -0.014176329481942926 -0.21553566551148967 0.0915330521724799 0 0 0 0
28732398 0.31148656400547325 -0.014378289066069385 -0.21547715513401303 0.09183131938778073 0 0 0 0
28765344 0.31148235976084426 -0.014358505486489138 -0.21530670015248587 0.09179496490586142 0 0 0 0
28798290 0.31169562665431216 -0.014260895423155824 -0.21558561055898073 0.0919190540189335 0 0 0 0
28831236 0.31169848391360955 -0.014410967304087573 -0.21529867324563684 0.0921180362563292 0 0 0 0
28864182 0.311717327380406 -0.014606110905967412 -0.21521189733235147 0.09225106771907314 0 0 0 0
28897128 0.3116998620065507 -0.014579917391760313 -0.21506976585409374 0.09226839291293086 0 0 0 0
28930074 0.31189202841349334 -0.014457782321089572 -0.21514141913107737 0.09227366444624427 0 0 0 0
28963020 0.311960930938233 -0.014695682501440155 -0.2150990815336505 0.09260372486484902 0 0 0 0
28995966 0.31200091917160716 -0.01473684225287265 -0.21506192164319257 0.092421896403709 0 0 0 0
29028912 0.3120193468299499 -0.014799344412027838 -0.21498990260942452 0.09266826577134891 0 0 0 0
29061858 0.31198937563484797 -0.01487685086435808 -0.2149845533533166 0.09274875580604466 0 0 0 0
29094804 0.3121474526775694 -0.014694105492804255 -0.21480237313545633 0.09277817638545907 0 0 0 0
29127750 0.3122048935112343 -0.014906151681428292 -0.21482711776838206 0.09290746288569006 0 0 0 0
29160696 0.31221128209339366 -0.01500676801328152 -0.2147810655447812 0.09299587724337564 0 0 0 0
29193642 0.3123194242784203 -0.015323192936307545 -0.2148136873645559 0.0933779640177756 0 0 0 0
29226588 0.3124841820240838 -0.014958656067646396 -0.21508221883939083 0.09329816691788641 0 0 0 0
29259534 0.3124956146996136 -0.015062075410388232 -0.21463790384167553 0.09345431761904077 0 0 0 0
29292480 0.3125497793237023 -0.015164138360208594 -0.21466618931415124 0.09341918687281642 0 0 0 0
29325426 0.3124453758733294 -0.015301544903566229 -0.21460789592583981 0.09359023076303473 0 0 0 0
29358372 0.31257842456282875 -0.015486067075183874 -0.21452401041194233 0.09380607466808207 0 0 0 0
29391318 0.31267534215871906 -0.015486903988698932 -0.21449010252234837 0.09377275895715835 0 0 0 0
29424264 0.3127661143624355 -0.015406942266893847 -0.21447490759793028 0.0938202343739433 0 0 0 0
29457210 0.3128436757705425 -0.015366548817920553 -0.21453847417420835 0.09401536209329549 0 0 0 0
29490156 0.312944186207523 -0.015521617296618316 -0.2142680615089385 0.09410713776207631 0 0 0 0
29523102 0.3130795352601659 -0.015599159334694237 -0.21433400507398792 0.09417641922082066 0 0 0 0
29556048 0.31281296323877616 -0.015698115271778352 -0.21416420626062768 0.09421545551673566 0 0 0 0
29588994 0.3131009020202216 -0.01583164608034902 -0.21422237832650687 0.09449778077800322 0 0 0 0
29621940 0.3130733368274983 -0.01583039433797537 -0.2140496188479503 0.09440460560757381 0 0 0 0
29654886 0.31314270358180474 -0.015800628639045775 -0.2141865788162385 0.09464527386003016 0 0 0 0
29687832 0.3130681652218466 -0.016003625585783908 -0.21404577192099727 0.09476382555934561 0 0 0 0
29720778 0.3133887874389827 -0.0161354417913146 -0.21396759910489127 0.09495909283098042 0 0 0 0
29753724 0.31345470273429815 -0.016155485582372595 -0.21403358265700625 0.09494606631235486 0 0 0 0
29786670 0.3133798477677786 -0.01596449965451896 -0.2139382474525634 0.09506300682481256 0 0 0 0
29819616 0.3135912688871168 -0.016237041027916035 -0.2138901696258151 0.09504726244251373 0 0 0 0
29852562 0.313627426639043 -0.016394427407386124 -0.21388916445227368 0.09528040174904374 0 0 0 0
29885508 0.31358972347758934 -0.016401438947196503 -0.2137283452019928 0.09531326887464409 0 0 0 0
29918454 0.31375277093481735 -0.016347319014966076 -0.21380010885556353 0.09526507481433626 0 0 0 0
29951400 0.3138248231208455 -0.01628813042200037 -0.21373140255178324 0.0954667501584715 0 0 0 0
29984346 0.31381821166940566 -0.016534233397139976 -0.21358208129338127 0.09562205686447724 0 0 0 0
30017292 0.31366542292049254 -0.016433310918162566 -0.21358766164859905 0.09555156183597055 0 0 0 0
30050238 0.31384413610551315 -0.01662002287791958 -0.21349392209183096 0.09576640900222504 0 0 0 0
30083184 0.31411943207803245 -0.016625920054280822 -0.21356195369196795 0.0959098539569396 0 0 0 0
30116130 0.3140263212953614 -0.016603036256140274 -0.21349022470143356 0.09592989667219914 0 0 0 0
30149076 0.31410806043045786 -0.016671815547125948 -0.2135056242399937 0.09602360957452787 0 0 0 0
30182022 0.3141068283144299 -0.016857808394139966 -0.2132792032484994 0.09621916831758938 0 0 0 0
30214968 0.31429902097625745 -0.017081271067320946 -0.21331883471634464 0.09635678540825003 0 0 0 0
30247914 0.31418751770095416 -0.017038831587944732 -0.21326743775220242 0.09640301679591913 0 0 0 0
30280860 0.3144660734072825 -0.016868318535822397 -0.2132316947087372 0.09643089623622154 0 0 0 0
30313806 0.3144510055615579 -0.016939474235848215 -0.2132113133013312 0.09656555256731433 0 0 0 0
30346752 0.31442180470839487 -0.017018201942454035 -0.21290843705273982 0.09666010017198191 0 0 0 0
30379698 0.31451528545546675 -0.01731322513623152 -0.2130683470371358 0.09675828275414232 0 0 0 0
30412644 0.31426249085538177 -0.017289446812378307 -0.21298299325864392 0.09697759060368509 0 0 0 0
30445590 0.31461532547052057 -0.017442668457813247 -0.21293159577048884 0.09716382638175876 0 0 0 0
30478536 0.3145775046282196 -0.017374683746811323 -0.21287388304176644 0.0970910398085167 0 0 0 0
30511482 0.3147740482659024 -0.017210414162303157 -0.21288468949175327 0.0972151562631652 0 0 0 0
30544428 0.31485011253000733 -0.017397533482731892 -0.21273770463901512 0.09733521523211723 0 0 0 0
30577374 0.3149261565300938 -0.017610670901052134 -0.2127510544331664 0.0973666366216264 0 0 0 0
30610320 0.3146400069941969 -0.017692525619745138 -0.21270795130216955 0.09753383997808295 0 0 0 0
30643266 0.31498541086006127 -0.017708184022872497 -0.2126143257169492 0.09749783778294248 0 0 0 0
30676212 0.3149631776939934 -0.017703152559077708 -0.2126133265888753 0.09769014069023908 0 0 0 0
30709158 0.3149628706997246 -0.0180558759139567 -0.2124956214548426 0.09791611704836074 0 0 0 0
30742104 0.3151345115796816 -0.017931637064061246 -0.21245714556178202 0.09787889287294713 0 0 0 0
30775050 0.3152087338523376 -0.017876919799358088 -0.21246727152659395 0.09794172730684887 0 0 0 0
30807996 0.31523021342719704 -0.01783220086101884 -0.2124843912063906 0.09808851390397687 0 0 0 0
30840942 0.3155092593348358 -0.018053392028603895 -0.21227527522262277 0.09816182023957724 0 0 0 0
30873888 0.31539650050539725 -0.01807809524015361 -0.21226839646325193 0.09823044145680607 0 0 0 0
30906834 0.3154061558848635 -0.01820178865528033 -0.2122425102554699 0.09840712014084509 0 0 0 0
30939780 0.3155073086973091 -0.018284775732130568 -0.21219242577719813 0.09841279533852038 0 0 0 0
30972726 0.3156015884859769 -0.01810252502349095 -0.21213740380278706 0.09855081663195953 0 0 0 0
31005672 0.3157015301064226 -0.018276098164752418 -0.2120655693745262 0.09868074545407288 0 0 0 0
31038618 0.31561802398779565 -0.01847899722312699 -0.21203437532485153 0.09880175071048648 0 0 0 0
31071564 0.3156176526574259 -0.01860292227902549 -0.2118576352558026 0.09892285125879839 0 0 0 0
31104510 0.31588372158025907 -0.018659829739807628 -0.21200787731562373 0.09902064853917296 0 0 0 0
31137456 0.31593332107702204 -0.018494734840515968 -0.21203602361076504 0.0991309655787247 0 0 0 0
31170402 0.3159512505920657 -0.018715118469938157 -0.21185273160681695 0.09913594696649225 0 0 0 0
31203348 0.31600348550707924 -0.01882091099773169 -0.2117909338278613 0.09923379860577994 0 0 0 0
31236294 0.31612119358346435 -0.018869339399934088 -0.2117396343934846 0.09934486778423976 0 0 0 0
31269240 0.31624023312452487 -0.018727792936517794 -0.2117245839184028 0.09945409752789446 0 0 0 0
31302186 0.31615389949282946 -0.018945160238930916 -0.21165320124969025 0.0995726552419073 0 0 0 0
31335132 0.3162735075749217 -0.01915899540208758 -0.21161685947950234 0.09978985394092817 0 0 0 0
31368078 0.31643476765917916 -0.01912135194954773 -0.21159587200714197 0.09980284088151202 0 0 0 0
31401024 0.31641796525661847 -0.019022990390067128 -0.21148250754832917 0.099761223334886 0 0 0 0
31433970 0.3163162610987075 -0.0192104600827753 -0.21143201873685574 0.09996721752219631 0 0 0 0
31466916 0.3165124009089712 -0.01922988343921244 -0.21144423557996403 0.10008206377310204 0 0 0 0
31499862 0.31664081891515833 -0.01948083892554831 -0.2114137589381497 0.1001301692342065 0 0 0 0
31532808 0.31665230502955927 -0.01930653246246655 -0.21126448367572415 0.10018196164962992 0 0 0 0
31565754 0.3166987632452154 -0.019484858394841497 -0.21125092819341512 0.10033577662217905 0 0 0 0
31598700 0.31652783267330153 -0.01951615524646264 -0.21120109646445012 0.10053328459795281 0 0 0 0
31631646 0.3166956719224105 -0.019585302695593422 -0.21117213498183018 0.100526348857413 0 0 0 0
31664592 0.31694958877712087 -0.01969882397964772 -0.21111639350172218 0.10068822702070672 0 0 0 0
31697538 0.3169522976184941 -0.01973718090120808 -0.21099125253052695 0.10077221236473145 0 0 0 0
31730484 0.3168791722677901 -0.019786113781563173 -0.21093610875178434 0.10082440580028654 0 0 0 0
31763430 0.316937492873294 -0.01987448502113394 -0.21093145687576811 0.10107298795113409 0 0 0 0
31796376 0.31695755239592655 -0.019902126337212986 -0.210929958779768 0.10113899147498871 0 0 0 0
31829322 0.3171823524870595 -0.01973858663549349 -0.21072565460483728 0.10112896423624657 0 0 0 0
31862268 0.3171248187018115 -0.02004906481252483 -0.2107962267306299 0.10125589383105965 0 0 0 0
31895214 0.31711729329753807 -0.02005696482119427 -0.21068735040408623 0.10142764501546653 0 0 0 0
31928160 0.31715191509602153 -0.020084954218798017 -0.21063940449823182 0.10162557251296966 0 0 0 0
31961106 0.31751936701991434 -0.02046139917930589 -0.21067563650358198 0.10150125834038892 0 0 0 0
31994052 0.31756525253374407 -0.02047665075188249 -0.21060439664822928 0.10172107797418631 0 0 0 0
32026998 0.31729664137495295 -0.020292397939904394 -0.21051001884466222 0.10165036749096854 0 0 0 0
32059944 0.31776759007727734 -0.020400182212433372 -0.21054956461734006 0.10196890371001092 0 0 0 0
32092890 0.3176629342075746 -0.020339186430773162 -0.2103810040304717 0.1020238144964185 0 0 0 0
32125836 0.3175998431192637 -0.020485174075792142 -0.21033064240263005 0.1020302407303187 0 0 0 0
32158782 0.3176878830524402 -0.020641582399539074 -0.21033680404476332 0.10207175835372345 0 0 0 0
32191728 0.3178274343920986 -0.02065537363787294 -0.21033833561008972 0.10220220102819466 0 0 0 0
32224674 0.3180113324129842 -0.020706968427427266 -0.21032663862076867 0.10246214331048874 0 0 0 0
32257620 0.3180461445650476 -0.020796320273003772 -0.21028391642755376 0.10260189278037925 0 0 0 0
32290566 0.3178134171279131 -0.020841499753653885 -0.21013044750342863 0.10265640999882922 0 0 0 0
32323512 0.318173703087391 -0.02118950501673606 -0.21004698101042646 0.10262217852672526 0 0 0 0
32356458 0.31813229117514946 -0.0207793652511861 -0.20990649457762736 0.1026613015715935 0 0 0 0
32389404 0.31821008374721776 -0.02103912785277586 -0.20991980161586143 0.10277953641569186 0 0 0 0
32422350 0.3181099918131567 -0.0211283167958935 -0.2098310786716918 0.10285806525690434 0 0 0 0
32455296 0.31812536986482903 -0.021219438650895463 -0.20982444343894166 0.10320421195306907 0 0 0 0
32488242 0.3183457856342109 -0.021271718342309835 -0.20986674697799612 0.10304267682500012 0 0 0 0
32521188 0.3185572826088645 -0.021275455521104297 -0.20988920119745022 0.10322580369293746 0 0 0 0
32554134 0.3185612455475486 -0.02121336040412803 -0.2095536162484328 0.10327868888234329 0 0 0 0
32587080 0.3185540414036301 -0.021288707878116177 -0.20959038686516399 0.10343822766534222 0 0 0 0
32620026 0.3186865698768797 -0.02157943375527007 -0.2096998531783714 0.10363889867101576 0 0 0 0
32652972 0.3185188079714797 -0.02141891202365913 -0.20953189468507613 0.10356571362913596 0 0 0 0
32685918 0.31870683161690866 -0.02160923596068739 -0.2096070787838228 0.10377808115092263 0 0 0 0
32718864 0.31880671098173174 -0.021804547953479827 -0.2094373530497443 0.10370383822710928 0 0 0 0
32751810 0.3191162666401501 -0.021683570358297405 -0.2094714466340942 0.10405838999872047 0 0 0 0
32784756 0.3189624169976402 -0.021695009078688706 -0.20938371483466175 0.104067648622251 0 0 0 0
32817702 0.3188722913211836 -0.02183924371054562 -0.20932544429767155 0.1041001822659136 0 0 0 0
32850648 0.31895137271833734 -0.021855399302320402 -0.20926462970576612 0.10435831885424414 0 0 0 0
32883594 0.3188976863626065 -0.02198312163613419 -0.2092508419342455 0.10422112932817719 0 0 0 0
32916540 0.3190862274255403 -0.021988821069738564 -0.209207405190364 0.10427947179042349 0 0 0 0
32949486 0.31947926898405377 -0.022074847281452935 -0.2091080906923714 0.10462188851643983 0 0 0 0
32982432 0.3192835332169185 -0.022028734787610655 -0.208965095901316 0.10461961308678897 0 0 0 0
33015378 0.3193527595492548 -0.02236872760581909 -0.2090097653883647 0.10480303399135396 0 0 0 0
33048324 0.3194492543230681 -0.02242666927772659 -0.20894576160237024 0.10487039931172219 0 0 0 0
33081270 0.3193000087080037 -0.022359433971779676 -0.20890762770268406 0.10485474061335609 0 0 0 0
33114216 0.31962389812346303 -0.022509788729648896 -0.20895145550358069 0.10497584347737632 0 0 0 0
33147162 0.3197572939227841 -0.02250441768970647 -0.20866107427705946 0.10501459614605299 0 0 0 0
33180108 0.3196886076843475 -0.02271070938508499 -0.20877441891552345 0.10531626360699622 0 0 0 0
33213054 0.3195765707089377 -0.022716437764186005 -0.2085934922501872 0.10530853100861608 0 0 0 0
33246000 0.31967024038909575 -0.02279910385954599 -0.2085313971729384 0.10541914756615577 0 0 0 0
33278946 0.3198135059090211 -0.022688249990630023 -0.20859121522006815 0.10537325166869656 0 0 0 0
33311892 0.3198043495608208 -0.023001911463991838 -0.2085271437144804 0.10545825205082644 0 0 0 0
33344838 0.31988509751078453 -0.023019631370180697 -0.20848601767883873 0.10554101703246734 0 0 0 0
33377784 0.3199962714986018 -0.02302748430918 -0.20849423984372775 0.10577091681852037 0 0 0 0
33410730 0.3202932964365881 -0.023095014279217115 -0.2084477706348932 0.10590628976822974 0 0 0 0
33443676 0.32024434111593264 -0.023043405396050463 -0.20842338538490926 0.10601934511883396 0 0 0 0
33476622 0.320325164605475 -0.02315061728324578 -0.20804000560056732 0.10599279932069222 0 0 0 0
33509568 0.32018122292024226 -0.023091163577208532 -0.20811602080774103 0.10620356164502047 0 0 0 0
33542514 0.3205786789591612 -0.02330053564600404 -0.20813835166454334 0.10626286497425162 0 0 0 0
33575460 0.32033093713422206 -0.02346418292548727 -0.20812308588186904 0.1063007003680569 0 0 0 0
33608406 0.32046076334363305 -0.023524794762590746 -0.20809497255759146 0.1064292517398811 0 0 0 0
33641352 0.3207279362897412 -0.023438826279576577 -0.2080862433557987 0.10662250827438521 0 0 0 0
33674298 0.320544209539626 -0.023523225626288346 -0.20781233259204349 0.10662042322663409 0 0 0 0
33707244 0.3207054777894274 -0.023689446607630536 -0.20785164832640088 0.10668729350724152 0 0 0 0
33740190 0.3204877281620222 -0.023729552105675573 -0.20773812487858592 0.10692427497223059 0 0 0 0
33773136 0.3208996468267239 -0.023859355437907407 -0.20782363088724662 0.10684401463092949 0 0 0 0
33806082 0.3210346309845241 -0.02364216593343431 -0.20779500401373632 0.10711893844676672 0 0 0 0
33839028 0.3209810365079836 -0.023922086310998205 -0.2075348785447539 0.1072316487812869 0 0 0 0
33871974 0.3210466205923228 -0.024102167620399094 -0.20762251668144294 0.10720257092605677 0 0 0 0
33904920 0.3207956316488668 -0.02403581815157781 -0.20752556643919076 0.10736679532308582 0 0 0 0
33937866 0.3211737244735507 -0.024175599843974334 -0.20756397697991727 0.10739813658148557 0 0 0 0
33970812 0.3212216415426115 -0.024264080332403775 -0.20737385533256703 0.10735867378609279 0 0 0 0
34003758 0.3209166463177155 -0.02427642509679915 -0.20729796715207785 0.10759316743788437 0 0 0 0
34036704 0.3211996969121778 -0.0243603487405883 -0.2073243845042635 0.1076925284824286 0 0 0 0
34069650 0.3214238826027153 -0.0244004728091105 -0.20734446571743792 0.10786828776082849 0 0 0 0
34102596 0.3213934529134876 -0.024461304457836806 -0.20722937784727516 0.1079476005060635 0 0 0 0
34135542 0.321441469211224 -0.024650286462185894 -0.20717683695379524 0.10809561885323453 0 0 0 0
34168488 0.3215051553714861 -0.02460266115207597 -0.20727883241598008 0.10810344819469013 0 0 0 0
34201434 0.32158894361937085 -0.02451019372791681 -0.20720847893570277 0.108250684668207 0 0 0 0
34234380 0.3214724827243019 -0.024657884026983535 -0.20695670206917172 0.10826816700714006 0 0 0 0
34267326 0.32167972524521166 -0.0247903135624223 -0.2069571749322116 0.10838544681560305 0 0 0 0
34300272 0.3217977644800695 -0.024690033971872343 -0.20704162653263836 0.10837405514869419 0 0 0 0
34333218 0.3217665952781878 -0.024852949285797298 -0.2068111339270663 0.10849368287774348 0 0 0 0
34366164 0.321743341198648 -0.024878132999291473 -0.20679086289560125 0.10862702288427177 0 0 0 0
34399110 0.3217701028893523 -0.024941419340300496 -0.20681679245241877 0.10872117472278975 0 0 0 0
34432056 0.32196805265508616 -0.025107988832413296 -0.20669326251008724 0.1088802953423398 0 0 0 0
34465002 0.322015946485774 -0.025305520358669474 -0.20675693056894254 0.10897469169244331 0 0 0 0
34497948 0.3222756386062314 -0.02518920438962725 -0.2065438080648057 0.10908410518525852 0 0 0 0
34530894 0.32217144035595563 -0.025278893720730458 -0.20640512702777977 0.10919443775346868 0 0 0 0
34563840 0.32221332283414617 -0.025375710703634393 -0.20634058950095255 0.10928510387179005 0 0 0 0
34596786 0.322437822464617 -0.02553072647208551 -0.20639313059186057 0.10930763577206332 0 0 0 0
34629732 0.32239795829094064 -0.025526430183940685 -0.20632820925803294 0.10948351812619767 0 0 0 0
34662678 0.32234569220357645 -0.025632227449168262 -0.20631545948725688 0.10953962496775375 0 0 0 0
34695624 0.32265461968043696 -0.025773900284784875 -0.20640044688299178 0.1096521985759597 0 0 0 0
34728570 0.32269956976025177 -0.02566468574008712 -0.20620837700592257 0.10977670061936778 0 0 0 0
34761516 0.32271180070534966 -0.025752426136170074 -0.20614517499343504 0.10968562531618861 0 0 0 0
34794462 0.322553248799988 -0.025781749155311773 -0.20601877394313642 0.10992300131048821 0 0 0 0
34827408 0.3227204738781125 -0.02591444426074478 -0.20604959659742425 0.1099630294926035 0 0 0 0
34860354 0.32277728196955474 -0.02596713163317102 -0.20591591705652176 0.11003055458255691 0 0 0 0
34893300 0.3229032680592787 -0.02608996783550327 -0.20584641696954972 0.11013537605641671 0 0 0 0
34926246 0.3229953272354131 -0.02621913965979444 -0.20594443798615023 0.11025186355589858 0 0 0 0
34959192 0.3230574893741308 -0.02635825178632442 -0.2058539467019091 0.11045388717347987 0 0 0 0
34992138 0.32304617057682805 -0.026209223638513086 -0.2056330495170999 0.11050431866340663 0 0 0 0
35025084 0.3231879931916086 -0.026231396025759735 -0.20581565716578687 0.11060225587903873 0 0 0 0
35058030 0.3232170963307734 -0.0264278860692464 -0.20574593848488118 0.11073714820898185 0 0 0 0
35090976 0.32330378321910197 -0.026572708125629358 -0.20575305193579968 0.11086228636545069 0 0 0 0
35123922 0.32343410491597135 -0.026402063822494434 -0.20567237965353613 0.11082858745980236 0 0 0 0
35156868 0.3232958844891511 -0.02662547385717067 -0.2053298187866531 0.11083508411106444 0 0 0 0
35189814 0.32346326610456066 -0.026569130785506087 -0.2055553590603935 0.11117100880441332 0 0 0 0
35222760 0.32346660038582864 -0.026798710620341656 -0.20535726277485575 0.11111130214756165 0 0 0 0
35255706 0.3237001337793957 -0.02689648607602502 -0.20531108457305863 0.1113950198889873 0 0 0 0
35288652 0.32374219170544166 -0.026950085936336597 -0.20533728291656048 0.11131462873410354 0 0 0 0
35321598 0.3236409977738681 -0.02706913583172324 -0.2051523212085774 0.11139248427457682 0 0 0 0
35354544 0.3237738936466871 -0.02695373419989388 -0.20521296699267294 0.1116427461245408 0 0 0 0
35387490 0.3237577248083185 -0.02718415725970647 -0.2052018105021447 0.11166639385239878 0 0 0 0
35420436 0.3239472577841263 -0.0270778812105073 -0.20501568234709586 0.11167358611676814 0 0 0 0
35453382 0.3238029164896939 -0.027282489906736703 -0.20492412064992738 0.11181855987501889 0 0 0 0
35486328 0.3239027125513394 -0.027294624566616427 -0.2048646726525735 0.11185729114786418 0 0 0 0
35519274 0.3241494747780076 -0.027339530418995752 -0.20494302266779293 0.11199240358724537 0 0 0 0
35552220 0.32410793964964324 -0.0273588041966495 -0.20482874613267513 0.11212323475835616 0 0 0 0
35585166 0.32431296452908415 -0.027529487067117313 -0.20470586292123857 0.11218902416207101 0 0 0 0
35618112 0.324224452159278 -0.027848135492912207 -0.20471948904862713 0.11239047915036751 0 0 0 0
35651058 0.3242642147702809 -0.027635841245999746 -0.20464743492012952 0.1123904393678793 0 0 0 0
35684004 0.3244163895597586 -0.027652484668981063 -0.2046778544163284 0.11248258789026826 0 0 0 0
35716950 0.32441816851932576 -0.027882065975720686 -0.20446662648232086 0.11258157561247045 0 0 0 0
35749896 0.3245209318449587 -0.027938482437281285 -0.20435612903057104 0.112705976874361 0 0 0 0
35782842 0.32452321407725376 -0.028081821762426885 -0.2044545207282637 0.11289550306985743 0 0 0 0
35815788 0.32466559895911945 -0.028283510365551035 -0.20442849546747985 0.11282055715095311 0 0 0 0
35848734 0.3246807207321489 -0.02797202974661483 -0.20431968490126967 0.11286904389485113 0 0 0 0
35881680 0.3248577018206367 -0.028220751874173947 -0.20426559675380082 0.11296208255875735 0 0 0 0
35914626 0.32476887146596006 -0.02821669128348134 -0.20423240670200765 0.11323868566757468 0 0 0 0
35947572 0.32497055299435285 -0.028258169000706115 -0.20416560077025214 0.11319227006874069 0 0 0 0
35980518 0.3248648763297319 -0.02834233288116609 -0.20409865413676903 0.11329092749225515 0 0 0 0
36013464 0.3250882956849594 -0.028633664655673654 -0.20404883005307894 0.11355742609815087 0 0 0 0
36046410 0.3250604142084197 -0.028617901308441312 -0.20405906518244166 0.11350815488611622 0 0 0 0
36079356 0.3251762902904462 -0.028623519631902614 -0.20396459534807754 0.11364281437569362 0 0 0 0
36112302 0.32508601578965923 -0.02879577756263862 -0.2038193680737553 0.11373834543527658 0 0 0 0
36145248 0.3251803711160339 -0.028758261378387093 -0.20378224452875687 0.1138140961593284 0 0 0 0
36178194 0.3253847430395555 -0.028806955656662487 -0.2038195302565813 0.11393392816059689 0 0 0 0
36211140 0.32542600188137266 -0.029139353547800707 -0.20365520689347355 0.11411453352472575 0 0 0 0
36244086 0.3254591142988645 -0.029036812305553283 -0.2037093984429664 0.11416534615373385 0 0 0 0
36277032 0.3255089671971511 -0.028943044866691442 -0.20366385456664524 0.1142671394416203 0 0 0 0
36309978 0.32536416754762304 -0.028958474206700793 -0.20352221892978362 0.11426919850923117 0 0 0 0
36342924 0.3254621427471175 -0.029352005652337462 -0.20341622363131193 0.11430786846762792 0 0 0 0
36375870 0.32573849095658136 -0.029325916918314505 -0.20343876881388462 0.1144700277443084 0 0 0 0
36408816 0.325630754202519 -0.0291673774416567 -0.20341151541749608 0.11457117396323559 0 0 0 0
36441762 0.32597507104552065 -0.029324802649811743 -0.20325702592996966 0.1146397613874311 0 0 0 0
36474708 0.3256790677963344 -0.029395144169514692 -0.20317972424505634 0.11482454732419968 0 0 0 0
36507654 0.3260458851805896 -0.029496594680230612 -0.20322250209402962 0.1147969698356581 0 0 0 0
36540600 0.32606580501758053 -0.029652213248497036 -0.2031091545176478 0.11491303449221614 0 0 0 0
36573546 0.32600419256054275 -0.029665161851361647 -0.2030388632382207 0.11499077122776392 0 0 0 0
36606492 0.3260511257189772 -0.029911529264840517 -0.20308841915800355 0.11514137853558593 0 0 0 0
36639438 0.3261873598756369 -0.029611912921257835 -0.20307588107951416 0.11523030080609273 0 0 0 0
36672384 0.3261644149955959 -0.030032457291205718 -0.20290918354074064 0.11539108679233268 0 0 0 0
36705330 0.3264501793525683 -0.030001455787661554 -0.20282223417501546 0.11556179435621614 0 0 0 0
36738276 0.32653747503975283 -0.029862307218475867 -0.20284306035832306 0.11542080323075735 0 0 0 0
36771222 0.32635089047247223 -0.030338756154844066 -0.2027691606162347 0.11569446403011556 0 0 0 0
36804168 0.32634278461484945 -0.03004027891714621 -0.20251080854582149 0.11573882588225293 0 0 0 0
36837114 0.3264077605152455 -0.0301408428300927 -0.20261936470780773 0.1157946847045257 0 0 0 0
36870060 0.3266230427552552 -0.030370038756137738 -0.2025670310420353 0.11576144598243665 0 0 0 0
36903006 0.32668015143802914 -0.030376914158634815 -0.20255362630365442 0.11600097600994733 0 0 0 0
36935952 0.32675315709859953 -0.03067491603938987 -0.2024281156908877 0.116122285822883 0 0 0 0
36968898 0.3265679586236237 -0.030489575833746212 -0.2022942418368196 0.11611325984378279 0 0 0 0
37001844 0.3269361687412547 -0.03057618767554034 -0.2023294563128697 0.11634668483347639 0 0 0 0
37034790 0.32703914913933263 -0.030695615581453516 -0.20236204457893997 0.11627728952785042 0 0 0 0
37067736 0.326962786010269 -0.0307077159796476 -0.20220012570546952 0.11646033137548202 0 0 0 0
37100682 0.3271453189065936 -0.030829863515175596 -0.20221525424094255 0.11656531998044041 0 0 0 0
37133628 0.32704705373812504 -0.03085053252179641 -0.20194915745701977 0.11655376720692305 0 0 0 0
37166574 0.32728487656296185 -0.03097131125488943 -0.2021031275045757 0.11657286564540338 0 0 0 0
37199520 0.327319569407127 -0.03123469794534503 -0.20190468710036014 0.11693123477555356 0 0 0 0
37232466 0.32745163888416706 -0.031120673902218197 -0.20210003207855504 0.11702156998932815 0 0 0 0
37265412 0.32727898211909645 -0.031190798866188293 -0.20177799893106985 0.11697437188236245 0 0 0 0
37298358 0.32758179811219934 -0.03127261383374165 -0.2017758509414619 0.11720878480933569 0 0 0 0
37331304 0.3274483837220501 -0.03161710336563005 -0.20183462300062116 0.11729067933329022 0 0 0 0
37364250 0.3275873488984381 -0.031609400121502096 -0.2017064369942524 0.11729542268134571 0 0 0 0
37397196 0.32770496480537564 -0.03148485874282557 -0.20170500817933049 0.11740924446068948 0 0 0 0
37430142 0.327532599988336 -0.03160619027283068 -0.201455383224658 0.11749397329775212 0 0 0 0
37463088 0.32778336559891613 -0.031668015242127034 -0.2015531129890532 0.11773486633713846 0 0 0 0
37496034 0.327953157542009 -0.031742232279691314 -0.2014396077647453 0.11757484296960306 0 0 0 0
37528980 0.32801990628656585 -0.03178880280794328 -0.2015124378792711 0.11769586428825175 0 0 0 0
37561926 0.32783382154042573 -0.032131622515914914 -0.20136716913128735 0.11803802647347275 0 0 0 0
37594872 0.32800178009872744 -0.031875030597626905 -0.20118051828346478 0.11783073352988631 0 0 0 0
37627818 0.32815003323366465 -0.031969763255764436 -0.2013683275830602 0.1180853771794066 0 0 0 0
37660764 0.3281712741852735 -0.03205947935262911 -0.20125278764445706 0.11831725278661598 0 0 0 0
37693710 0.32836643325356224 -0.03222196804195265 -0.20110731784139582 0.11811183620470593 0 0 0 0
37726656 0.3282512750905761 -0.03231131963492595 -0.20119402157758 0.1183798875198307 0 0 0 0
37759602 0.32829838497953234 -0.03235758350046852 -0.20091839114132143 0.1184087844702433 0 0 0 0
37792548 0.3284869073637744 -0.03225997560669488 -0.20094884507101438 0.11841553698902402 0 0 0 0
37825494 0.32854034142707217 -0.03251005194982098 -0.20098759171821812 0.11865679263521145 0 0 0 0
37858440 0.3284949804779619 -0.03264452419385984 -0.20073565841892105 0.11861703361160265 0 0 0 0
37891386 0.328720797068113 -0.032581973989579564 -0.2008205876819678 0.11887972852818311 0 0 0 0
37924332 0.32854814306919855 -0.03286942608312899 -0.2007946355425989 0.11900230642317745 0 0 0 0
37957278 0.32869460485867635 -0.03309980419822825 -0.2006363619071643 0.11904680790845772 0 0 0 0
37990224 0.3287615712866574 -0.0327872869000903 -0.20054295500184188 0.11901171487434611 0 0 0 0
38023170 0.32887869614916926 -0.03297529554105262 -0.20062213680091684 0.11917338178067582 0 0 0 0
38056116 0.32894762038756925 -0.033012155881408684 -0.20049407979348782 0.1193056034619956 0 0 0 0
38089062 0.32889086768570364 -0.033127289186349926 -0.20034669035519578 0.1193887710953353 0 0 0 0
38122008 0.32907486503736266 -0.03306055250729884 -0.20030083652338967 0.11956172398248881 0 0 0 0
38154954 0.3292351248139925 -0.03334560559363198 -0.2003103434402193 0.1194655748327983 0 0 0 0
38187900 0.32924404843625427 -0.03322180639985232 -0.20026888017847852 0.119516074684113 0 0 0 0
38220846 0.3291767870599758 -0.033359918567600455 -0.2001701821621318 0.11963582873562804 0 0 0 0
38253792 0.329121836587935 -0.033501739961469205 -0.2001756261856523 0.11978497979438807 0 0 0 0
38286738 0.32935042865131914 -0.033880082327000426 -0.2002109778079116 0.12001323409475616 0 0 0 0
38319684 0.32932961966824575 -0.033854589663271775 -0.1999518590417402 0.12013355577568872 0 0 0 0
38352630 0.32947053178514557 -0.03399683213389741 -0.1998863829123995 0.12019791069940414 0 0 0 0
38385576 0.3295516009955527 -0.0337687234639076 -0.19989752080936996 0.12030603278225598 0 0 0 0
38418522 0.3295633633931703 -0.03384487593986043 -0.1998572636087604 0.12030250140852534 0 0 0 0
38451468 0.32961610675006003 -0.03403287074605724 -0.199712255930074 0.12035772928421293 0 0 0 0
38484414 0.32968649508965364 -0.03400901519866326 -0.19964673651493212 0.12060283717738277 0 0 0 0
38517360 0.3296489490706386 -0.03427734279078514 -0.19966313964415133 0.12056993543160936 0 0 0 0
38550306 0.3297872104985056 -0.03409202124166528 -0.19957142926075191 0.12070513155374424 0 0 0 0
38583252 0.3298139134666676 -0.03430038055076977 -0.19946178651919633 0.1208037532558066 0 0 0 0
38616198 0.33012853427914085 -0.03431424938969443 -0.19947904403424185 0.12086657046943769 0 0 0 0
38649144 0.32991785121691725 -0.03439571152546721 -0.19944900486907932 0.12087371815341383 0 0 0 0
38682090 0.330098924864251 -0.034693808722977997 -0.1993132369347418 0.12111359060162527 0 0 0 0
38715036 0.33021869299574996 -0.03438334342919393 -0.19938544319880877 0.12108857635258892 0 0 0 0
38747982 0.33016043253036104 -0.03465122477391028 -0.19918866823927478 0.12123238952511758 0 0 0 0
38780928 0.3302576710468582 -0.034724159910468504 -0.19918964817764334 0.12127382265560631 0 0 0 0
38813874 0.33056837105578946 -0.03468173633031823 -0.19916250101862018 0.12131283772307908 0 0 0 0
38846820 0.3303415715916521 -0.03493097600412339 -0.19914873154430654 0.12151435381467146 0 0 0 0
38879766 0.3304471136483873 -0.035265948799959555 -0.19907487997285178 0.12173205098305112 0 0 0 0
38912712 0.33048453869515165 -0.03479539206530543 -0.1989924988510657 0.12160836460089414 0 0 0 0
38945658 0.3304948388902413 -0.035011805666093014 -0.1987071743958283 0.12180233603281113 0 0 0 0
38978604 0.330658618861046 -0.03526751598930685 -0.19892697443975957 0.12188975736993683 0 0 0 0
39011550 0.3308191394217668 -0.03543572223882129 -0.19869329602275207 0.12201121471187984 0 0 0 0
39044496 0.33086010218744205 -0.03526349419014712 -0.19875757322297535 0.12213896516617999 0 0 0 0
39077442 0.33096867004523123 -0.03548643414709436 -0.19860143838158276 0.12226456855995463 0 0 0 0
39110388 0.33103844854759873 -0.03555227904644433 -0.19861058142708068 0.12216177844126198 0 0 0 0
39143334 0.3311623215793529 -0.03549937357233986 -0.19845053071413227 0.12230476593173227 0 0 0 0
39176280 0.3309417983209296 -0.03563250662002895 -0.19858144586213952 0.1225087612771674 0 0 0 0
39209226 0.3309930782125169 -0.035676050103153875 -0.1982985828581216 0.12254017189685017 0 0 0 0
39242172 0.3311508015719959 -0.03591810846136178 -0.19845309165004366 0.1224512426061269 0 0 0 0
39275118 0.3312591846223056 -0.03606164805969315 -0.198199174181922 0.12281970443107663 0 0 0 0
39308064 0.3313185666024119 -0.03599581990412047 -0.19815668763166472 0.1227543487882419 0 0 0 0
39341010 0.33132442852219746 -0.035959889815590604 -0.19809396510790503 0.12285748253086923 0 0 0 0
39373956 0.33138827669525694 -0.0359893796144053 -0.1981116897823276 0.1230027972679793 0 0 0 0
39406902 0.33147727136041344 -0.03624522385400743 -0.1980436860131778 0.12304180719728115 0 0 0 0
39439848 0.33155183615963235 -0.03647029489262978 -0.19799517273329006 0.12296392784715392 0 0 0 0
39472794 0.3315668187174032 -0.03630822922123945 -0.19791954229469452 0.12318616097147889 0 0 0 0
39505740 0.3317039465176536 -0.03642378430670317 -0.197794424954091 0.12328081935478176 0 0 0 0
39538686 0.3316997623239623 -0.03650844982237988 -0.197922264145061 0.12343143392049864 0 0 0 0
39571632 0.331856791723697 -0.0366649327539273 -0.19771947744583443 0.12359314403793858 0 0 0 0
39604578 0.3319210504252904 -0.0369253378727618 -0.19772494003561758 0.12358464186242832 0 0 0 0
39637524 0.33204718914905884 -0.03675372920351785 -0.1976816499386732 0.12361362481567753 0 0 0 0
39670470 0.3321070418144819 -0.0367937081407727 -0.19743994142219065 0.12379403514314173 0 0 0 0
39703416 0.3319730899712971 -0.03681083345645302 -0.19757628137070268 0.12384350159662813 0 0 0 0
39736362 0.33214571070074245 -0.037072723721766794 -0.19738963645203816 0.12405921248862295 0 0 0 0
39769308 0.3323862518935808 -0.03711231975063106 -0.19737801696095028 0.12396869170755549 0 0 0 0
39802254 0.3322929750803956 -0.03726232779437425 -0.1973218922918933 0.12437025068712049 0 0 0 0
39835200 0.3322781429254225 -0.037036084950574755 -0.19720875784991804 0.12422667683824795 0 0 0 0
39868146 0.33230848640510907 -0.03725244118759232 -0.1972276057914041 0.12442614412243372 0 0 0 0
39901092 0.3322869411243691 -0.03729762327228886 -0.19701943149304646 0.12449666012346124 0 0 0 0
39934038 0.3325038646828574 -0.03763700056733914 -0.1971650126724066 0.12446084367146065 0 0 0 0
39966984 0.33261447364777885 -0.037799912175078526 -0.1970493163265813 0.12472311235809963 0 0 0 0
39999930 0.3325724294772471 -0.037667637128556544 -0.1968161629773149 0.12471527647845218 0 0 0 0
