# HZ S RI R 50
300000 0.030914162625606822 -0.023065525113572287 0.00057844456806321 -0.0004373302882371143 0 0 0 0
332946 0.026812248005145208 -0.02537511619707294 0.000695461190276374 -0.0003509810537474286 0 0 0 0
365892 0.022377018916777226 -0.02663461218898027 0.0008179150076357926 -0.0002738206826852899 0 0 0 0
398838 0.018243112277288573 -0.026881058506897936 0.0009219048067689923 -0.00031180363674392363 0 0 0 0
431784 0.01856547459685022 -0.022261607345757772 0.0013087468287460205 0.000322272286411055 0 0 0 0
464730 0.015814817156870692 -0.02170481417204607 0.0014080477521762529 0.00031624753759199595 0 0 0 0
497676 0.013428567010762256 -0.021011354502247195 0.0014732761187451868 0.0003182752004776899 0 0 0 0
530622 0.011299268865272376 -0.01981291554121398 0.0014655597772283869 0.00027608021716454215 0 0 0 0
563568 0.009649974966476703 -0.01837955489679068 0.0015065540596921109 0.00026158640851060616 0 0 0 0
596514 0.00886509613083354 -0.01707240614641859 0.0015454011744766374 0.00022165212414054008 0 0 0 0
629460 0.007991936663263685 -0.01568144840694528 0.0015603917943558868 0.0002586131737228247 0 0 0 0
662406 0.007368428383785199 -0.01480395939556238 0.001591746785042122 0.0002203171941413131 0 0 0 0
695352 0.006713692448574454 -0.013636506870430084 0.0016104710486381632 0.00020955190589579809 0 0 0 0
728298 0.006347475800571976 -0.012730475730153169 0.001630707616426912 0.00018704222010909214 0 0 0 0
761244 0.00643577943960708 -0.011987488038178588 0.0016082489129060989 0.00013629329693739793 0 0 0 0
794190 0.006234112883184774 -0.011310477094595364 0.001637093630464317 0.00014856890589325425 0 0 0 0
827136 0.006201710398441353 -0.01061193276919319 0.0016571302747999494 0.00016757788959650442 0 0 0 0
860082 0.006146373934100057 -0.010077538590766467 0.0016553693424266576 0.0001252185696325696 0 0 0 0
893028 0.006042569833800822 -0.009631354568489715 0.0016603402967690878 0.00011866699611985399 0 0 0 0
925974 0.00597445445898938 -0.009041298080245574 0.0016728361884889337 9.931288968162373e-05 0 0 0 0
958920 0.006170317039933277 -0.0089526811428099 0.001647152827616741 8.528739922462163e-05 0 0 0 0
991866 0.006055980294452341 -0.008474340189539338 0.0016971304170987382 8.76197774045578e-05 0 0 0 0
1024812 0.00614347786672808 -0.008119170939051868 0.001685842358868707 8.603290067569434e-05 0 0 0 0
1057758 0.006138680733939773 -0.007874747772880967 0.0016892712031991032 6.173116420595017e-05 0 0 0 0
1090704 0.006246766619812336 -0.007804746272709492 0.001683908034010977 4.624086700651398e-05 0 0 0 0
1123650 0.006140257616199854 -0.007426004312915654 0.0017065608353659778 2.24316300871899e-05 0 0 0 0
1156596 0.006219335950911368 -0.007080651867407461 0.0017196049003938016 4.290198119167896e-05 0 0 0 0
1189542 0.006374219656873099 -0.007057499117097476 0.0017179351813457774 3.569647304643784e-05 0 0 0 0
1222488 0.006501989483526733 -0.006976315256930695 0.00173889429964842 3.0434505048956128e-05 0 0 0 0
1255434 0.006437748936681545 -0.0068807219290871096 0.0017415541367645883 -3.9993802025443205e-06 0 0 0 0
1288380 0.006346648882519177 -0.0066073712971887605 0.0017151867391720149 -9.531419111039037e-06 0 0 0 0
1321326 0.006273025878862356 -0.006524626783389201 0.001744581852494624 -2.944057690889009e-05 0 0 0 0
1354272 0.006176381955807997 -0.006414614072142727 0.001766323081062537 -3.0521408239651924e-05 0 0 0 0
1387218 0.006377729840516004 -0.006460104334568726 0.0017458946565918792 -3.6711118199825085e-05 0 0 0 0
1420164 0.006391162296165551 -0.006353953957112799 0.0017622199644842997 -2.9369729627918657e-05 0 0 0 0
1453110 0.006311325831681309 -0.006386955335741215 0.001790371269600053 -4.507700352795861e-05 0 0 0 0
1486056 0.006160224252591024 -0.006210209108048352 0.001766561528023573 -5.2460416856227206e-05 0 0 0 0
1519002 0.006330697220070481 -0.006092744592887146 0.0017843300239253053 -8.160984853460784e-05 0 0 0 0
1551948 0.006245714249632894 -0.006112570525075123 0.0017704179657037494 -8.156865168429708e-05 0 0 0 0
1584894 0.006226761621230868 -0.005983292382523863 0.0017965891527898232 -8.613175376656069e-05 0 0 0 0
1617840 0.006047383508759028 -0.005890253135870187 0.001813943618474907 -0.00012029539984577888 0 0 0 0
1650786 0.005914460170856606 -0.0058549458471954694 0.0017924588212094533 -0.00012395456510616915 0 0 0 0
1683732 0.006000123497861342 -0.0058285669842963825 0.0018133890011454133 -0.00013031633346298333 0 0 0 0
1716678 0.0059896247515145795 -0.005726485883995209 0.0018427755204535247 -0.0001521282123729337 0 0 0 0
1749624 0.005915822597363893 -0.0056485242797025565 0.0018453234307812697 -0.00016925203447199107 0 0 0 0
1782570 0.005869930135262018 -0.005659984886615556 0.001821171775410077 -0.00017169101458865545 0 0 0 0
1815516 0.005881455744320462 -0.0055712030435634205 0.001829323475562113 -0.0001933436397804851 0 0 0 0
1848462 0.005772520354833166 -0.0055989499430552205 0.0018169068222945437 -0.00021263250185188403 0 0 0 0
1881408 0.005756833919864237 -0.0054861844060788605 0.0018343982081750604 -0.00024395982924149833 0 0 0 0
1914354 0.005689380917553841 -0.00540440670096209 0.001833296702940858 -0.0002619291724389903 0 0 0 0
1947300 0.005697970335891129 -0.005343929528143586 0.0018059379686055843 -0.00025763184128678104 0 0 0 0
1980246 0.005568950527509504 -0.005375605190547816 0.0018200661084144447 -0.00028750089993985657 0 0 0 0
2013192 0.0055055656653902755 -0.005364797677624821 0.001836633729949245 -0.0003088206602795922 0 0 0 0
2046138 0.00543381071889281 -0.005230596697336379 0.0018344171186070158 -0.0003365657342877007 0 0 0 0
2079084 0.0054503628183412605 -0.005100822170951022 0.001841128747552367 -0.00033198225913290435 0 0 0 0
2112030 0.005606439628148366 -0.005122369398987278 0.001844694147157244 -0.0003272739384101024 0 0 0 0
2144976 0.005620034275524987 -0.005106861655319579 0.0018544839875047946 -0.00036717134330655925 0 0 0 0
2177922 0.005554982813887903 -0.00486393527725572 0.0018485173253359123 -0.00039579222139879476 0 0 0 0
2210868 0.005384519960054856 -0.004897652784121145 0.0018829220657167604 -0.00039348386322178423 0 0 0 0
2243814 0.005262892327989787 -0.004888942092206473 0.0018394491632273892 -0.00040354903611913915 0 0 0 0
2276760 0.005363961848903944 -0.004946027577944649 0.0018363981013102045 -0.00043653916831200886 0 0 0 0
2309706 0.005191364435267592 -0.004771758312918525 0.001839889427116228 -0.0004547950125071886 0 0 0 0
2342652 0.00513847715413518 -0.004772652226811884 0.001821123978788126 -0.00045274289940780464 0 0 0 0
2375598 0.005446695555927702 -0.004750731636630685 0.0018023493373340075 -0.000496224059776859 0 0 0 0
2408544 0.005358432227855582 -0.004724685204227884 0.001822263154943709 -0.0005330269089150925 0 0 0 0
2441490 0.00522209815736062 -0.004631368133339245 0.0018085684250605438 -0.0005575958117567904 0 0 0 0
2474436 0.0050335624582935065 -0.004562383736619309 0.0017810984438332777 -0.0005552183409378617 0 0 0 0
2507382 0.005150112501338182 -0.00449785770473838 0.0017824211757567676 -0.0006032221730167328 0 0 0 0
2540328 0.005220367434015633 -0.004508589077291138 0.0017855653283392078 -0.0006000591797047768 0 0 0 0
2573274 0.005032495358686481 -0.004491590427096124 0.001800552860819487 -0.0006267975894404457 0 0 0 0
2606220 0.005016925203973502 -0.004367317964001587 0.0017600775181706896 -0.0006520640041175392 0 0 0 0
2639166 0.005063944708446806 -0.004295681145307462 0.001728038835508626 -0.0006634369057853118 0 0 0 0
2672112 0.00503344947373516 -0.004309414667589808 0.0017656316147300715 -0.0006820614088087218 0 0 0 0
2705058 0.00512780819063014 -0.00427952411631048 0.0016934301878668901 -0.0007207279479656966 0 0 0 0
2738004 0.005101682358518291 -0.00412426581428595 0.001704078006031148 -0.0007520021834368215 0 0 0 0
2770950 0.005123873913500064 -0.004146470757527215 0.0016877561410451275 -0.0007471472830277553 0 0 0 0
2803896 0.004940736824130599 -0.004055019978401427 0.0016573299050738736 -0.0008022084756765024 0 0 0 0
2836842 0.004869700996651618 -0.004056867458255629 0.0016742407353370066 -0.0008021002470903033 0 0 0 0
2869788 0.004935779264496109 -0.0040613838886190915 0.0016326794554778667 -0.0008240017579773381 0 0 0 0
2902734 0.005158679174169623 -0.0040449792490719364 0.0015862817371132818 -0.0008222174235208204 0 0 0 0
2935680 0.004967450460703563 -0.003951837690491956 0.0016028891911302762 -0.0008274018201829744 0 0 0 0
2968626 0.004916577569781024 -0.0038932066978414814 0.0015447953745113992 -0.0008517164232891804 0 0 0 0
3001572 0.004884347340762345 -0.0037477708963595496 0.001531889410859929 -0.0008799822965329531 0 0 0 0
3034518 0.0049719044918769785 -0.003882189487215977 0.0015276529623569838 -0.0008927355962446275 0 0 0 0
3067464 0.00492040118885107 -0.0037741770917910215 0.001444560123186813 -0.0009061947155363918 0 0 0 0
3100410 0.004894036079201212 -0.003731648255315668 0.001475226554347983 -0.0008848109859928974 0 0 0 0
3133356 0.004854153269298655 -0.003741369434225662 0.0014382496998086463 -0.0008895917392801475 0 0 0 0
3166302 0.004925683435989679 -0.0037616160372096977 0.0013919739158195054 -0.000923523574301062 0 0 0 0
3199248 0.004915806536969802 -0.003700742029014023 0.0013817034035047593 -0.0009195768436489239 0 0 0 0
3232194 0.004849639842082444 -0.0036721114474333413 0.001377960110908589 -0.0009203721590038601 0 0 0 0
3265140 0.004898720754066249 -0.0036021740262009673 0.0013133292506332665 -0.0009077288481328802 0 0 0 0
3298086 0.004777583906443761 -0.0036181674764940715 0.0013135656400888953 -0.0009220886644137433 0 0 0 0
3331032 0.004932692643034973 -0.0036379883751552463 0.0012603510741192605 -0.0009351187636524446 0 0 0 0
3363978 0.0049720847853440804 -0.003615065911011787 0.0012425046589445 -0.0009366590287989586 0 0 0 0
3396924 0.004985750796164485 -0.0036079274936563275 0.0012150418170864025 -0.0009350274171964262 0 0 0 0
3429870 0.0048319745077423865 -0.0035670941062158398 0.0011856917662408735 -0.0009495174215010075 0 0 0 0
3462816 0.004868777004533943 -0.003403998386196931 0.001131612777463886 -0.0009497646070235659 0 0 0 0
3495762 0.004861239391970727 -0.0034922124539405143 0.001128646479466272 -0.0009248767971642927 0 0 0 0
3528708 0.004845098447298201 -0.0034574879427266255 0.0011345219865381846 -0.0009172655096956455 0 0 0 0
3561654 0.004944907992456457 -0.0034363991056285946 0.0010890768892483412 -0.0009095340697034864 0 0 0 0
3594600 0.005017725415321028 -0.0034225746603061477 0.0010856385267971323 -0.0009026885883715687 0 0 0 0
3627546 0.004959602828472748 -0.0035031994992664496 0.0010215915047626653 -0.0008882434998870046 0 0 0 0
3660492 0.004885262012014454 -0.0032474267998435905 0.001012446276558166 -0.0008696981685206985 0 0 0 0
3693438 0.004884013849874487 -0.003318932366680613 0.0009930824120174125 -0.0008765207870994625 0 0 0 0
3726384 0.00497755795468226 -0.0033404222194092182 0.0009597028451438785 -0.0008626157168401089 0 0 0 0
3759330 0.004773946083417447 -0.0034300915152361898 0.0009528341068850468 -0.0008771608186700257 0 0 0 0
3792276 0.004975081628829155 -0.003244693439395461 0.0009477325294673978 -0.0008666101498683056 0 0 0 0
3825222 0.005009833734497233 -0.0033610656526749188 0.0009500369375803294 -0.0008303668897743234 0 0 0 0
3858168 0.004860507153991563 -0.003172014906736611 0.0009339067045839721 -0.0008294714773427955 0 0 0 0
3891114 0.0048946481334093545 -0.0032024275051859893 0.000897404968457328 -0.0008042031601406841 0 0 0 0
3924060 0.00479185232240455 -0.003243763488278196 0.0008924874217836089 -0.0008169336222693905 0 0 0 0
3957006 0.004905478218531033 -0.0032576639265250226 0.0008625468909390061 -0.0007801935294551752 0 0 0 0
3989952 0.005044583832545668 -0.003286475213192903 0.0008502568995576351 -0.0007720190319307995 0 0 0 0
4022898 0.004942881924001649 -0.0031814455879617502 0.0008316340887294704 -0.0007603799788020817 0 0 0 0
4055844 0.004924773730232062 -0.003140223734963924 0.0008284838093325566 -0.000755753262611245 0 0 0 0
4088790 0.004880552216546726 -0.0031313250900322316 0.0008406825313905673 -0.0007199379835389284 0 0 0 0
4121736 0.004854804374877075 -0.003232449171962317 0.0007968970916598804 -0.000725020493770635 0 0 0 0
4154682 0.005036223689169696 -0.0031825271159518615 0.0008097571794683869 -0.0007327964044902201 0 0 0 0
4187628 0.0049587771350585765 -0.0030208665647775577 0.0007836210069906201 -0.0006645492629750247 0 0 0 0
4220574 0.0049333751140588486 -0.003015164724354062 0.0007702898729446164 -0.0006636934602945842 0 0 0 0
4253520 0.004896529460856362 -0.0030352940109149703 0.0007509486748541377 -0.0006533544330659905 0 0 0 0
4286466 0.00489282856109952 -0.0030809737733965207 0.0007323545762395567 -0.0006214130578794553 0 0 0 0
4319412 0.004911400291884954 -0.0030756274312975108 0.0007641379021450432 -0.000617857839732848 0 0 0 0
4352358 0.00497576095703173 -0.002991944770863795 0.0007271837344315283 -0.0006006054588276548 0 0 0 0
4385304 0.004895295567744057 -0.0030447452328977616 0.0007446100406857927 -0.0006035902868298076 0 0 0 0
4418250 0.005042568079360134 -0.0030859626676693814 0.0007230633148371219 -0.0006134276855862008 0 0 0 0
4451196 0.005015968427072345 -0.002940591783401291 0.0007182826817420361 -0.0005873908175816903 0 0 0 0
4484142 0.0050591689730909595 -0.002906749044281387 0.0007264201475422164 -0.000578041121887018 0 0 0 0
4517088 0.0049899868534389585 -0.0030087485522338362 0.0007262362141888169 -0.0005610347256765567 0 0 0 0
4550034 0.004839764855054616 -0.002973244638444157 0.0006949613367886934 -0.0005612564743825762 0 0 0 0
4582980 0.005037970507506678 -0.002991600493430927 0.0007032595629898153 -0.0005424398660158155 0 0 0 0
4615926 0.005064056560048807 -0.0029333646807294237 0.0007019944908253272 -0.0005174333211784765 0 0 0 0
4648872 0.005028485876482515 -0.0029717063782533845 0.0006790725386805977 -0.0005248472195476012 0 0 0 0
4681818 0.005088092632781025 -0.0029547045367122535 0.0006986550024998089 -0.0005088729562571935 0 0 0 0
4714764 0.005060460438327806 -0.002804642233676482 0.0006847016707316614 -0.0005131038905496475 0 0 0 0
4747710 0.0050356697842961675 -0.002827475345421817 0.0006496019078505364 -0.0004995944646070886 0 0 0 0
4780656 0.005023974462027664 -0.002812044286725587 0.0006674321480507297 -0.0004568605613000163 0 0 0 0
4813602 0.005174406562094502 -0.0029909673046181035 0.0006561840881396899 -0.00048043342236388063 0 0 0 0
4846548 0.005049260751054833 -0.0028579362661305275 0.0006583143721575642 -0.0004130005358326277 0 0 0 0
4879494 0.005010244894018807 -0.0027637308896171996 0.0006690168489824907 -0.0004274462776577781 0 0 0 0
4912440 0.005045887297018916 -0.0027968318167384742 0.0006507719807361847 -0.0004348690472887882 0 0 0 0
4945386 0.005165706637217479 -0.0028809664545887946 0.0006806261094580305 -0.00041685130615450066 0 0 0 0
4978332 0.0051416863068348365 -0.0027622894720741383 0.000682769486873307 -0.0004070260223347337 0 0 0 0
5011278 0.005160787298910525 -0.0028874498795424964 0.0006809318476454955 -0.00039475262743787873 0 0 0 0
5044224 0.005147731683522717 -0.0028143681977588755 0.0006704856767651533 -0.0004024596144400963 0 0 0 0
5077170 0.005073890917222943 -0.0027578143819187214 0.0006829044571745504 -0.00038915861578410504 0 0 0 0
5110116 0.0050850059584414044 -0.002752124659721328 0.0006947285857511028 -0.0003727183004152828 0 0 0 0
5143062 0.005093501497597632 -0.002731167929643778 0.0006827532565536091 -0.0003653192916156151 0 0 0 0
5176008 0.005231984222941468 -0.0027309795113206192 0.0006557821705508915 -0.00034598139365114535 0 0 0 0
5208954 0.00510067456225428 -0.0027662217549676424 0.0006217529285302937 -0.00038150679015784734 0 0 0 0
5241900 0.005179121175009589 -0.0027211795005919557 0.0006275211987146778 -0.00035192245769389646 0 0 0 0
5274846 0.005221480934022178 -0.0027364502140643393 0.000692244115948549 -0.00032358005469524515 0 0 0 0
5307792 0.005093561190897594 -0.002801983880441004 0.0006727325018571858 -0.0003294987424764743 0 0 0 0
5340738 0.005285218925668554 -0.00266065355646017 0.0006537228643619226 -0.0003335064360979677 0 0 0 0
5373684 0.005354305123439086 -0.002719816912212263 0.0006779414016390298 -0.00029650513601733175 0 0 0 0
5406630 0.00533042951188248 -0.0027840126501724283 0.000688535281592309 -0.00033308229104226484 0 0 0 0
5439576 0.005377756393162013 -0.0027113552848810076 0.0006578499262571536 -0.0003016915905177374 0 0 0 0
5472522 0.005193614610162709 -0.0028014989637557067 0.0006700614675189591 -0.00029283431396867995 0 0 0 0
5505468 0.005237818831918709 -0.0027066551634257335 0.0006521806606274202 -0.00029135066860559163 0 0 0 0
5538414 0.00525463670389926 -0.002767672154150653 0.0006961075152431503 -0.0002716924168663271 0 0 0 0
5571360 0.005314274839825347 -0.0026227941200829843 0.000638881220565968 -0.00023994798981985402 0 0 0 0
5604306 0.005323944478601299 -0.002719535559147244 0.0006921143835462681 -0.0002826080594300239 0 0 0 0
5637252 0.005277062848477763 -0.0027019164955610513 0.0006582337934155934 -0.0002637307477959998 0 0 0 0
5670198 0.005425812304634192 -0.0027456859576784356 0.0006835720190416494 -0.00024559152835969283 0 0 0 0
5703144 0.005425112154858281 -0.002723228246456485 0.0006741745900434268 -0.0002471290135166519 0 0 0 0
5736090 0.005432388168002229 -0.0027734814827043825 0.0006983546561488914 -0.00024401510586695115 0 0 0 0
5769036 0.005376402734087541 -0.002740933128519276 0.0006924457304483038 -0.0002754321455180397 0 0 0 0
5801982 0.005472109002222226 -0.002739899005600608 0.0006668757012172912 -0.0002732426114107656 0 0 0 0
5834928 0.005515889461943824 -0.002721623006752921 0.0006727669779398497 -0.00022450207489114427 0 0 0 0
5867874 0.005419054714487062 -0.0026039370200431388 0.0006414222130868342 -0.00019806818524693428 0 0 0 0
5900820 0.005432777103677448 -0.002652037902929623 0.0006821981305423087 -0.00020809154004775178 0 0 0 0
5933766 0.0054739872007412635 -0.002705903598813819 0.0006839778910850894 -0.00019809216326975435 0 0 0 0
5966712 0.005418948975789331 -0.0027009612699470894 0.0006614445969028789 -0.00021046731201795871 0 0 0 0
5999658 0.005500196374000607 -0.002750513036511223 0.0006584113571136619 -0.00018841466347318373 0 0 0 0
6032604 0.005615190847705986 -0.0028629602200613146 0.0007147317082383537 -0.00018729232351091902 0 0 0 0
6065550 0.005496895328529802 -0.0026796972005563033 0.000693494302128969 -0.00017192799071327178 0 0 0 0
6098496 0.005450232316200244 -0.002690377827830166 0.0006803505329580795 -0.00019470968431006203 0 0 0 0
6131442 0.005522025281733139 -0.002677708205151574 0.0006976569012510155 -0.00016391582617071882 0 0 0 0
6164388 0.005497135919759293 -0.0027239365218231877 0.0006728338909566493 -0.00015926760915728976 0 0 0 0
6197334 0.005609912222275271 -0.002737481449474997 0.0007127782597418 -0.0001198261987598392 0 0 0 0
6230280 0.005598913072074316 -0.002707820380577839 0.0006882329127907514 -0.0001568738385300791 0 0 0 0
6263226 0.005678616611755882 -0.0026431361173694804 0.0007031581647565702 -0.0001306034197143675 0 0 0 0
6296172 0.005689622957050344 -0.002662362618500311 0.0006850865401501701 -0.00015818173021142092 0 0 0 0
6329118 0.005616978757445867 -0.0027977334103813306 0.0007081025016418084 -0.000149780200654557 0 0 0 0
6362064 0.005699957219887249 -0.0026853233529066716 0.00070747561058247 -0.00013725428720539053 0 0 0 0
6395010 0.0057164753175589856 -0.00274220005641383 0.0006887277752137737 -0.00015474016253682238 0 0 0 0
6427956 0.005652339981046515 -0.0026930149262413086 0.0007042754572059495 -0.00015794117860837512 0 0 0 0
6460902 0.0056736840872132766 -0.002809127167795202 0.0007203892069101699 -0.00012699658558829497 0 0 0 0
6493848 0.005707995653059612 -0.002679521571505504 0.0007143117569946002 -0.00010311967506959677 0 0 0 0
6526794 0.005786180349175483 -0.0028404297236660396 0.0007095968266561269 -0.0001067922303992344 0 0 0 0
6559740 0.005735899393439131 -0.0027425936645354178 0.0007027374095239096 -9.849309007949723e-05 0 0 0 0
6592686 0.005776443741386421 -0.002839268941298525 0.0007036074202361272 -0.00014532819708426654 0 0 0 0
6625632 0.00581172455751342 -0.0027975789551754958 0.0007094452837113143 -0.00011037836750630266 0 0 0 0
6658578 0.005770199569726133 -0.002715084070903778 0.0007178154973012174 -8.747451118798323e-05 0 0 0 0
6691524 0.005820533033629681 -0.0028710283372424352 0.0007044973903234133 -9.350030325622552e-05 0 0 0 0
6724470 0.005862825975702808 -0.00289453089143313 0.0006737357520738145 -7.596668880118368e-05 0 0 0 0
6757416 0.005808184471107943 -0.0027529156090499753 0.0007062781304486915 -8.371221941170787e-05 0 0 0 0
6790362 0.005850189741671336 -0.0029032893306727473 0.000726079200294113 -7.437434179680489e-05 0 0 0 0
6823308 0.005919802108162113 -0.0028040413974404176 0.0007062810575981061 -8.021549355414226e-05 0 0 0 0
6856254 0.0058947465798151405 -0.002783928968616701 0.0006834667740129135 -9.457836095688125e-05 0 0 0 0
6889200 0.0058920605018539665 -0.002775270402866297 0.0007015740333463187 -4.976030343996054e-05 0 0 0 0
6922146 0.005986115421893093 -0.0027695218166817713 0.00072052310355737 -6.116685113041193e-05 0 0 0 0
6955092 0.005997143933008966 -0.002735729776023385 0.0007479023306270679 -7.073528550645629e-05 0 0 0 0
6988038 0.006030597184734987 -0.002701482092923829 0.0007447044083908915 -6.488531296557486e-05 0 0 0 0
7020984 0.006065815846948265 -0.0028816473666172693 0.0007164802557074699 -9.101508954310097e-05 0 0 0 0
7053930 0.006065940399429174 -0.0027980007135134126 0.0007216673590089362 -8.849910270999927e-05 0 0 0 0
7086876 0.006052706415480816 -0.0029078734765579043 0.0007327543934252455 -3.0087213316897524e-05 0 0 0 0
7119822 0.0060317527580953005 -0.002816032126160836 0.0007185414641234851 -5.2232525350537294e-05 0 0 0 0
7152768 0.005947293857547698 -0.0028110929570737257 0.0007358741191513671 -4.474261491612939e-05 0 0 0 0
7185714 0.005995891764639835 -0.0028140807049320876 0.0007561321191148114 -4.9438242206756004e-05 0 0 0 0
7218660 0.00606305647202873 -0.0029022051368192687 0.0007577099522778953 -1.7174399586634687e-05 0 0 0 0
7251606 0.006132815584977788 -0.0028314247102387796 0.0007211188595140512 -4.6066565592136835e-05 0 0 0 0
7284552 0.0060898798083423465 -0.002931590859018972 0.0007391407562880729 -2.230150530819705e-05 0 0 0 0
7317498 0.006082363093094757 -0.002916188177571839 0.0007099651841152115 -2.0564135591933635e-05 0 0 0 0
7350444 0.006076520952447762 -0.002903240344936281 0.0007159700622027307 -3.1971880182509366e-05 0 0 0 0
7383390 0.006056643687297256 -0.00298595473329918 0.0007261359687173285 -5.4558085058474846e-05 0 0 0 0
7416336 0.006109725836066498 -0.0029998011682432395 0.00074194841328003 -3.1419714211694166e-05 0 0 0 0
7449282 0.0060914881914440975 -0.0029221903611838834 0.0007535986224972077 -2.4199971081524186e-05 0 0 0 0
7482228 0.006182493802221763 -0.002923821584968017 0.000759580440169807 -2.1817543948418976e-05 0 0 0 0
7515174 0.006213468591743426 -0.0030399991581710737 0.0007543364056969575 -5.6655598878357415e-06 0 0 0 0
7548120 0.006153121472597941 -0.002956632442784479 0.0007588126718061398 -3.838738374630008e-05 0 0 0 0
7581066 0.006198371870751087 -0.0029788103888983364 0.0007475133170638355 -2.464958657485942e-07 0 0 0 0
7614012 0.0062031416701956955 -0.0030282095915755915 0.0007490698626537002 -1.756325109532912e-05 0 0 0 0
7646958 0.00619689983942962 -0.0030707187137172104 0.0007425417355500779 -2.2210289308044344e-05 0 0 0 0
7679904 0.006176165750347129 -0.002991561149869143 0.0007685786382498349 -1.3330592132648562e-05 0 0 0 0
7712850 0.006203963126313174 -0.0029947424663940205 0.0007553181917173882 -1.7541466583962466e-05 0 0 0 0
7745796 0.006284532147241539 -0.003098117408238731 0.0007328908516289674 -1.1877044194262204e-05 0 0 0 0
7778742 0.006209463036240094 -0.003077570161876165 0.0007308148216006011 -1.4738954331067023e-05 0 0 0 0
7811688 0.0063590876898159685 -0.003104653955800836 0.0007361784270100347 -2.0017338069058508e-05 0 0 0 0
7844634 0.006370063665136222 -0.003167651529943269 0.0007505250917027053 -2.7814689512549292e-05 0 0 0 0
7877580 0.006339665891606873 -0.0032085113154176298 0.0007449335545187602 2.24107106568417e-06 0 0 0 0
7910526 0.006266858599340382 -0.003064814160100932 0.0007420799186340208 9.328735407643922e-06 0 0 0 0
7943472 0.006341579412671174 -0.003223216189156578 0.0007722269349863918 -4.040273722994822e-05 0 0 0 0
7976418 0.006347243047935528 -0.003102507791318607 0.000755352365388573 -3.75925112653721e-05 0 0 0 0
8009364 0.006465866962385021 -0.0031734424629067436 0.0007731953871176101 -1.181231816375114e-06 0 0 0 0
8042310 0.006351928344182383 -0.0031734305731454227 0.0007561972072546396 2.9175660375627775e-05 0 0 0 0
8075256 0.006517596901811854 -0.003238891344184988 0.0007656663720002133 2.196385493977926e-05 0 0 0 0
8108202 0.006424600733057574 -0.0031256106814967002 0.000751100112270328 -7.678831760945746e-06 0 0 0 0
8141148 0.006521112657976073 -0.0032284189078748225 0.0007596640772194891 -2.411282887915009e-05 0 0 0 0
8174094 0.0064450759549026255 -0.0031996662522358176 0.0007471162535388555 2.2255090218226413e-05 0 0 0 0
8207040 0.0064864705149949445 -0.0031997023405623375 0.00075935346496332 4.958137242519375e-05 0 0 0 0
8239986 0.006550009238780527 -0.0032414101057248847 0.0007599453866814627 3.0857755554695705e-05 0 0 0 0
8272932 0.006551718838570858 -0.003147106369215042 0.0007714877686977994 5.5751490039480764e-05 0 0 0 0
8305878 0.006429768281316698 -0.003242706719102178 0.0007584883023759886 2.7548452405727905e-05 0 0 0 0
8338824 0.006409161855646241 -0.0032337717178613935 0.0007747470496353762 3.6551746790546106e-05 0 0 0 0
8371770 0.006437510819698549 -0.0033285238487000017 0.0007797883052668812 1.7005500384440718e-05 0 0 0 0
8404716 0.006557916221553716 -0.003307468301154972 0.000772638842188605 4.581439261630506e-05 0 0 0 0
8437662 0.006624278453143258 -0.003414815741002102 0.0007666237176121786 2.171191515190681e-05 0 0 0 0
8470608 0.006715033503983963 -0.0034047856245790326 0.0007524558754882529 6.376253454518118e-05 0 0 0 0
8503554 0.006538370779275165 -0.003352310076899166 0.000761530301453981 2.8869006881532854e-05 0 0 0 0
8536500 0.006554954692073846 -0.0033939158215802313 0.0007887562361931895 2.4072095362576426e-05 0 0 0 0
8569446 0.006602606042602533 -0.0033487673165841047 0.0007530520290047729 3.969315959921749e-05 0 0 0 0
8602392 0.006651852000133883 -0.0035052966318627745 0.0007958727083215864 4.339984423245356e-05 0 0 0 0
8635338 0.0066840509125463505 -0.0034847027937098024 0.000772561278209755 3.0471229606565118e-05 0 0 0 0
8668284 0.00661366471202106 -0.00352621892864775 0.0007557736038760208 8.234642525229524e-05 0 0 0 0
8701230 0.006683548245766652 -0.0033788169079958354 0.0007880277799830662 3.0869794834423904e-05 0 0 0 0
8734176 0.006639997374623535 -0.003441596839434713 0.0007737182361553955 6.422702878675208e-05 0 0 0 0
8767122 0.006641336378029289 -0.003427252835463748 0.0007685294231600243 2.886030667592098e-05 0 0 0 0
8800068 0.006759492845877095 -0.003489173490062376 0.0007583921509150318 6.894584257129004e-05 0 0 0 0
8833014 0.006705919928022534 -0.0035840984100629467 0.0007630575890056668 5.911257370378194e-05 0 0 0 0
8865960 0.006730113721981798 -0.0035618906742233237 0.0007874311032261875 4.1846033776390375e-05 0 0 0 0
8898906 0.006728093665243378 -0.003597056629610437 0.0007669047843668049 8.705618441933542e-05 0 0 0 0
8931852 0.006722342221971838 -0.003564936276491842 0.0007657502871920151 4.3380478287287e-05 0 0 0 0
8964798 0.00683286003417906 -0.0035736145615496836 0.000785750982860473 5.670875390735861e-05 0 0 0 0
8997744 0.006768003118199866 -0.003737453448583693 0.0007586432996005585 7.247129850588118e-05 0 0 0 0
9030690 0.0068065756944760206 -0.003626756668094394 0.000783181860685826 6.392706183512324e-05 0 0 0 0
9063636 0.006785372826515727 -0.0035843020976564655 0.0007913116167009881 8.233326705795191e-05 0 0 0 0
9096582 0.006758902893248938 -0.003627894440786988 0.0007750941665064999 8.565435449500097e-05 0 0 0 0
9129528 0.006793567016484565 -0.003571741964228148 0.0008096560252512531 7.546018406342212e-05 0 0 0 0
9162474 0.006928525242424674 -0.0038441834939384836 0.0007698978124977405 8.189484012902706e-05 0 0 0 0
9195420 0.006867660519640207 -0.003763057087823612 0.0007754787069012112 6.672956584018926e-05 0 0 0 0
9228366 0.006920326458969557 -0.0038010004291098563 0.0007588505332301978 8.146499610264659e-05 0 0 0 0
9261312 0.0068767804064741676 -0.0038177716588342456 0.0007998833248021298 8.714638667118611e-05 0 0 0 0
9294258 0.0068417390580281364 -0.0038381228049493535 0.0007802955293612584 7.338400624107404e-05 0 0 0 0
9327204 0.006846016475253487 -0.0037805227553320496 0.0008063018344319132 9.601805141498237e-05 0 0 0 0
9360150 0.006893844919565498 -0.003849988551834489 0.0007905753913739856 8.119764757426284e-05 0 0 0 0
9393096 0.006942038777039533 -0.0038131953721411015 0.0007983965033098433 9.517033618475981e-05 0 0 0 0
9426042 0.006911083839650859 -0.0038640208080808545 0.0007966672056272354 9.968765005342485e-05 0 0 0 0
9458988 0.00702387436165189 -0.003865256130786302 0.0007631110419086609 9.731751514412738e-05 0 0 0 0
9491934 0.0069699766195293125 -0.003831635859067687 0.0007694016659102133 0.00011194199743881835 0 0 0 0
9524880 0.006929134254011821 -0.0038696246331643884 0.0007985979463804797 9.28866715135877e-05 0 0 0 0
9557826 0.0069823485917703924 -0.003948769114362912 0.0008014666353128892 0.00010025884824904085 0 0 0 0
9590772 0.006917046487802979 -0.003954352316886414 0.0007780167747307997 9.19613673958919e-05 0 0 0 0
9623718 0.007018858810993799 -0.003968612213290387 0.0007713324042557662 8.088950580704315e-05 0 0 0 0
9656664 0.007081471275122871 -0.003975425253551925 0.0007871819913215332 9.54847322728947e-05 0 0 0 0
9689610 0.007011974750175899 -0.004023831611515547 0.0007758894887808445 0.00011208111694245183 0 0 0 0
9722556 0.006950319488892182 -0.004056055051516461 0.0007910667495392047 0.00010231602895464765 0 0 0 0
9755502 0.0070818007494040415 -0.00403659509754122 0.0007937270396734549 0.00010490892451230344 0 0 0 0
9788448 0.007088459729344579 -0.004043595049270178 0.0007875295219923298 9.831806823673116e-05 0 0 0 0
9821394 0.0070971895290782286 -0.0040594850760595205 0.0008118813865810767 0.00010453867064269667 0 0 0 0
9854340 0.0070709752209890155 -0.004118690587575641 0.0007944774244916273 9.647654815095154e-05 0 0 0 0
9887286 0.007132049824039771 -0.004169758970716141 0.000810409487761973 0.00010926529182234807 0 0 0 0
9920232 0.007073078438662696 -0.004106553380837319 0.0008033987510637727 0.00010156341936976854 0 0 0 0
9953178 0.006957305644333515 -0.0041684089154238515 0.0008067194480743741 0.00012176282197735005 0 0 0 0
9986124 0.0071259119906614855 -0.00417840372246364 0.0007707446937308285 0.00012370537501964253 0 0 0 0
10019070 0.007224156701956797 -0.004127259976837094 0.0007882542780270063 0.00010992151306970846 0 0 0 0
10052016 0.0071655971308337 -0.004217265882771543 0.0008007466224781052 9.052014952874465e-05 0 0 0 0
10084962 0.007038915087709923 -0.004307092791117366 0.0007834988108034873 0.00012232764337193956 0 0 0 0
10117908 0.007054692890714762 -0.004193219254624638 0.0008045565059677252 0.0001242896005654689 0 0 0 0
10150854 0.007146582496997308 -0.004363811143456756 0.0008142200626820003 0.00013580620672448262 0 0 0 0
10183800 0.007146356562710755 -0.004338273290767752 0.0007861380862405638 0.00014128508619330512 0 0 0 0
10216746 0.007304689445224178 -0.004304188360604391 0.0008122565296506749 0.00013553659258948224 0 0 0 0
10249692 0.007289932402811539 -0.004307842777961624 0.0008215086934864004 0.00011463994982596148 0 0 0 0
10282638 0.007023185581834286 -0.004323650242923959 0.0008177384212388949 0.00011936690355027271 0 0 0 0
10315584 0.007074953858760887 -0.004327641629246977 0.0008084128818842429 0.00012280606233057515 0 0 0 0
10348530 0.007142531725822404 -0.004445931851252817 0.0008303518239998657 0.000141184567190829 0 0 0 0
10381476 0.007208105924194436 -0.004487601452914494 0.000802388513977596 0.000129442481158223 0 0 0 0
10414422 0.00723106117534621 -0.004483922352294683 0.0007970906182580768 0.00014292785283644447 0 0 0 0
10447368 0.007144065324657351 -0.0044570502083510054 0.0008126766043384146 0.00012161322023534758 0 0 0 0
10480314 0.007171644319532428 -0.004396192659265989 0.0008010484219352272 0.0001433374881050542 0 0 0 0
10513260 0.007227976009695454 -0.00452507954139805 0.0007909478865306478 0.00012060157183778825 0 0 0 0
10546206 0.007312417821472293 -0.004504363088798391 0.0008144128613293257 0.00016143497630703187 0 0 0 0
10579152 0.00731267176248871 -0.004460106385481781 0.000817303489171673 9.830784016928682e-05 0 0 0 0
10612098 0.007271785421680995 -0.004536091474527171 0.00082368941797047 0.0001690860513412769 0 0 0 0
10645044 0.007245852080279593 -0.004532488813213801 0.0008143534964438636 0.000148543127477983 0 0 0 0
10677990 0.007245156259477707 -0.0045019156117329096 0.0008111455820055251 0.0001545594506693556 0 0 0 0
10710936 0.007296215950885368 -0.004671306381409315 0.0008226606298195562 0.0001266917439786291 0 0 0 0
10743882 0.007282636760691994 -0.00465140212317328 0.0008097071260225869 0.0001617447426209821 0 0 0 0
10776828 0.007276733901903628 -0.004558097908790813 0.0007935698309833812 0.00015818665468251563 0 0 0 0
10809774 0.007285272257150076 -0.004629026491988418 0.0008177603544822383 0.00015353375800006026 0 0 0 0
10842720 0.007233328899392436 -0.004618131428674344 0.0008330196525642932 0.00016978102512240324 0 0 0 0
10875666 0.007452964052929751 -0.004687675645171533 0.0008245705163334489 0.0001730628642959691 0 0 0 0
10908612 0.007242065726242018 -0.0046845454700878645 0.0007795898627570528 0.00015410121521247563 0 0 0 0
10941558 0.007328678863427086 -0.00470703895205774 0.0008312136553440115 0.00014749508475382346 0 0 0 0
10974504 0.007271338309691579 -0.00472583220258609 0.00080944940071165 0.00015454475418526424 0 0 0 0
11007450 0.007240950275160858 -0.004793433796026137 0.000792899510680946 0.00019706059569655628 0 0 0 0
11040396 0.007376094121966519 -0.004737469670104792 0.0008390705397464737 0.00019430415828083434 0 0 0 0
11073342 0.0074018056102445095 -0.004869960720833069 0.0008236630823473678 0.00015637177802681996 0 0 0 0
11106288 0.007435970942935891 -0.004841772961168826 0.0008324694846198463 0.00017478407758288276 0 0 0 0
11139234 0.007448026572246983 -0.004813550847625061 0.000842341493087551 0.00019203509995351767 0 0 0 0
11172180 0.007462691735037854 -0.004971101660536454 0.000815572994252597 0.00016692536609792382 0 0 0 0
11205126 0.007393094839658593 -0.004811788910781601 0.0008404052952114822 0.00014967693064952962 0 0 0 0
11238072 0.0073932320243644 -0.004924536448573708 0.0008140190097390767 0.000162702994643166 0 0 0 0
11271018 0.00733008337627865 -0.004891792428872022 0.0008312991032575934 0.00017260390217147464 0 0 0 0
11303964 0.007470031263991555 -0.00506012061220185 0.0008475137974115227 0.0001640721271931291 0 0 0 0
11336910 0.007458941234132568 -0.004993687822381388 0.0008188659648134305 0.00018999660994954148 0 0 0 0
11369856 0.007465542996066809 -0.004977229285869042 0.0008585105128468468 0.00019139868654575006 0 0 0 0
11402802 0.007520157402063852 -0.005067036708794209 0.0008365326217006266 0.00017637900521402545 0 0 0 0
11435748 0.007480309488359386 -0.005117190747921567 0.0008635895544442201 0.00018843577268951072 0 0 0 0
11468694 0.007420989389554149 -0.004977287607961561 0.0008052538975239933 0.00017008039208141153 0 0 0 0
11501640 0.007436849136634291 -0.005210724080976983 0.0008109011343554432 0.00016337216289134473 0 0 0 0
11534586 0.007460492978641564 -0.005151715322290663 0.0008004397054214244 0.00016576318058210196 0 0 0 0
11567532 0.007615060386683317 -0.005087929428036066 0.0008183525519253247 0.00019133476064854305 0 0 0 0
11600478 0.007551268985051132 -0.005065146617532416 0.0008187665976922638 0.0001975861972096346 0 0 0 0
11633424 0.007528525548140406 -0.005170472968537928 0.0008147242717431397 0.00017355402879288978 0 0 0 0
11666370 0.007533584558615245 -0.005169481413836895 0.0008009161791740735 0.00016247707595553403 0 0 0 0
11699316 0.0074221682905931735 -0.0052438212274118975 0.0008363542364382723 0.00019775382998866856 0 0 0 0
11732262 0.007441848972667865 -0.005227484655959763 0.0008188769263672869 0.00019854789498504938 0 0 0 0
11765208 0.007601890278580202 -0.0052487694626809685 0.0008236382693763702 0.0001747497932142237 0 0 0 0
11798154 0.0075442730244562805 -0.005256872813663536 0.0008423737627269129 0.00021235734779681878 0 0 0 0
11831100 0.007509920989016438 -0.0052819462539334784 0.000833697753475203 0.00015810541210957844 0 0 0 0
11864046 0.007446637650867465 -0.005262048302430154 0.0008247775247831219 0.00020367485937309587 0 0 0 0
11896992 0.0074210431629841145 -0.005354043573329817 0.0008217219180045613 0.00022274710666946726 0 0 0 0
11929938 0.007514873190865659 -0.005336983555529603 0.000814806771367469 0.0001829186958990082 0 0 0 0
11962884 0.0075716169720189954 -0.005452544332639073 0.0008323552197335837 0.0001989322146942659 0 0 0 0
11995830 0.007572118879404741 -0.005469538257202795 0.0008372748565632497 0.00017861229968003605 0 0 0 0
12028776 0.0076029175840652856 -0.0054261167472802385 0.0008462079029468375 0.00018853507722848824 0 0 0 0
12061722 0.007526462799033046 -0.0054077832820039785 0.0008141553546654475 0.00022773264777498163 0 0 0 0
12094668 0.007695836379049104 -0.005429622684073886 0.0008354107588243924 0.0002075096413157696 0 0 0 0
12127614 0.007483614260542699 -0.005371731346202542 0.0008575100837040032 0.0002171877451470279 0 0 0 0
12160560 0.0075109536385803526 -0.0054818146046521085 0.000878690018307438 0.00020428276370407355 0 0 0 0
12193506 0.007543198585408685 -0.0055412196604050345 0.000815313476811431 0.0002163726724670655 0 0 0 0
12226452 0.007644747165899298 -0.005514431188315171 0.0008164124555188933 0.0001983282981595361 0 0 0 0
12259398 0.007595804740454793 -0.005585493247427302 0.0008486350990216373 0.00021160687626889269 0 0 0 0
12292344 0.007629762553224389 -0.005464592422441989 0.0008286233865475511 0.00018747688936229416 0 0 0 0
12325290 0.00771250773063783 -0.005675400498252661 0.0008647172741016699 0.00017820694135571005 0 0 0 0
12358236 0.007684746890899412 -0.005682146081176984 0.0008287028381131702 0.0001990180931438931 0 0 0 0
12391182 0.007626105106634796 -0.005627739697740427 0.0008313637318006886 0.0002044580905113232 0 0 0 0
12424128 0.00768799826559295 -0.0056977421907101955 0.0008690523690414193 0.0002124246761398244 0 0 0 0
12457074 0.007527925367588388 -0.005699872369197884 0.0008482282520096404 0.00020976309957164115 0 0 0 0
12490020 0.007600186517083987 -0.005685418643266022 0.000826749062839014 0.00021535066624603884 0 0 0 0
12522966 0.007538772405082618 -0.005765805705657072 0.0008402254129353917 0.00020713786107537437 0 0 0 0
12555912 0.007625561898414565 -0.005723342124596189 0.0008522637525170291 0.00019078270430334396 0 0 0 0
12588858 0.0075614483851129 -0.005686816063220547 0.0008530523393385157 0.00020787726769397251 0 0 0 0
12621804 0.007733774830192006 -0.005861913384849677 0.0008103968772401111 0.00021806364970327385 0 0 0 0
12654750 0.007794084750951806 -0.005827789424882036 0.0008433806902941942 0.00022199825524438717 0 0 0 0
12687696 0.007707277222275249 -0.005857849841768022 0.0008388113900497752 0.00022101099843653926 0 0 0 0
12720642 0.0075888554342929985 -0.00576015832139018 0.0008451986558148948 0.0002039984617456863 0 0 0 0
12753588 0.007604036145707172 -0.005829201013908069 0.000842162900783229 0.0002584641851627428 0 0 0 0
12786534 0.0076268657878104 -0.005942152515853002 0.0008434138732740702 0.00022148204880462164 0 0 0 0
12819480 0.007695642889679743 -0.005861631840948577 0.0008574452660121153 0.00022357037985536133 0 0 0 0
12852426 0.007770835653064525 -0.005999213215732581 0.000854169228415308 0.0002479538232340857 0 0 0 0
12885372 0.007749341152376811 -0.005952544489961881 0.0008255961503475884 0.00022139472833220802 0 0 0 0
12918318 0.007729883552342165 -0.005945675644928939 0.0008576623130564651 0.000263616336444231 0 0 0 0
12951264 0.007641924171283727 -0.005927020048455389 0.0008586347995783229 0.00022902200197803167 0 0 0 0
12984210 0.007671898827427407 -0.006004061180497989 0.0008366284920433094 0.0002340315454962408 0 0 0 0
13017156 0.007628484660930119 -0.006067958221388008 0.0008661830119563532 0.00023341525038844015 0 0 0 0
13050102 0.007753195686739412 -0.006154990719866049 0.0008628723376833628 0.00023469106176585145 0 0 0 0
13083048 0.007761381375976593 -0.006054471493566103 0.0008388141659152877 0.0002424626410009923 0 0 0 0
13115994 0.007716278163100862 -0.006050240278487693 0.0008692005894270713 0.00021778482621119362 0 0 0 0
13148940 0.007729658263976335 -0.006130514898761507 0.0008690126559393272 0.00023991809733105363 0 0 0 0
13181886 0.007702043177493936 -0.006170330853451694 0.0008393926715687483 0.00022827572157629343 0 0 0 0
13214832 0.00779971534872173 -0.006226249734394619 0.0008580113535168932 0.00023014705974297502 0 0 0 0
13247778 0.00770495990009618 -0.006175077985028043 0.0008705737197309807 0.00023380124902232919 0 0 0 0
13280724 0.007816459626062103 -0.006206871359569531 0.0008637495706279617 0.00025061372599636725 0 0 0 0
13313670 0.0077613344150335205 -0.006234880440301499 0.0008554302267859563 0.00026484999112887743 0 0 0 0
13346616 0.007799034989477647 -0.006234488680361731 0.0008612012872789008 0.0002345964370536771 0 0 0 0
13379562 0.007665648172784277 -0.006228602493218325 0.0008680451678295141 0.00024263875236653747 0 0 0 0
13412508 0.007751817626459793 -0.006253688120617281 0.000853994280015882 0.00024198564493477432 0 0 0 0
13445454 0.007796815328963453 -0.006280641353401364 0.0008354569032400589 0.000246664757032443 0 0 0 0
13478400 0.00772646914947353 -0.006375430285809781 0.0008556819273518241 0.00027019257220347914 0 0 0 0
13511346 0.007777451966702848 -0.006349224046578346 0.0008693777955970466 0.0002538424899876655 0 0 0 0
13544292 0.007695037239227604 -0.006367245894449589 0.0008502756845248121 0.00024941221219561857 0 0 0 0
13577238 0.00784629391485902 -0.006400207358913554 0.0008476351146700179 0.0002328245984738983 0 0 0 0
13610184 0.007821126415504224 -0.006377163566592979 0.0008501440652237118 0.00024458271772105877 0 0 0 0
13643130 0.007825554051869453 -0.006432214076874153 0.0008673200297315841 0.00024169867711322564 0 0 0 0
13676076 0.007805510120546716 -0.006503562129005344 0.0008593855862560432 0.0002635556781213896 0 0 0 0
13709022 0.007825129771244574 -0.0064845176533260655 0.0008651769120557164 0.0002868108411335317 0 0 0 0
13741968 0.0077453965695197 -0.0064459591162904 0.0008682715829577236 0.0002580981798717426 0 0 0 0
13774914 0.007812562007630093 -0.006577344042930185 0.0008662150461853201 0.00024799367573977274 0 0 0 0
13807860 0.007831664422734039 -0.006516853797125709 0.0008717825701336424 0.000265975921125993 0 0 0 0
13840806 0.007844870392682356 -0.006628473207070821 0.0008406812557844805 0.00023829714988514685 0 0 0 0
13873752 0.007797685733297548 -0.006549502215464537 0.0008583526376864068 0.00025280973584415687 0 0 0 0
13906698 0.007851654240209487 -0.0065810598325273875 0.0008603005799665057 0.0002466113165236384 0 0 0 0
13939644 0.007807512373691468 -0.006597210874209413 0.0008687873526756583 0.0002772736775798271 0 0 0 0
13972590 0.007800382909025411 -0.006612800541393758 0.000843937343345284 0.00026894769478672984 0 0 0 0
14005536 0.007808718768253059 -0.006671477582647327 0.0008683963134498416 0.0002718659159022282 0 0 0 0
14038482 0.007814727134337502 -0.006624061142246113 0.0008726998542254781 0.00028561806805798846 0 0 0 0
14071428 0.007853079200524169 -0.006710230909503511 0.0008586152658964525 0.0002612984064193335 0 0 0 0
14104374 0.007772099420380927 -0.006736006513766407 0.0008756132722234534 0.00026514121799864766 0 0 0 0
14137320 0.007772614582036484 -0.006755287303808223 0.0008745542257113711 0.00024973164818241567 0 0 0 0
14170266 0.007818842842688505 -0.006734821700596385 0.0008768999225989071 0.0002651301538447538 0 0 0 0
14203212 0.0077818075923161934 -0.006736738535435848 0.000860121414231064 0.00026258185464587177 0 0 0 0
14236158 0.007863730415450293 -0.00680160218368756 0.0008550277630864268 0.0002615598538966845 0 0 0 0
14269104 0.00790745392686468 -0.006858514732064108 0.0008884694163283535 0.0002701298906579502 0 0 0 0
14302050 0.007938401191145097 -0.006849595675502084 0.0008962631467724116 0.00028771961736070333 0 0 0 0
14334996 0.007844745160387237 -0.006860260606414809 0.0008552988985128428 0.00027963434005339876 0 0 0 0
14367942 0.007831082836908518 -0.006900782353582636 0.0008739734239732455 0.00026732055997984075 0 0 0 0
14400888 0.007806958830935112 -0.0069167992002088455 0.0008688649306826273 0.00028442906162338933 0 0 0 0
14433834 0.007947525331598086 -0.006950128003065958 0.0008836425511017623 0.000275171913654645 0 0 0 0
14466780 0.007847014411865149 -0.006914599855914772 0.0008772311511038426 0.0002782017179034119 0 0 0 0
14499726 0.007912684039197012 -0.007018328080583654 0.0008834777790226478 0.0002856734732216565 0 0 0 0
14532672 0.007964893358307242 -0.007047016424356118 0.0008779414784313104 0.00028812461994722903 0 0 0 0
14565618 0.007958034007995204 -0.007022673074163177 0.0009101495770065492 0.0003048174702764208 0 0 0 0
14598564 0.007861581817716172 -0.006994237369467255 0.0008653710141932334 0.00029125039191157243 0 0 0 0
14631510 0.007914128532455102 -0.007078150709419947 0.0008797702686862534 0.00027220641690483513 0 0 0 0
14664456 0.007935646655837356 -0.007073628100212702 0.0008889338375624901 0.0002737943623769696 0 0 0 0
14697402 0.007915677618649364 -0.007073489141539245 0.000888064845589755 0.0002874183767056121 0 0 0 0
14730348 0.007875684405731331 -0.007090955921155875 0.0008827049212226826 0.0003086402508581502 0 0 0 0
14763294 0.007894467662856076 -0.007141724408507067 0.0008819374026038675 0.00026196372061783904 0 0 0 0
14796240 0.007850330334039635 -0.007143630190649882 0.0008714634145752634 0.0002839317456251405 0 0 0 0
14829186 0.007914011211850293 -0.007137510418624709 0.0008733028938328333 0.00027879055510690695 0 0 0 0
14862132 0.007900902694518567 -0.007210649497624936 0.0008699393682741667 0.0002783869803054371 0 0 0 0
14895078 0.007941410381223956 -0.007235485559273274 0.0008792852726721941 0.0002883618763567448 0 0 0 0
14928024 0.007915021746077248 -0.007236295900979636 0.0008823549099218504 0.0003048191317075411 0 0 0 0
14960970 0.007906359169865334 -0.007244816752917074 0.0008721109285687466 0.0003175670335377972 0 0 0 0
14993916 0.008027996791188189 -0.0073086810133454186 0.0008718687651968714 0.00032779706449908273 0 0 0 0
15026862 0.007957319010405977 -0.007300969584667685 0.0008658509238758909 0.000280651742308221 0 0 0 0
15059808 0.007955350075338522 -0.007312715290775737 0.0009083147866361141 0.000272562571688828 0 0 0 0
15092754 0.007911603980241303 -0.007335934664405974 0.0008696734672728682 0.00030585037343914585 0 0 0 0
15125700 0.007952231821975722 -0.007382283829112428 0.0008705597606606883 0.0002892481605388477 0 0 0 0
15158646 0.00797445465955815 -0.007295057952558971 0.000894240046458004 0.000298155371200336 0 0 0 0
15191592 0.007970565908255175 -0.0075011352386961695 0.0008973086357374108 0.000306257518453595 0 0 0 0
15224538 0.007927364039147707 -0.007438323439346406 0.0009027410433783523 0.00030727422305076374 0 0 0 0
15257484 0.007894855162616081 -0.007418377398407018 0.0008780993848366823 0.0002927249920104998 0 0 0 0
15290430 0.007981354301194319 -0.007538915826427278 0.0008997594945284072 0.00029511400359467395 0 0 0 0
15323376 0.008004717189610542 -0.007605592495829467 0.0008729962311393191 0.0003089973931320981 0 0 0 0
15356322 0.007921865635660498 -0.007463325649671651 0.0009032658733228162 0.00029978844185721753 0 0 0 0
15389268 0.007893540211453116 -0.007555967436888683 0.0008673435112894006 0.0003053191467945404 0 0 0 0
15422214 0.008009150390567155 -0.00750639900295213 0.0009113205679386272 0.0003000610197779947 0 0 0 0
15455160 0.007928108707476383 -0.007470928621483895 0.0008778247388390198 0.00030180589967706027 0 0 0 0
15488106 0.00808084410959302 -0.007543749360221887 0.0008839631487514667 0.0003209590364798894 0 0 0 0
15521052 0.007973392969781692 -0.007606293069608183 0.0008986783801431795 0.0002933217891617352 0 0 0 0
15553998 0.007984919023756342 -0.007625251376902092 0.0008927317332259226 0.000310619140505055 0 0 0 0
15586944 0.007969607006472092 -0.007645285935728296 0.0008673816393652109 0.0003240756096213374 0 0 0 0
15619890 0.008101681298227597 -0.0076569682579221785 0.0009069250765177619 0.0003219445291863969 0 0 0 0
15652836 0.007973511779635921 -0.0076714354883868335 0.0008803178187904962 0.00032968195955432344 0 0 0 0
15685782 0.007926756317566211 -0.007688212225399447 0.0008709053091364718 0.000290583999612786 0 0 0 0
15718728 0.008016252725344895 -0.007730108806035161 0.0008452132833989455 0.00034895453047311054 0 0 0 0
15751674 0.007987032453957836 -0.007737905892782245 0.0009256151345142071 0.00036414734307681684 0 0 0 0
15784620 0.00799574122792244 -0.007762699703168433 0.001135807167430639 0.00046553835631311724 0 0 0 0
15817566 0.008028254773075689 -0.007780334687793264 0.0007687371060613636 0.0002900576674974067 0 0 0 0
15850512 0.008077472215723788 -0.007785099588599315 0.0009610357596137335 0.0003443876921532989 0 0 0 0
15883458 0.008038042766248178 -0.007798396716674051 0.0008626138563963827 0.00025521601128437725 0 0 0 0
15916404 0.007970333706966695 -0.007832936688002385 0.0008299764835939191 0.00037791819489265354 0 0 0 0
15949350 0.008005811839897634 -0.007782095756080196 0.000850151690210183 0.0003391710837840471 0 0 0 0
15982296 0.008066139281487032 -0.007925200117427924 0.0008911545789664564 0.0003299287947965113 0 0 0 0
16015242 0.008046408400015437 -0.007874755224598197 0.0008724376353023221 0.0003408183656409805 0 0 0 0
16048188 0.008034948536845417 -0.007916506985039306 0.0009060197784607019 0.0003008702389010456 0 0 0 0
16081134 0.007993130960901543 -0.00788626693770933 0.0008794535803264763 0.00034310780126000143 0 0 0 0
16114080 0.008067646287874757 -0.00795552111070511 0.000901737123457208 0.00030014138264464267 0 0 0 0
16147026 0.008087026228348965 -0.008062788788730877 0.0009074044493616111 0.0003327769449135593 0 0 0 0
16179972 0.008056605734977292 -0.008025030173014968 0.0009186009454457154 0.00032931108235752053 0 0 0 0
16212918 0.007996164719213855 -0.008087067164434358 0.0008977047557395307 0.0003211299965181779 0 0 0 0
16245864 0.008089613755471195 -0.00809585031526817 0.0009004894433709496 0.0003156426391619484 0 0 0 0
16278810 0.00798679066526853 -0.008027561569754017 0.0008972881294235074 0.0003318972606925032 0 0 0 0
16311756 0.008052689210525045 -0.00813038280085053 0.0008803014235144632 0.0003317087296429814 0 0 0 0
16344702 0.008056062838375767 -0.00802223587888595 0.0009043204386899255 0.00035080559098089957 0 0 0 0
16377648 0.008061779288397698 -0.008252118282296893 0.0008870386935845593 0.00035377610323481353 0 0 0 0
16410594 0.008046326649980763 -0.008111442103580594 0.0008947480195447124 0.0003072958557894738 0 0 0 0
16443540 0.008124246690855794 -0.008193769857414593 0.0009233728085960115 0.0003231075495957957 0 0 0 0
16476486 0.008103939902408392 -0.008188354084952441 0.0009115937061980481 0.0003597060097061432 0 0 0 0
16509432 0.008054766236272317 -0.00821236970911329 0.0009089720733595256 0.00034155645038332815 0 0 0 0
16542378 0.008068120520214132 -0.008299573051261064 0.0008949147359749248 0.00036042120436119977 0 0 0 0
16575324 0.008033499611028226 -0.008217428164909958 0.0009081127225425112 0.00033484604924479853 0 0 0 0
16608270 0.00808875085871937 -0.00829995909144073 0.0008826889402045022 0.00037009815879328746 0 0 0 0
16641216 0.008145232399062606 -0.008279757682254892 0.0009065035539208996 0.0003239950849941854 0 0 0 0
16674162 0.008142946215754654 -0.008245302100965348 0.0009184927238092492 0.000345989244749345 0 0 0 0
16707108 0.008396518846383788 -0.00827645707826225 0.0008924322071929202 0.00033663398736940604 0 0 0 0
16740054 0.008157171338639484 -0.00835687994900388 0.0009334338873647835 0.00032236726663944544 0 0 0 0
16773000 0.007972827209004331 -0.008359088043598032 0.000948862141270091 0.00034159051685002585 0 0 0 0
16805946 0.008294377790604563 -0.008455511093546104 0.0009149254941272946 0.00033021811728384525 0 0 0 0
16838892 0.008026913030877924 -0.008335633076931139 0.0009159565961497972 0.00035136881580098353 0 0 0 0
16871838 0.008555074088363352 -0.008203983592458 0.0009074741507363786 0.00037540839415073975 0 0 0 0
16904784 0.00814724781590542 -0.008450483770658176 0.0009153506250804298 0.0003438643725552691 0 0 0 0
16937730 0.008264037474343774 -0.008292394862830753 0.0009226004318167471 0.00031725473775583255 0 0 0 0
16970676 0.008025577999643407 -0.008384709434766654 0.000921325292492167 0.000348216086740109 0 0 0 0
17003622 0.00791520371639959 -0.008709978344496808 0.0009180494457806499 0.00034798635736926715 0 0 0 0
17036568 0.008097154984529198 -0.008556962556397032 0.0009073577186994042 0.00035777116816761384 0 0 0 0
17069514 0.00802391987354207 -0.008534518382987251 0.0009273021702953751 0.00037432635558399434 0 0 0 0
17102460 0.008103852459765772 -0.008494381298999583 0.0009424322488596742 0.00035600079141605176 0 0 0 0
17135406 0.008120061416363896 -0.008641823797029807 0.0009078875259225921 0.000373968523064508 0 0 0 0
17168352 0.008028226179051605 -0.008560945708101399 0.0009184283821395007 0.00033515614671928573 0 0 0 0
17201298 0.008152827015010706 -0.008617039516066143 0.0009258354372665396 0.00032541811293498597 0 0 0 0
17234244 0.008110648262302242 -0.008712698854040765 0.0009262865006299122 0.00034002781621345356 0 0 0 0
17267190 0.008073368179239055 -0.008673611677416787 0.0008982988846125206 0.0003758417094174849 0 0 0 0
17300136 0.008051998381494422 -0.008714824578136724 0.0009334524902548183 0.00035244750482314545 0 0 0 0
17333082 0.00815460603311476 -0.008747663375963232 0.0009226333618247494 0.000345466804746531 0 0 0 0
17366028 0.008001807040400306 -0.008681968788910458 0.0009372580711578793 0.0003774966317763911 0 0 0 0
17398974 0.008036388986586611 -0.008468872261263808 0.0009627274881186678 0.0003429621772423264 0 0 0 0
17431920 0.008063876279941437 -0.008708164688062734 0.000892865101670971 0.0004078369969849449 0 0 0 0
17464866 0.008189067405007154 -0.008953333603092478 0.0008124118607730772 0.0004994944040158412 0 0 0 0
17497812 0.008158510460265087 -0.008713651633800426 0.000994374702334517 0.0004893532252590324 0 0 0 0
17530758 0.008510556032377686 -0.008865555894100267 0.0009519370585499616 0.00033867865806575887 0 0 0 0
17563704 0.008108331110484064 -0.008832994245543449 0.0010326896352223888 0.0004896348659544718 0 0 0 0
17596650 0.00809232238594246 -0.00895132656586833 0.0009880961508234656 0.0003585248001537169 0 0 0 0
17629596 0.00816128039965233 -0.009082967764659063 0.0008273888862879671 0.0004021008727017672 0 0 0 0
17662542 0.008206985526636512 -0.008692124727110747 0.0007874196999936033 0.0003330655789519641 0 0 0 0
17695488 0.008079656897298532 -0.008801624464836334 0.0009485704672685136 0.00039679861552067855 0 0 0 0
17728434 0.008109640381325734 -0.008985422004359023 0.0009163212761787935 0.0003749210197202506 0 0 0 0
17761380 0.008183082735851003 -0.008986995223736957 0.0009241034444410699 0.0003545346207004131 0 0 0 0
17794326 0.008100296167063476 -0.008920064807958015 0.0009259230504990982 0.0003615355445140994 0 0 0 0
17827272 0.008190873878184901 -0.009011607116499735 0.0009061153711248091 0.00039832763211063594 0 0 0 0
17860218 0.008115317487210052 -0.008994412538130606 0.0009297531285308272 0.0003688493858707644 0 0 0 0
17893164 0.008204004446645635 -0.009102283337325276 0.0009282613984045768 0.00038002887475053647 0 0 0 0
17926110 0.008091784918816795 -0.00911437871713367 0.0009523168276801225 0.0004034757734969328 0 0 0 0
17959056 0.008164315234514153 -0.009055682703524368 0.0009310096232311797 0.00039032395896253165 0 0 0 0
17992002 0.008194321370148765 -0.009187286901138503 0.0009576732201414518 0.00038329894600490604 0 0 0 0
18024948 0.008154093651763977 -0.009131035995070307 0.0009315677998096994 0.0003793447393127722 0 0 0 0
18057894 0.00822364783571231 -0.009242579979707656 0.0009395171861264659 0.00039643339584438366 0 0 0 0
18090840 0.008120806222245513 -0.008867764178451082 0.0009141346505875949 0.00035202589859426725 0 0 0 0
18123786 0.008142762163245278 -0.009270616164190943 0.0009173776154694462 0.00035573586658151307 0 0 0 0
18156732 0.008207702172726218 -0.009149860888464366 0.0009078373492929881 0.0003955434985064639 0 0 0 0
18189678 0.008392518295427183 -0.009322938206697466 0.000926560428990476 0.0003592048004139062 0 0 0 0
18222624 0.008247129133923429 -0.009391792043644424 0.0009281397448573564 0.00038366771311739963 0 0 0 0
18255570 0.00799881887912552 -0.009313571615338087 0.0009290581072548037 0.00038717157558208884 0 0 0 0
18288516 0.008427994169869384 -0.009223959468998314 0.0009128254092012379 0.0004114868648833965 0 0 0 0
18321462 0.00801895288709277 -0.009280476125039143 0.0009466489506976301 0.00042400873177901604 0 0 0 0
18354408 0.00815764189296629 -0.009364117983650411 0.0009649214723362663 0.0004114505574496286 0 0 0 0
18387354 0.00816003056000576 -0.009430142598758389 0.0009164214746401183 0.00038188945399710895 0 0 0 0
18420300 0.008336647867538542 -0.00910992817018091 0.0009233966226381578 0.0003885589170711031 0 0 0 0
18453246 0.008165679887709458 -0.009451702096134176 0.0009280754989648471 0.00037976637436577023 0 0 0 0
18486192 0.008107874091189193 -0.00948695605839753 0.0009280667241785994 0.0004076130772803371 0 0 0 0
18519138 0.00817922159863017 -0.009414924062557867 0.0009393727821770096 0.00041902103616477793 0 0 0 0
18552084 0.00819015294394371 -0.009439283344000926 0.0009494380510505006 0.00039487251543087116 0 0 0 0
18585030 0.008219644018570305 -0.00948328212400579 0.0009509645390650507 0.0003965049503229493 0 0 0 0
18617976 0.00814838563568117 -0.009465592822721988 0.0009510602549635955 0.00040987483874429473 0 0 0 0
18650922 0.00821201100505671 -0.009495044577726255 0.00093975883861157 0.00041377845292506487 0 0 0 0
18683868 0.008216253448377096 -0.009572651450576654 0.0009508644270490111 0.00037402121616492856 0 0 0 0
18716814 0.008215656824178493 -0.009534500378427077 0.0009388954650665554 0.0003915516051390953 0 0 0 0
18749760 0.00810359698195824 -0.009582766091696511 0.0009258139892214086 0.00041996928191951526 0 0 0 0
18782706 0.008283831386290571 -0.009572973007448048 0.0009607723981103592 0.00042104777496327473 0 0 0 0
18815652 0.008189704105268461 -0.009602864432962203 0.0009233921895621448 0.0003975089742168349 0 0 0 0
18848598 0.008216965500555876 -0.009687579568994291 0.0008987052296701982 0.00040980786007328314 0 0 0 0
18881544 0.00827643408782565 -0.009667814146731462 0.0009349233673757987 0.00039791060478506466 0 0 0 0
18914490 0.00817035923214604 -0.009710107790625458 0.0009306099221631117 0.00042432345993598 0 0 0 0
18947436 0.00828022350323683 -0.00974693690574377 0.0009288141371540932 0.0004160958960424676 0 0 0 0
18980382 0.008260663712564566 -0.009755598104459206 0.0009215915190138442 0.0003910711555340508 0 0 0 0
19013328 0.008263720302081235 -0.009735435914964449 0.0009280731424011068 0.00041331359728180535 0 0 0 0
19046274 0.008230589924308048 -0.00975699072115852 0.0009408752296953582 0.00041218527884941727 0 0 0 0
19079220 0.008197143354837327 -0.00977559406615031 0.0009252745157379858 0.0004332996420344173 0 0 0 0
19112166 0.008227404855752823 -0.009854795964029266 0.0009379896811781643 0.000415392249696403 0 0 0 0
19145112 0.008216984378112366 -0.009843444878527433 0.0009211546394088856 0.00041266700151899605 0 0 0 0
19178058 0.00820114681358058 -0.009867563861823796 0.0009443458064011252 0.00041919395602551493 0 0 0 0
19211004 0.00819674379964627 -0.009873427406648004 0.0009342964597652812 0.00041467058103839894 0 0 0 0
19243950 0.00822850783287973 -0.009940503169119123 0.0009505189438344718 0.0004270905342204118 0 0 0 0
19276896 0.008188844786779299 -0.00986795102139959 0.0009580141069516285 0.00040276931662973164 0 0 0 0
19309842 0.008214312860434468 -0.009916595585312825 0.0009196927516010251 0.00040281207038519014 0 0 0 0
19342788 0.008297839828006866 -0.009868701460591751 0.0009637140596325233 0.0004002120690845624 0 0 0 0
19375734 0.008189126029769714 -0.00990834396180469 0.0009604591706161904 0.00041507936255154857 0 0 0 0
19408680 0.008264034641349694 -0.009994672602558565 0.0009492027926943699 0.0004336919089511106 0 0 0 0
19441626 0.0081664094708606 -0.010025271694314221 0.0009654125018508415 0.00043570170083067895 0 0 0 0
19474572 0.008228593430388101 -0.010007801932297916 0.000951885853203802 0.00041144821227371707 0 0 0 0
19507518 0.008206296660275695 -0.010003351354327812 0.0009443714854191791 0.0004534541223432985 0 0 0 0
19540464 0.008224968879787967 -0.010082989861421029 0.000969991363633365 0.00042201694013831235 0 0 0 0
19573410 0.008226437145730223 -0.009993790267353692 0.0009305212190009432 0.00042525019241370114 0 0 0 0
19606356 0.008247042411877738 -0.010131418676517538 0.0009663821471332154 0.00042009590210020844 0 0 0 0
19639302 0.008249312964242894 -0.010148410857516579 0.000952729128847437 0.0004179162754863378 0 0 0 0
19672248 0.00821144009018942 -0.010129386698762071 0.000951694417755202 0.00042822785069942566 0 0 0 0
19705194 0.008241294896417157 -0.010147107307775502 0.0009421046106658249 0.0004290523338378871 0 0 0 0
19738140 0.008199036357364955 -0.010247634474853249 0.0009203456439729743 0.0004140012500809941 0 0 0 0
19771086 0.008346527657711577 -0.010180468232964654 0.000965808587842949 0.00041882185904869713 0 0 0 0
19804032 0.008223735597927965 -0.010253673746967125 0.0009521406397006605 0.00042858248556491705 0 0 0 0
19836978 0.008185865383498523 -0.010273644055506218 0.0009527222486035 0.0004110872030896084 0 0 0 0
19869924 0.008242246179890991 -0.010242311166778179 0.000961380661547072 0.0003833999461585978 0 0 0 0
19902870 0.008307530469271917 -0.010233596848940825 0.0009610090035528126 0.00044765786306182645 0 0 0 0
19935816 0.008257830632587313 -0.010306370483907246 0.0009387174700259283 0.00042273326354698773 0 0 0 0
19968762 0.008281839187005697 -0.010325240350117625 0.0009411757247871092 0.00043545801477480747 0 0 0 0
20001708 0.008226744783664171 -0.010312153911195252 0.0009773296619059397 0.0004304338451215016 0 0 0 0
20034654 0.008267810163285672 -0.010276922215216783 0.0009590620753316294 0.0003983490377204021 0 0 0 0
20067600 0.00826866420220111 -0.010378769540992731 0.0009405123684011771 0.0004191077635475271 0 0 0 0
20100546 0.00821859044137667 -0.010310436478384826 0.0009753992456582087 0.000435964227525737 0 0 0 0
20133492 0.00824374347863288 -0.010409516612451285 0.0009455631492535546 0.00042802144840298174 0 0 0 0
20166438 0.008337770887742417 -0.010484774669127598 0.0009749599501646987 0.00044346334043507076 0 0 0 0
20199384 0.008357156282732982 -0.010402960643982762 0.0009541804553889132 0.00045079439366562453 0 0 0 0
20232330 0.008302113216547573 -0.01042041493639416 0.0009549267770909232 0.00046002594291990267 0 0 0 0
20265276 0.008270695143021513 -0.01041566091088064 0.0009650131404143744 0.0004424928275019424 0 0 0 0
20298222 0.008270576607797786 -0.010607428635447643 0.0009715702086714039 0.00041671591419937545 0 0 0 0
20331168 0.008305607243444885 -0.010501060449173616 0.0009647947185126254 0.0004065107638466466 0 0 0 0
20364114 0.008284628990901695 -0.010487022120256585 0.0009615633177918968 0.00043384453781701273 0 0 0 0
20397060 0.008228804053428587 -0.010562128354479646 0.0009430824040991292 0.00044706455074377914 0 0 0 0
20430006 0.008238822423144833 -0.010599145304623567 0.0009795632488595496 0.00042784820258383695 0 0 0 0
20462952 0.008292011275498357 -0.010634894349327724 0.0009579771916099762 0.0004499748451735366 0 0 0 0
20495898 0.008248340972045404 -0.010647757176501016 0.0009334541504297761 0.00046040096296284555 0 0 0 0
20528844 0.008279564010882449 -0.0106247528798445 0.0009521793463088704 0.0004303640214556199 0 0 0 0
20561790 0.008303390392728259 -0.01058203425498221 0.0009626207530188238 0.00044772966425963895 0 0 0 0
20594736 0.008233948531449495 -0.010695402251918626 0.000964884609793277 0.00046696972471935074 0 0 0 0
20627682 0.008303054080669984 -0.010669886559423632 0.000949755298190443 0.00044478489312777154 0 0 0 0
20660628 0.008288410931692082 -0.010740619071147211 0.0009604689768228447 0.00045234619078867285 0 0 0 0
20693574 0.008353244825220584 -0.01069207350694998 0.0009667222586036396 0.00045002514368145806 0 0 0 0
20726520 0.008283833747780786 -0.010760831427573746 0.0009710815694212989 0.00046101660090827466 0 0 0 0
20759466 0.008372707904723607 -0.010764102124069504 0.0009471832754973193 0.00047044615567991494 0 0 0 0
20792412 0.008319799307105377 -0.010747472460851545 0.0009807211951177893 0.0004433614148065885 0 0 0 0
20825358 0.008282701378470366 -0.010772800494778896 0.000944552059025788 0.0004586469498323707 0 0 0 0
20858304 0.008274116615082011 -0.010786036640635184 0.0009953845630127714 0.0004556665456480961 0 0 0 0
20891250 0.008267799518227368 -0.010808372075219879 0.0009647324422016185 0.0004477706548222215 0 0 0 0
20924196 0.008369202843274725 -0.010899696111059936 0.0009664002616827865 0.00046910931004404187 0 0 0 0
20957142 0.00832594291947953 -0.010812821609428067 0.0009713796938039013 0.0004472798205354431 0 0 0 0
20990088 0.008344690308415599 -0.010909105484756518 0.0009752537273448064 0.0004525756924375677 0 0 0 0
21023034 0.008325015112213915 -0.010970189131725944 0.0009963068980399668 0.0004256040980077569 0 0 0 0
21055980 0.008246605991374256 -0.010967470890141436 0.0009409052268281899 0.0004598567294749538 0 0 0 0
21088926 0.008370770060436261 -0.01098380029099014 0.001007169089045865 0.0004921049999302852 0 0 0 0
21121872 0.008326703385661799 -0.010981209848756522 0.0009959351928521924 0.0004927782727908387 0 0 0 0
21154818 0.008345063779518203 -0.010914477900672327 0.0010164750017690523 0.0004520209712979176 0 0 0 0
21187764 0.008415415422400438 -0.010962761300445148 0.0009900212659029277 0.00047612128565345687 0 0 0 0
21220710 0.008265372326190599 -0.011023510328738665 0.0009468575451134459 0.00047148292916396773 0 0 0 0
21253656 0.008189688770212228 -0.01110462232741834 0.0009551308347561814 0.0004659873069338805 0 0 0 0
21286602 0.008270074629225169 -0.011023469011257314 0.000960850402325803 0.0004760851468801808 0 0 0 0
21319548 0.008293098485115098 -0.011147626659823245 0.0009672808858682805 0.00046061471211820943 0 0 0 0
21352494 0.008370397989477077 -0.011127563179261247 0.0009690945782987106 0.0004631934239594415 0 0 0 0
21385440 0.008384736389271794 -0.011105122342872968 0.0009767490051786907 0.0004673445597223662 0 0 0 0
21418386 0.008295202061392911 -0.011138679283432897 0.0009728558539536338 0.0004773872871646329 0 0 0 0
21451332 0.008304563475796986 -0.011179028231067908 0.0009766510191069266 0.0004621304769063139 0 0 0 0
21484278 0.008283349067405125 -0.011176534765679457 0.0009849567790258162 0.0004704195509475061 0 0 0 0
21517224 0.008285655829453162 -0.01122098319418567 0.0009731933023892264 0.00045156900765781636 0 0 0 0
21550170 0.00834534612991017 -0.011276915061373561 0.0009997583501914415 0.0004956908466682264 0 0 0 0
21583116 0.008365844800837888 -0.011285899362533864 0.000985824456083641 0.0004697221348815195 0 0 0 0
21616062 0.008412943331205187 -0.011280505570280375 0.0009816049365355037 0.000445929596674611 0 0 0 0
21649008 0.008287534863254654 -0.011317511059105327 0.0009920844180870381 0.0004681538184243457 0 0 0 0
21681954 0.008247525719809124 -0.011243645381042706 0.0009721201205194345 0.0004749952173476308 0 0 0 0
21714900 0.008321740429402504 -0.011296112937655351 0.0009966588369076299 0.0004826023000003649 0 0 0 0
21747846 0.008409891842924889 -0.011356258354328035 0.0009941215943195393 0.00047276291040429324 0 0 0 0
21780792 0.008348027545202629 -0.011345164760650754 0.0009810198364694292 0.0004797299111306934 0 0 0 0
21813738 0.008278797568285597 -0.011364136167748671 0.0009726295400808153 0.0004992283192075787 0 0 0 0
21846684 0.008296065729852857 -0.011439887073739729 0.0009954738924150325 0.0004923186495479204 0 0 0 0
21879630 0.008330985918670188 -0.011411447787594948 0.0009955260192565712 0.0005092481978804626 0 0 0 0
21912576 0.008319809310014503 -0.011475271599733118 0.0009897280681530828 0.000481566822429407 0 0 0 0
21945522 0.008300528467559609 -0.01151163601459498 0.0009920477619126502 0.00046903733094062826 0 0 0 0
21978468 0.008315096140509123 -0.011434616829132785 0.0009875601341781592 0.0004825117255233316 0 0 0 0
22011414 0.008304920079529297 -0.011486800400928884 0.0009661630425111674 0.00047744514283493605 0 0 0 0
22044360 0.008354794289271933 -0.01154459135637458 0.0010050389753054592 0.0005122638056889537 0 0 0 0
22077306 0.008301770480781677 -0.011559227533587683 0.000988694814784957 0.00048256298730149524 0 0 0 0
22110252 0.008384781116167483 -0.011588123033772236 0.0009739518139533252 0.0004938473373882066 0 0 0 0
22143198 0.008344633908551922 -0.0115568226877212 0.000984602004859131 0.0004791036980020269 0 0 0 0
22176144 0.008319616846480624 -0.011600119894613474 0.000992597458877722 0.0004842892366490924 0 0 0 0
22209090 0.008298670024215063 -0.011608025961303585 0.0009817470095355263 0.0004835051818012446 0 0 0 0
22242036 0.008276389688929594 -0.01165019372134138 0.0009976041319080336 0.0005025964215674394 0 0 0 0
22274982 0.008286399683178415 -0.011640463182805262 0.0009938373216287302 0.0004883023355890508 0 0 0 0
22307928 0.008356967038308858 -0.011719155887691068 0.0010150717261373555 0.0004887727254537361 0 0 0 0
22340874 0.008317532635090445 -0.011691875375904494 0.0009913973940457285 0.0004950238392592158 0 0 0 0
22373820 0.00833865977506069 -0.011712543135863434 0.0009975604203029671 0.00047383483459688495 0 0 0 0
22406766 0.008314005575621786 -0.011647246420035456 0.0009945603383983489 0.000501345379293398 0 0 0 0
22439712 0.008328373538938234 -0.011750078903492727 0.0009892454550952238 0.0004727888971212767 0 0 0 0
22472658 0.008355172027182431 -0.01173706812861925 0.0009913462075546958 0.0004907858448065096 0 0 0 0
22505604 0.008350226309781937 -0.011762304191944057 0.0009769754804671695 0.0004923800452801106 0 0 0 0
22538550 0.008460919665154625 -0.011902509886880283 0.0009959697229748336 0.0005129524981920759 0 0 0 0
22571496 0.008430733883524907 -0.011836010526706093 0.0010075014737969397 0.0004982150700839442 0 0 0 0
22604442 0.00841943068768806 -0.011768906576041792 0.000998279517547436 0.0004993177732318111 0 0 0 0
22637388 0.008335282421673381 -0.011812355421287342 0.0010166676593318757 0.0005047108298641245 0 0 0 0
22670334 0.008310013230361428 -0.01191092514657605 0.0010122725694851145 0.0004904346644585677 0 0 0 0
22703280 0.00834917517019963 -0.011864670749963094 0.0009776155412942733 0.0005111746183721534 0 0 0 0
22736226 0.008387405999171035 -0.01191959224649606 0.0010023058341721658 0.000485096886612499 0 0 0 0
22769172 0.008458909533540013 -0.011995979862706322 0.000989794424319829 0.0005119072158684544 0 0 0 0
22802118 0.008379113012170864 -0.011847099753275041 0.0010239596545253242 0.00048141472077840544 0 0 0 0
22835064 0.008365326765088886 -0.011971851783968309 0.0010149567845378976 0.000497584774001177 0 0 0 0
22868010 0.008341695099304823 -0.011990223709515933 0.000987942704008393 0.0004882774845545272 0 0 0 0
22900956 0.00836852615107007 -0.012049970493389427 0.0009834380072959415 0.000505401737214906 0 0 0 0
22933902 0.008422466298093227 -0.012045954961766888 0.001001855687642832 0.000536607741063115 0 0 0 0
22966848 0.008382658131872025 -0.012080911560463821 0.0010181405829877397 0.0005254546670636201 0 0 0 0
22999794 0.008320377942521993 -0.0120862763526443 0.0010072810938431967 0.0005257370756638526 0 0 0 0
23032740 0.008251376690654788 -0.012077283665049635 0.000999847622329437 0.0005075041645757358 0 0 0 0
23065686 0.008414148501332298 -0.012136819820110197 0.0010416319549493432 0.0005124307482255567 0 0 0 0
23098632 0.00838732270416191 -0.012132140059249171 0.0009933916524249669 0.000519127159226987 0 0 0 0
23131578 0.008432092974190763 -0.01218348780122553 0.001022790133918526 0.0005153855623499904 0 0 0 0
23164524 0.008391144881626017 -0.01224215415761174 0.0010286295866715862 0.0005209203807113482 0 0 0 0
23197470 0.008394841417160348 -0.012141964853817359 0.0010319627412750535 0.0005020439438497684 0 0 0 0
23230416 0.008432116733467427 -0.012177337383800606 0.0009840483200074463 0.0005121449061788325 0 0 0 0
23263362 0.008342672845776205 -0.012248311069680752 0.0010135156687646025 0.0004930883026107014 0 0 0 0
23296308 0.008388953139328465 -0.01222863493399383 0.00100942883708105 0.0005296432255094669 0 0 0 0
23329254 0.008428259689779618 -0.012367166613223625 0.0009831456187473528 0.0005374057981923601 0 0 0 0
23362200 0.008365878771973742 -0.012298674733185896 0.000987649834827214 0.0005284210964778433 0 0 0 0
23395146 0.008416773457903667 -0.012309197090796302 0.0010128264382049325 0.0005342180955163572 0 0 0 0
23428092 0.00845650034284531 -0.012306836245800458 0.0010009875154123758 0.000542822950684484 0 0 0 0
23461038 0.008420449310663668 -0.012297070909113148 0.0010128128703818162 0.0005144516526995301 0 0 0 0
23493984 0.008354371489338066 -0.012370147897264249 0.001024946791820008 0.0004845189422907371 0 0 0 0
23526930 0.008475580511684426 -0.01238054011009756 0.0009889743901977054 0.0005288913110232427 0 0 0 0
23559876 0.008479984676942024 -0.01239355834713916 0.0010084367964393896 0.0005504089347832717 0 0 0 0
23592822 0.00831340675048763 -0.01234936889403956 0.0010017558392512891 0.000504838748822578 0 0 0 0
23625768 0.008322945017753151 -0.012361244152601484 0.0010155205535990065 0.0005348649267110563 0 0 0 0
23658714 0.008292093292301279 -0.012472288167690356 0.0010241707549434808 0.000551668865078374 0 0 0 0
23691660 0.00840362058009574 -0.01252943083580117 0.0010005151823421713 0.0005284576685993559 0 0 0 0
23724606 0.00846587809369074 -0.012600835645102844 0.0010160336095209588 0.0005155296139877087 0 0 0 0
23757552 0.00843479100388243 -0.012547338206066261 0.0010066564430518013 0.0005181621275413915 0 0 0 0
23790498 0.008404699731516922 -0.012437679946676607 0.0010021474375411297 0.0005152647829486616 0 0 0 0
23823444 0.008379772977373969 -0.012478915349057164 0.0010181038822925062 0.0005270442710154712 0 0 0 0
23856390 0.008451210768402355 -0.01251533956363294 0.0010237065346262546 0.0005486494230146448 0 0 0 0
23889336 0.008428922056673713 -0.012624270681428778 0.0010198335404935249 0.000534923720737669 0 0 0 0
23922282 0.008402328884776848 -0.01261936283594709 0.0010148040206131382 0.0005165543632980891 0 0 0 0
23955228 0.00844140329689039 -0.01259957753445811 0.0010447422103002277 0.0005491727657015304 0 0 0 0
23988174 0.008416710363474442 -0.012618230486914283 0.001016962493008789 0.0005432162039348579 0 0 0 0
24021120 0.008443545566799965 -0.01262953559181083 0.001035017911393083 0.0004990541956897246 0 0 0 0
24054066 0.008455596774201074 -0.012704749033704653 0.0010563374718096327 0.0004990211461997635 0 0 0 0
24087012 0.00847785219573267 -0.012707430347250751 0.0010265689715329477 0.0005494027379313869 0 0 0 0
24119958 0.008380185356766129 -0.012616821773834493 0.0010167498593778418 0.0005171420201660857 0 0 0 0
24152904 0.00842643670240493 -0.012703883255590532 0.0010359246189253386 0.000535002329969452 0 0 0 0
24185850 0.008355012805267454 -0.012772082342531592 0.0010038703144970196 0.0005310642652487086 0 0 0 0
24218796 0.008393828359353858 -0.012735880046064752 0.0010414540599058485 0.0005207282588838088 0 0 0 0
24251742 0.008397242438694205 -0.01289362542736126 0.001033099908503753 0.0005407025997808452 0 0 0 0
24284688 0.008483195782594625 -0.012791364665792778 0.0010142631686152603 0.0005442660717898756 0 0 0 0
24317634 0.00839798133974428 -0.012877202768149123 0.0010502337386291423 0.0005364225700589843 0 0 0 0
24350580 0.008429000296981475 -0.01285886278739418 0.0010497252523245103 0.0005645369698302614 0 0 0 0
24383526 0.008387841773875054 -0.012828476677824321 0.001029546400125047 0.0005422832977515155 0 0 0 0
24416472 0.008437142033566034 -0.012909947479577286 0.0010335995715878667 0.0005483198871860116 0 0 0 0
24449418 0.008447642985482551 -0.012987297874576238 0.0010385249037709557 0.0005607833165153577 0 0 0 0
24482364 0.00846723296999361 -0.012927799062119489 0.0010175283520352154 0.0005266180406539859 0 0 0 0
24515310 0.008386829108986795 -0.012975012537334312 0.0010402525114672683 0.0005657590030570057 0 0 0 0
24548256 0.008377359090835127 -0.012916711471732135 0.0010446973402102502 0.0005366757448883469 0 0 0 0
24581202 0.008446142236450647 -0.013025188461713627 0.0010418512784423084 0.0005667389119920679 0 0 0 0
24614148 0.008457946607812418 -0.013060931705239748 0.0010314115630971135 0.0005535256296345973 0 0 0 0
24647094 0.008474342069269492 -0.012952017952333209 0.001039464837387743 0.0005613614127317893 0 0 0 0
24680040 0.008525165443615477 -0.013063405802069576 0.0010121130225211154 0.0005507858022338107 0 0 0 0
24712986 0.008523733812854643 -0.012966506619940206 0.0010532049889322174 0.0005580070200708679 0 0 0 0
24745932 0.008522000629062536 -0.012987842078676617 0.0010542443135878573 0.0005529464634316619 0 0 0 0
24778878 0.008370066500218208 -0.013069993649547518 0.001040148204425388 0.000555606506989325 0 0 0 0
24811824 0.008335404641846919 -0.013096118739212797 0.0010536101439741904 0.000559178042190403 0 0 0 0
24844770 0.008473915598502411 -0.013104980536306973 0.0010242716853939432 0.0005491423976649146 0 0 0 0
24877716 0.008504594748795198 -0.013208451297781762 0.0010319394855294235 0.0005498577372911253 0 0 0 0
24910662 0.0085108936407345 -0.013077060290822793 0.0010262702212182773 0.0005616668518757219 0 0 0 0
24943608 0.008487159051819139 -0.013091204099599034 0.0010329840204342151 0.0005499156229978155 0 0 0 0
24976554 0.008408453722459765 -0.013183277114173853 0.001053089789384801 0.0005513019529875785 0 0 0 0
25009500 0.008444832678308064 -0.013199868366418819 0.0010298523989437792 0.0005752289940566268 0 0 0 0
25042446 0.008394878867195416 -0.01318438461171295 0.0010458615780578107 0.0005412105646423294 0 0 0 0
25075392 0.008498975206892967 -0.013208718822464657 0.0010513531577505683 0.0005838236107436203 0 0 0 0
25108338 0.008486733771537698 -0.013288212706982013 0.0010569863695089128 0.0005565274216202316 0 0 0 0
25141284 0.00851046493870785 -0.013259428100642299 0.001058155017898265 0.0005607430792216716 0 0 0 0
25174230 0.008393695309697122 -0.013301462433248968 0.001057133746011451 0.0005503334541014737 0 0 0 0
25207176 0.008507793890260424 -0.01335804650505789 0.0010555447047493893 0.0005543785094708927 0 0 0 0
25240122 0.008454656274703614 -0.01329422691565891 0.0010449618045118446 0.000574816772212188 0 0 0 0
25273068 0.008476519171652916 -0.013429139983235094 0.0010628482140943665 0.0005683479112314292 0 0 0 0
25306014 0.008458954616403336 -0.013405803853254883 0.001027485447090112 0.0005776394920639539 0 0 0 0
25338960 0.008494989383103458 -0.013347102866500708 0.001058459184623092 0.0005912511016324936 0 0 0 0
25371906 0.008450978458021279 -0.013516919737772177 0.001058491095629061 0.0005631578419412832 0 0 0 0
25404852 0.008462528750897737 -0.01343312907915913 0.0010612119072772091 0.0005505683286175184 0 0 0 0
25437798 0.008556957935692588 -0.01352761828756132 0.0010517584380254708 0.0005487903565995501 0 0 0 0
25470744 0.008458377424635526 -0.013504955609228967 0.0010513337122449885 0.0005684051732071333 0 0 0 0
25503690 0.00846384294065572 -0.01353175617729259 0.0010439541656458717 0.0006084077631146867 0 0 0 0
25536636 0.008457238002199084 -0.0134927213185899 0.0010673450455444045 0.0005699927370542415 0 0 0 0
25569582 0.008449260064942824 -0.013516224239345762 0.0010450637712118274 0.0005880514157467863 0 0 0 0
25602528 0.008447047281886035 -0.013583253029780312 0.0010646874216096581 0.0005696573816406916 0 0 0 0
25635474 0.008395389558945882 -0.01365786028678814 0.0010680607004983867 0.0005766674674439794 0 0 0 0
25668420 0.00846219283426951 -0.01365845546936513 0.0010597798211279914 0.0005748771208768934 0 0 0 0
25701366 0.00844385452389845 -0.013600019140351426 0.0010586922546504177 0.0005734522411849574 0 0 0 0
25734312 0.008481932570476115 -0.013616573937380428 0.0010977684154663675 0.0005636905175094489 0 0 0 0
25767258 0.008447158962728843 -0.013615133426480769 0.001056486035301149 0.0005832071730669671 0 0 0 0
25800204 0.008483917762113161 -0.013704392981133956 0.001041592029487071 0.0005763233198266298 0 0 0 0
25833150 0.008444142876897575 -0.01372027271664655 0.0010680164427249816 0.0005710126796403239 0 0 0 0
25866096 0.008469372243933241 -0.013730077729929924 0.0010815816843739194 0.000584056995642696 0 0 0 0
25899042 0.00858218594526959 -0.013781743242583041 0.0010531839744531628 0.0005643311205853639 0 0 0 0
25931988 0.008395360601225652 -0.01374502292244535 0.0010588847462955017 0.0005838399653101667 0 0 0 0
25964934 0.008543600922992655 -0.013728404722958283 0.001063828243237522 0.0005962183576946873 0 0 0 0
25997880 0.008476636920171442 -0.013701934121751008 0.0010643035941540818 0.0006123219517321043 0 0 0 0
26030826 0.00847939994170774 -0.013768729048397809 0.0010439413496351432 0.0005786250554271548 0 0 0 0
26063772 0.008502166944646183 -0.013856925896860042 0.0010496294201396414 0.0005703934850550478 0 0 0 0
26096718 0.008457117854851447 -0.013864473524828105 0.0010562072493359223 0.0005731172634963554 0 0 0 0
26129664 0.00857237840210287 -0.01391682567420203 0.0010540958581908917 0.0005822736110694149 0 0 0 0
26162610 0.008457195717739662 -0.013940458302213164 0.0010890983807954947 0.0005877867694969211 0 0 0 0
26195556 0.008528792333745776 -0.013936272473021991 0.001071795216531356 0.0005703631660523839 0 0 0 0
26228502 0.008458141578443885 -0.013926133567057457 0.001034926488063223 0.0005859754794008568 0 0 0 0
26261448 0.008480188620933918 -0.01388797770419421 0.0010638306699455166 0.0005833349203885019 0 0 0 0
26294394 0.008489378357754698 -0.013911153623813665 0.0010718113937703384 0.0005861292866366228 0 0 0 0
26327340 0.008447590908633297 -0.013909398152652136 0.001055515240123222 0.000587763083769972 0 0 0 0
26360286 0.008455319478141718 -0.01404397279609587 0.0010699243541666252 0.0005938155740677418 0 0 0 0
26393232 0.008502542841991804 -0.013951814403371319 0.0011122307350568982 0.0005865905618644382 0 0 0 0
26426178 0.008538947142076285 -0.014046056647665088 0.0010856938033389349 0.000604643983477569 0 0 0 0
26459124 0.008464435523233034 -0.0141650737685146 0.0010808812862155668 0.00060491141955465 0 0 0 0
26492070 0.008578289817941058 -0.013983603331020375 0.0011041721397228154 0.0006046009877010055 0 0 0 0
26525016 0.00850467988666759 -0.014117841638123305 0.0010681459219063832 0.0005996911160161834 0 0 0 0
26557962 0.008549325211617666 -0.014103143737258083 0.0010805199608887167 0.000592810599093774 0 0 0 0
26590908 0.008525673921947644 -0.014125530489031686 0.0010843361195526343 0.0005743634861013386 0 0 0 0
26623854 0.008429086694834172 -0.014148966716039218 0.0010865536908832075 0.0006199266617035052 0 0 0 0
26656800 0.008469366930689363 -0.014154365772043364 0.0011013929804824575 0.0005987140544956472 0 0 0 0
26689746 0.008609612714024514 -0.01425073322643905 0.0010739809010390667 0.000580838328869633 0 0 0 0
26722692 0.008555048041268803 -0.014201161767369953 0.0010830259358236142 0.0006091771663944128 0 0 0 0
26755638 0.008571263381616909 -0.014135995612392635 0.00105587629278748 0.0005906415602035008 0 0 0 0
26788584 0.008488956602593285 -0.014209264566960119 0.001065138165896549 0.0006124486596498812 0 0 0 0
26821530 0.008440999665258322 -0.014235626706720798 0.0010900830216230798 0.0006124860110638198 0 0 0 0
26854476 0.008468194732261725 -0.014346950289062061 0.0010731442614305502 0.0006092383612787768 0 0 0 0
26887422 0.008572606365316109 -0.014204683119918113 0.0010550854030704725 0.0006266754036581009 0 0 0 0
26920368 0.008532836513657294 -0.014264928513879052 0.0010813372269742399 0.0006028908391557322 0 0 0 0
26953314 0.008540692493078398 -0.01430092607226196 0.0010740941954883528 0.000593738957373237 0 0 0 0
26986260 0.008593528655921726 -0.014389080341502013 0.001077340681743991 0.0005922477544175392 0 0 0 0
27019206 0.008473380468943083 -0.014278129558759789 0.0010856410625243952 0.0006110332702433895 0 0 0 0
27052152 0.008513349484982256 -0.014320288333534489 0.001066635340743177 0.0005943228524196208 0 0 0 0
27085098 0.008413647614564205 -0.014429487965395274 0.001077621339023128 0.0005953890425461783 0 0 0 0
27118044 0.008464344812512396 -0.014386242062200176 0.0011110735674756157 0.0006122298363263054 0 0 0 0
27150990 0.00857264901745059 -0.014479264184238082 0.0010754633239973446 0.0006466203921965133 0 0 0 0
27183936 0.008439495632451678 -0.014461951511731196 0.0011119448855326352 0.0006105008597842784 0 0 0 0
27216882 0.008694577162198621 -0.014506161336726765 0.0010768887413740858 0.0006264313609114798 0 0 0 0
27249828 0.008490924703481133 -0.014445082423773174 0.0010852093787647246 0.0006395456747468933 0 0 0 0
27282774 0.00858581008304606 -0.014566477052336317 0.0010701347174219894 0.0006168651212407341 0 0 0 0
27315720 0.008384591692294354 -0.014593007695857266 0.0010853971975641771 0.0006150013213549711 0 0 0 0
27348666 0.008493498309103086 -0.014518524500662235 0.001103876115973225 0.0006004957545216225 0 0 0 0
27381612 0.008494660901190894 -0.014655063170328877 0.001104517056278922 0.0006309640554587128 0 0 0 0
27414558 0.00856359625360081 -0.014536249028654719 0.0010827627423401387 0.0006107570329483293 0 0 0 0
27447504 0.008595105049502038 -0.014620735767874834 0.001078510757011065 0.0006341334237789674 0 0 0 0
27480450 0.00843460268546193 -0.014560253730460649 0.0010757740809877836 0.0006341386560192912 0 0 0 0
27513396 0.00858037765680078 -0.014622946970090821 0.0010748984224080774 0.000605330553654194 0 0 0 0
27546342 0.008551037173855986 -0.014616063260165518 0.001108344097323528 0.0006230394871909484 0 0 0 0
27579288 0.008524149281780852 -0.014648703147414309 0.001073229233086216 0.0006310115214807228 0 0 0 0
27612234 0.008496131203062737 -0.014700695528543202 0.0010985948919523412 0.0006245285645809858 0 0 0 0
27645180 0.008604383645279785 -0.014636263751482022 0.0011152575156254418 0.0006615650883976756 0 0 0 0
27678126 0.008496313961474718 -0.01474162648363098 0.0011081875641613048 0.0006324234862015926 0 0 0 0
27711072 0.008592518790524056 -0.014696497195005093 0.0011016182422405115 0.0006438793133033372 0 0 0 0
27744018 0.008560695367271493 -0.014796786724461016 0.0010988757026840264 0.0006334648310542607 0 0 0 0
27776964 0.008591276514079349 -0.014783226753567417 0.0010855330217116976 0.0006286997381629137 0 0 0 0
27809910 0.008519126701735954 -0.014833704792169954 0.0011081842392206423 0.0006313733429562608 0 0 0 0
27842856 0.008526173064570404 -0.014747435866812287 0.0011020955303957598 0.0006275896028231695 0 0 0 0
27875802 0.008623831454690718 -0.014795982904040843 0.0010819098220419682 0.0006197003371971695 0 0 0 0
27908748 0.008509830989532808 -0.014866036325130273 0.0010967714905601568 0.0006366859072647873 0 0 0 0
27941694 0.008581507703779386 -0.014821016548620369 0.0011048837665505458 0.0006375954108269655 0 0 0 0
27974640 0.00846438692006657 -0.014885116503557392 0.0010947377518702277 0.0006261939723142906 0 0 0 0
28007586 0.008544895125312625 -0.014887135468435378 0.001093868740603444 0.0006092494497940618 0 0 0 0
28040532 0.008616674160236383 -0.014929733333200105 0.001085073000192977 0.0006236667914043268 0 0 0 0
28073478 0.008579807482218755 -0.014984899458239297 0.0010981312394109642 0.0006271137073022296 0 0 0 0
28106424 0.008568952372111388 -0.014911517044744282 0.0011189030104300469 0.0006193920887124513 0 0 0 0
28139370 0.008554928425553377 -0.015005841443356616 0.0010902916822976452 0.0006481784321034851 0 0 0 0
28172316 0.008552028093116197 -0.014990202762252576 0.001112104951000534 0.0006020368332101222 0 0 0 0
28205262 0.008536449086410056 -0.01503953592761389 0.0011052238307925324 0.0006768869754140825 0 0 0 0
28238208 0.008561708322353236 -0.014981884065045525 0.0011101226110001017 0.0006338813467503141 0 0 0 0
28271154 0.008618124331177264 -0.015015806745599079 0.00109124069465159 0.0006268133416981171 0 0 0 0
28304100 0.008546743278852345 -0.01507101315595301 0.001120691303454728 0.000664193072226067 0 0 0 0
28337046 0.008448983740655704 -0.01513685398722777 0.0010864046716577162 0.0006461877895715535 0 0 0 0
28369992 0.008517514399572589 -0.015203616066176324 0.0011280440490944825 0.0006221346503107536 0 0 0 0
28402938 0.00861262870886508 -0.015032662492661957 0.00110156458744893 0.0006369612048163565 0 0 0 0
28435884 0.008570192285397736 -0.015105698772327897 0.001089794014191571 0.0006466049927507586 0 0 0 0
28468830 0.008518411042802715 -0.015108115695591088 0.0011010862526485165 0.0006366632894062396 0 0 0 0
28501776 0.008543459679181813 -0.015220239751080649 0.001134526820393968 0.0006278628484905115 0 0 0 0
28534722 0.008558996211061437 -0.015089509999658975 0.0011310868823230225 0.0006634090997244055 0 0 0 0
28567668 0.008530043613354394 -0.01520653473147698 0.0011214151990036158 0.0006702189118324102 0 0 0 0
28600614 0.008610380619404136 -0.015234250253751245 0.0011354118413058913 0.0006746351302628814 0 0 0 0
28633560 0.008609071622075993 -0.01535830508484164 0.001140489937138601 0.0006449295664392171 0 0 0 0
28666506 0.008489928401163282 -0.015279945140036532 0.0011133322941656188 0.0006660742287298515 0 0 0 0
28699452 0.008599125867096909 -0.01523988235173987 0.0011146211630663977 0.000653608760149545 0 0 0 0
28732398 0.008619000990475911 -0.015303941606569695 0.001094237841326962 0.0006549802901779928 0 0 0 0
28765344 0.008522338606840615 -0.015443847006956132 0.0011121994434388335 0.0006475399653697549 0 0 0 0
28798290 0.008570786812876388 -0.015208969076895298 0.001100438486888905 0.000657706920452959 0 0 0 0
28831236 0.008500946755408067 -0.015424722885419092 0.0011299337602806664 0.000638670605165978 0 0 0 0
28864182 0.008563566471289181 -0.01536804706651813 0.0010945015679967888 0.0006766809437775864 0 0 0 0
28897128 0.008580464623595163 -0.015453273393731025 0.0011542138182003695 0.0006436809602551844 0 0 0 0
28930074 0.00854049340956992 -0.015353383312611164 0.0011074785385015047 0.0006280308245067467 0 0 0 0
28963020 0.008502418112453716 -0.01551939300602033 0.0011211736892375 0.000676316194309165 0 0 0 0
28995966 0.008602242155817123 -0.01551757453506516 0.001097152381841463 0.0006453913875283013 0 0 0 0
29028912 0.008527930456011532 -0.015403265660890193 0.001125203147247452 0.0006491341562560074 0 0 0 0
29061858 0.008526680460150846 -0.015537130879939938 0.0011142673963600825 0.0006390484540360815 0 0 0 0
29094804 0.008611466585832332 -0.015430243745608451 0.0011327515917152738 0.0006665928100893847 0 0 0 0
29127750 0.00852786530471188 -0.01554423743834118 0.0011340012660856964 0.0006838353952434967 0 0 0 0
29160696 0.008552498296569571 -0.015670745042089602 0.001123265007874884 0.0006853756917202018 0 0 0 0
29193642 0.00856464957194892 -0.015559840923477062 0.0011446261703900863 0.000654611574095827 0 0 0 0
29226588 0.008546911387549998 -0.015626334483809838 0.0011273550571145713 0.0006705528307983951 0 0 0 0
29259534 0.008642381352405162 -0.01555996722638759 0.0011253979088285864 0.0006629311401048871 0 0 0 0
29292480 0.008463480655782606 -0.015635298492169096 0.0011265830424258146 0.0006737887482059458 0 0 0 0
29325426 0.00850368472665763 -0.0157020306389908 0.0011237621764132184 0.0006743820727149328 0 0 0 0
29358372 0.0085869904096515 -0.01564471260946326 0.0011261836611781738 0.0006439149517457658 0 0 0 0
29391318 0.008680046789604743 -0.0157453070624761 0.001115680017140246 0.0006738747290467177 0 0 0 0
29424264 0.00864990413176221 -0.015735723427454277 0.0011423237417467215 0.0006692551878057645 0 0 0 0
29457210 0.008596628323864255 -0.015702850797145642 0.0011486133421723856 0.0006479541005892271 0 0 0 0
29490156 0.008482874542574083 -0.015666064109048396 0.0011216439547315367 0.000661892191035625 0 0 0 0
29523102 0.008574918421970041 -0.015756140966215984 0.0011134534653167278 0.0006578640110756459 0 0 0 0
29556048 0.008549421458979098 -0.015741717117820395 0.0011521998613919005 0.0006544270098578835 0 0 0 0
29588994 0.008644975951781101 -0.015714549737971352 0.001113806136601966 0.000653604010899295 0 0 0 0
29621940 0.00861729593283488 -0.015779210624953185 0.0011246604838550554 0.000654797623882854 0 0 0 0
29654886 0.008597787428641358 -0.01577649481478122 0.001120857111684295 0.0006537946703449295 0 0 0 0
29687832 0.008464179955055008 -0.015812998598743074 0.001149548235652355 0.0006750235378589748 0 0 0 0
29720778 0.008667878245089626 -0.015878706819248554 0.0011575049090496996 0.0006943499580438269 0 0 0 0
29753724 0.008740991341720846 -0.01584231572883677 0.0011331010306180817 0.0006586486752054009 0 0 0 0
29786670 0.008630870356274498 -0.015775851424225256 0.0011490711875814278 0.0006740636737468804 0 0 0 0
29819616 0.008574133894145155 -0.015980005281139 0.001127084367938903 0.0007204912313403541 0 0 0 0
29852562 0.008616621287932752 -0.015963296738134056 0.0011216248672646237 0.0006568752484085728 0 0 0 0
29885508 0.008697010771566531 -0.015934061866742406 0.0011435359608063089 0.0006626728253498085 0 0 0 0
29918454 0.008694136096327958 -0.016000266166209087 0.0011393311578718434 0.0006598904569798319 0 0 0 0
29951400 0.00866349147001126 -0.01592266269505001 0.0011474733798624917 0.0006608558875504628 0 0 0 0
29984346 0.008579725825191297 -0.01599905976244205 0.001143444858486561 0.0006865414633102063 0 0 0 0
30017292 0.008566043100447914 -0.015978371673456206 0.001123905227298249 0.0006725885012424985 0 0 0 0
30050238 0.008658578818487894 -0.016124575794696245 0.0011286251666759865 0.0007119223867542508 0 0 0 0
30083184 0.00866474272444626 -0.016020293358986682 0.001139943236188723 0.0007004754220650297 0 0 0 0
30116130 0.008653980001167388 -0.01611584821260267 0.0011724850430578537 0.0006996579876399804 0 0 0 0
30149076 0.008672911039219593 -0.01612891716699206 0.0011367421027480144 0.000684112505267007 0 0 0 0
30182022 0.008514626961232846 -0.016124158835233503 0.001174691320851589 0.0006932171375809119 0 0 0 0
30214968 0.00850977260060324 -0.016077835248033457 0.0011148285076604616 0.0006967794725720513 0 0 0 0
30247914 0.00867692087184095 -0.016121517074771673 0.001142129197019711 0.0006962794094673165 0 0 0 0
30280860 0.008652484229688142 -0.0161347460250233 0.001168335829359356 0.0006456909710312741 0 0 0 0
30313806 0.008660633034605113 -0.016128278609164305 0.0011556364968865669 0.00067031894633769 0 0 0 0
30346752 0.008556903037718305 -0.016239614830784736 0.0011647584149213081 0.0006882877023785411 0 0 0 0
30379698 0.00856538802555496 -0.016261684705479302 0.001154607336391888 0.0006910670305771165 0 0 0 0
30412644 0.0085460781749559 -0.016291018153416867 0.001125520808193486 0.0007014223637087846 0 0 0 0
30445590 0.008689211812407099 -0.01630519113657187 0.001140054511637712 0.0007145911606247995 0 0 0 0
30478536 0.008711513266080738 -0.01635417975621174 0.0011371489142021584 0.0006592581461415195 0 0 0 0
30511482 0.008649560699396814 -0.016298176158207764 0.00114306538501596 0.0006936239028863158 0 0 0 0
30544428 0.008705793841122638 -0.01631503618809991 0.0011646326136301834 0.0006618092603149693 0 0 0 0
30577374 0.00863199991737565 -0.016380448490799705 0.001125740527339467 0.0006984274147332925 0 0 0 0
30610320 0.008510381089952035 -0.016355635261436394 0.001126282672109609 0.0006873674664122221 0 0 0 0
30643266 0.008557711295227288 -0.016403010622041223 0.001161250932447057 0.0006824835188268142 0 0 0 0
30676212 0.008668268264420683 -0.016323727732140705 0.0011652465572899449 0.0006941768237636745 0 0 0 0
30709158 0.00861907448303692 -0.016397261080282655 0.0011787234170812805 0.0006872426498378295 0 0 0 0
30742104 0.008644164591616713 -0.01644286146774015 0.0011590678676657465 0.000701134987928762 0 0 0 0
30775050 0.008564949467051617 -0.01648115327975093 0.0011687973828585583 0.0006856402695842838 0 0 0 0
30807996 0.008649091740900096 -0.016385411414345238 0.0011650891404183011 0.0006915950950059443 0 0 0 0
30840942 0.008676246901318201 -0.016500748317355575 0.0011623940691474696 0.0006844023233611607 0 0 0 0
30873888 0.008676672482822124 -0.016528031135667694 0.0011438108548041863 0.0006821872933625552 0 0 0 0
30906834 0.008662005658519982 -0.016475465878196423 0.0011556767417674127 0.0007045726450792597 0 0 0 0
30939780 0.008692083418184015 -0.016608676515690677 0.0011835714212154716 0.0006748725287084393 0 0 0 0
30972726 0.008674394113396652 -0.016456399060641384 0.0011681447094424517 0.0007222074615277663 0 0 0 0
31005672 0.00869215139373976 -0.01654672964131946 0.00115917974358483 0.000714093303007993 0 0 0 0
31038618 0.00855372347588897 -0.016642884669398873 0.0011626345683343215 0.0007127382868294124 0 0 0 0
31071564 0.008672978439503574 -0.016615790785889227 0.0011553125703616198 0.0006666891704482623 0 0 0 0
31104510 0.00870411715126634 -0.016619944279284947 0.0011568845043462574 0.0007285405534350475 0 0 0 0
31137456 0.008610065362741934 -0.01657764761786148 0.0011570723902861323 0.0007064875601498267 0 0 0 0
31170402 0.008594819385826763 -0.016574930063937857 0.001189664817797516 0.0006914640912603402 0 0 0 0
31203348 0.00862971398364966 -0.016633005619875626 0.0011702986691752195 0.0006898540933170567 0 0 0 0
31236294 0.008647159461018792 -0.016705380958192174 0.0011875504832980974 0.0006789557604364403 0 0 0 0
31269240 0.008715975830804 -0.016719139171701935 0.0011889198934858494 0.0006964541440199802 0 0 0 0
31302186 0.008537902586435962 -0.016688692104974118 0.0011684787491014997 0.0007243506981009754 0 0 0 0
31335132 0.008635032507782636 -0.01669332542186462 0.0011699788472268847 0.0007055662443223116 0 0 0 0
31368078 0.0087582366279402 -0.016768759732308805 0.001174306972661608 0.0007338862333551574 0 0 0 0
31401024 0.008678976819271732 -0.016740940768687013 0.0011869474255435017 0.0007121730014304194 0 0 0 0
31433970 0.008578501629800965 -0.01681829342429626 0.001145106187401344 0.0007144913084279434 0 0 0 0
31466916 0.008678672458805594 -0.016763071404522784 0.0011474912335459764 0.0006893538276441342 0 0 0 0
31499862 0.008688869703526182 -0.016983268057832353 0.0012213317478548245 0.0006533826945435058 0 0 0 0
31532808 0.008631655665336035 -0.016872793339739917 0.0011594155919288113 0.0006719664506054555 0 0 0 0
31565754 0.008570637034729761 -0.01679409508186842 0.001209033265315871 0.0006988273188916558 0 0 0 0
31598700 0.00863655586956169 -0.016912705769619157 0.0011795738821983458 0.0006733689466205702 0 0 0 0
31631646 0.008707515585621717 -0.01688883765272879 0.0011752364716954785 0.0006947267948628307 0 0 0 0
31664592 0.008732831240202066 -0.01696414336314539 0.001186279748661306 0.0007291304216442056 0 0 0 0
31697538 0.008782894055059321 -0.016970812876376886 0.0011742519069756357 0.0006027922263223821 0 0 0 0
31730484 0.008683964269118645 -0.016996612569475385 0.0011713252474012637 0.0006583436709075725 0 0 0 0
31763430 0.008636966156304555 -0.01703645116886211 0.0011964264624615662 0.0007268226810307893 0 0 0 0
31796376 0.008697894000943436 -0.016969933538836936 0.0011579047112529532 0.0006593775866577523 0 0 0 0
31829322 0.008673699167154807 -0.016997033966276196 0.0011954598140324665 0.0007142402205628556 0 0 0 0
31862268 0.008642741336518997 -0.017031485028942032 0.0011927397591096672 0.0007058700375822456 0 0 0 0
31895214 0.008651960189222286 -0.017097683596940864 0.0011645848242096079 0.000730692030896338 0 0 0 0
31928160 0.008616666090994476 -0.017103171410921533 0.0011697191575997191 0.0007337219664040688 0 0 0 0
31961106 0.008676492400626989 -0.01718309463428954 0.001163130697408583 0.0007006983781122958 0 0 0 0
31994052 0.00866077591986369 -0.01718359487327069 0.0011807848205183146 0.0007165889087884828 0 0 0 0
32026998 0.008676558246687869 -0.017136409078590622 0.0011808759983724295 0.00073690764827503 0 0 0 0
32059944 0.008769743998223238 -0.017170770543334386 0.0011925634546764298 0.0007465457875845082 0 0 0 0
32092890 0.008767814735718563 -0.017127171184591845 0.0011848680238348889 0.0007509476443338824 0 0 0 0
32125836 0.008590445621513638 -0.017250531922634708 0.00117599763871301 0.0007186905826163858 0 0 0 0
32158782 0.008724470847014044 -0.017180404096258126 0.001186211898986352 0.000733103118757455 0 0 0 0
32191728 0.008715589165354212 -0.01719623761554806 0.0011939227017024074 0.000722777039676712 0 0 0 0
32224674 0.008743448955145667 -0.017223370912023816 0.0011820546159410886 0.0007218078372098029 0 0 0 0
32257620 0.008712899130677836 -0.017079358772221453 0.0011907726555645795 0.0007415609028865564 0 0 0 0
32290566 0.008629990499613672 -0.017292406143026556 0.001203120221054788 0.0007213497997423471 0 0 0 0
32323512 0.008651006121589396 -0.01737930155258982 0.0011757885975721067 0.0007176210837441833 0 0 0 0
32356458 0.008727802556946525 -0.01728944989591162 0.001199953523723696 0.0007328294314634169 0 0 0 0
32389404 0.008740731190246416 -0.017293521962065832 0.0012003975338688252 0.0007322437251356989 0 0 0 0
32422350 0.008636268251765581 -0.01742355898802023 0.0011969169973722507 0.0007366276165749565 0 0 0 0
32455296 0.008636453483549486 -0.01735031412362401 0.0012306904997475237 0.0007343181739944501 0 0 0 0
32488242 0.008645408292075708 -0.017465319539755893 0.0011993590931605417 0.0007274446263638443 0 0 0 0
32521188 0.00874172013992068 -0.017370730917937983 0.0012035365183052135 0.0007307561631697369 0 0 0 0
32554134 0.008790838015246836 -0.01750593887304639 0.0011797406331997638 0.0007313438211332204 0 0 0 0
32587080 0.008645392025458458 -0.017439962234043375 0.0012180403481169388 0.000715392587708584 0 0 0 0
32620026 0.00871634948795785 -0.017459862466652935 0.0011711060420604624 0.0007393219401958421 0 0 0 0
32652972 0.008597278405989225 -0.017402183580061466 0.0012282306005946138 0.0007513390685686361 0 0 0 0
32685918 0.00857484506405225 -0.01756470619165117 0.0012115494935112335 0.000728817176477901 0 0 0 0
32718864 0.00867695155520033 -0.017525809920603395 0.001183293136314225 0.0007534543570947496 0 0 0 0
32751810 0.00878167143638873 -0.01755685469685151 0.0012000065748049868 0.0007464012259448979 0 0 0 0
32784756 0.008688485205350135 -0.017439061032650534 0.001202653065038681 0.0007441787348612028 0 0 0 0
32817702 0.008685802039190267 -0.017589724676114582 0.0011973799073494449 0.0007403404873641626 0 0 0 0
32850648 0.008671852862570278 -0.017586496539878083 0.0011951360231213265 0.0007612503201769765 0 0 0 0
32883594 0.008639126629525384 -0.017549892056147418 0.0011865985126983303 0.0007561845824069824 0 0 0 0
32916540 0.008662260563158603 -0.017654271853627786 0.0012018139998732423 0.000738075778806012 0 0 0 0
32949486 0.008743296079034457 -0.01759435628586247 0.0011943451594817378 0.00075224467781446 0 0 0 0
32982432 0.008744606459851506 -0.017652416201959273 0.001189324804268847 0.0007746335674524489 0 0 0 0
33015378 0.008758944178436241 -0.017669750036167352 0.0012094319942752066 0.0007209826301386608 0 0 0 0
33048324 0.008664784130648289 -0.017732997582637043 0.0012407453622333134 0.0007479345688347831 0 0 0 0
33081270 0.008663867557020697 -0.017713690173282406 0.001216632108414789 0.0007747239414552604 0 0 0 0
33114216 0.008752831315322705 -0.017744274685715208 0.001209947522936852 0.0007374962312786347 0 0 0 0
33147162 0.008793888523234634 -0.017813715068163045 0.0011922419296118915 0.0007385735851994585 0 0 0 0
33180108 0.008706161383019275 -0.01777859280295449 0.0012270367123891025 0.0007690016065653158 0 0 0 0
33213054 0.00852748340841045 -0.017829003983606435 0.001212926485099274 0.0007446440771648006 0 0 0 0
33246000 0.008630646509895047 -0.017798241689979667 0.0012244743077944238 0.000738651853081477 0 0 0 0
33278946 0.008673400818471044 -0.01771250483455258 0.0012275353757267445 0.0007512360155225922 0 0 0 0
33311892 0.008680397451798232 -0.017864277554350765 0.0012061858641315968 0.000718251548784135 0 0 0 0
33344838 0.00868684359164576 -0.017856921018864602 0.0011881595461832569 0.0007506094948591042 0 0 0 0
33377784 0.008701826406210155 -0.017851162823180475 0.0012197283277571864 0.0007719558419979178 0 0 0 0
33410730 0.008799786141664172 -0.01799038933933982 0.0012121510673481423 0.000748496214435094 0 0 0 0
33443676 0.008747362980387932 -0.017849530281634114 0.00121261085713772 0.0007704085345313897 0 0 0 0
33476622 0.008756479022053253 -0.01789650596621048 0.0012450597144373194 0.0007715485451990673 0 0 0 0
33509568 0.008795352925769781 -0.01776225832918901 0.0012151049919128913 0.0007480701297035942 0 0 0 0
33542514 0.008862454539802236 -0.01795052247269597 0.0012468750000673243 0.0007589446710804163 0 0 0 0
33575460 0.008651376962609795 -0.01800696682957024 0.001219824647172134 0.0007480196935279427 0 0 0 0
33608406 0.008721351155910008 -0.018014077152195346 0.001242423902030792 0.0007530118738527877 0 0 0 0
33641352 0.008772685159198693 -0.018023173627010124 0.0012202977637197547 0.0007613718500573188 0 0 0 0
33674298 0.008703203900089556 -0.01794377783829699 0.0012399066335296164 0.0007581263927200792 0 0 0 0
33707244 0.00872651914469282 -0.01799684743666086 0.0012384916932645384 0.0007498505288447165 0 0 0 0
33740190 0.008695162904191884 -0.018059626992656983 0.001201834650457254 0.0007442642625293635 0 0 0 0
33773136 0.008631894881241614 -0.018068742992234623 0.0012420317680959234 0.0007357015575219928 0 0 0 0
33806082 0.008805815347727182 -0.018085208867241635 0.0012091529027189198 0.0007771593508282398 0 0 0 0
33839028 0.008678577200599981 -0.017981710770909334 0.0012205372066839617 0.0007645096373271038 0 0 0 0
33871974 0.008809010767434426 -0.017982117787647276 0.0012341300972330228 0.0007721710819432649 0 0 0 0
33904920 0.008676281469714001 -0.01824129015169609 0.0012310602119836782 0.0007681725088098539 0 0 0 0
33937866 0.008652461139057028 -0.01817852792443178 0.0012384215783310878 0.0007742638726153992 0 0 0 0
33970812 0.008967640727795056 -0.0182097671065025 0.001241130493181173 0.0007456633531634589 0 0 0 0
34003758 0.008756450822282554 -0.018193384510293068 0.0012460143943094388 0.0007405719117597364 0 0 0 0
34036704 0.008632474380561764 -0.0181741331161117 0.0012451566520726943 0.0007405815697876303 0 0 0 0
34069650 0.008662715510535537 -0.018286784661212543 0.0012202467654503233 0.0007714861714385647 0 0 0 0
34102596 0.00870459818302726 -0.018260005385185088 0.001228359818979128 0.0007634172443814435 0 0 0 0
34135542 0.008707971754397482 -0.018210158983138203 0.0012178727140221084 0.0007713889490557881 0 0 0 0
34168488 0.008684117341672489 -0.01822478927477493 0.0012224565028335216 0.0007749210274546196 0 0 0 0
34201434 0.0086752356491935 -0.018283716941523323 0.0012432079737390482 0.0007481978236849161 0 0 0 0
34234380 0.00869586892929358 -0.01824906863156428 0.0012416686451148912 0.0007532449867323831 0 0 0 0
34267326 0.008695229818569353 -0.018319115141643923 0.00123175091088133 0.0007909829823595424 0 0 0 0
34300272 0.008739518829007958 -0.018408955260415295 0.0012272574692394425 0.0007650485400620003 0 0 0 0
34333218 0.008795762189652594 -0.018345164611728533 0.0012073307690677638 0.0007672174786283527 0 0 0 0
34366164 0.008829942933899701 -0.018258725072442493 0.0012547229474745211 0.0007488187108977133 0 0 0 0
34399110 0.008723883802334987 -0.018321900914327834 0.00123667591990811 0.0007844309170585605 0 0 0 0
34432056 0.008707076570975077 -0.01849466256642954 0.0012166710271457857 0.0007658635530304504 0 0 0 0
34465002 0.008631654256323545 -0.018409772690263452 0.001249330503575546 0.0007728923410800688 0 0 0 0
34497948 0.008812489996334957 -0.018408613107693872 0.0012498027330919853 0.0007864870940309991 0 0 0 0
34530894 0.00880053755515336 -0.018530286141925287 0.0012620711990314077 0.000797862338112048 0 0 0 0
34563840 0.008783859923353414 -0.018473831731645997 0.0012507085604590775 0.0007926583112355256 0 0 0 0
34596786 0.00877145638785768 -0.018593792567256257 0.001247242464859647 0.0007578573712726364 0 0 0 0
34629732 0.008765660845405874 -0.01842286059876713 0.0012773438489893983 0.0007617644693009506 0 0 0 0
34662678 0.008641317848324661 -0.018544164712307735 0.0012538906498962227 0.0008028693424551078 0 0 0 0
34695624 0.008645720107804044 -0.018619720216271524 0.0012532812880741314 0.0007819914390364728 0 0 0 0
34728570 0.00876918051046955 -0.018646749520848344 0.001245227364702191 0.0007735091016476776 0 0 0 0
34761516 0.008829510162336362 -0.01863181406211049 0.0012323548895000853 0.0007742915289222044 0 0 0 0
34794462 0.008703700579493507 -0.018519855009091393 0.0012523256629494632 0.0007671364234983389 0 0 0 0
34827408 0.00870112347722097 -0.01864019031410974 0.0012785164984682447 0.0007740968181528932 0 0 0 0
34860354 0.008692605093774513 -0.018637146411809757 0.0012746376882093618 0.0007755185918077331 0 0 0 0
34893300 0.00874340157684693 -0.01867928980584633 0.0012538946042079115 0.0007691019491630923 0 0 0 0
34926246 0.008773083608514927 -0.018683243222716143 0.0012436122552378552 0.0007921744235446366 0 0 0 0
34959192 0.008779240534902038 -0.018803023368838677 0.0012398898788360435 0.0008223285653822803 0 0 0 0
34992138 0.008848352960158344 -0.018644121564577322 0.001249503157006228 0.0008114176843364082 0 0 0 0
35025084 0.008691061460897029 -0.018762088996355317 0.0012199650987724723 0.0008613568729364087 0 0 0 0
35058030 0.008697208357609584 -0.01858413222643423 0.001215999519648979 0.0007618774190524334 0 0 0 0
35090976 0.008800569486241966 -0.018779880107393072 0.0012630734552399612 0.0007814386658871516 0 0 0 0
35123922 0.00884237814077047 -0.01875411530689419 0.001240382622390213 0.0008131903576441749 0 0 0 0
35156868 0.008804705994414115 -0.0187523693308163 0.001274519606166915 0.0007513643230650457 0 0 0 0
35189814 0.008685042763903078 -0.01874782335581445 0.0012211694258819528 0.0008088765120881611 0 0 0 0
35222760 0.00867894831352115 -0.018774706180828 0.0012859179283541005 0.0008032846548829307 0 0 0 0
35255706 0.008875078915227232 -0.018973235450347518 0.001245551400675689 0.0008139726658690457 0 0 0 0
35288652 0.00880508840526633 -0.01878109104158167 0.0012687512294776717 0.0008109069365511159 0 0 0 0
35321598 0.008669003580797733 -0.01893243513933366 0.0012705680352175308 0.0007525342965904203 0 0 0 0
35354544 0.008710180457123394 -0.01874797392576373 0.001305763481439103 0.0007612514276979437 0 0 0 0
35387490 0.00865177496773205 -0.018901359018276213 0.0012420139648926362 0.0007585019949482587 0 0 0 0
35420436 0.00879780133402338 -0.019012403632759835 0.0012509546511761172 0.000786410638345083 0 0 0 0
35453382 0.008713656946588771 -0.018839006564263135 0.0012893989460025094 0.0008014279856275509 0 0 0 0
35486328 0.008670630245364878 -0.01901166375544599 0.001281554137168439 0.000811278404271345 0 0 0 0
35519274 0.008889510754061896 -0.018955737638533733 0.0012652755530279 0.0008158953579311829 0 0 0 0
35552220 0.008892621145258973 -0.01897951415180718 0.001291426592846153 0.000805170987472333 0 0 0 0
35585166 0.008749629915159419 -0.019033972657795748 0.001293053222352367 0.0007837527393525091 0 0 0 0
35618112 0.008761926762786075 -0.01905167152910775 0.0012765310333826935 0.0008291190053822544 0 0 0 0
35651058 0.008693679292074047 -0.01910435570446722 0.0012760114504734093 0.0008140706579377602 0 0 0 0
35684004 0.008770912413724338 -0.01908273591795132 0.0012832712080329382 0.0007786706134400512 0 0 0 0
35716950 0.008844990393337462 -0.019087773485643583 0.0012872593351356085 0.0008088507495723772 0 0 0 0
35749896 0.008783522016566339 -0.019052622963203116 0.0012773757696097087 0.000792111313812209 0 0 0 0
35782842 0.008708641473181539 -0.019148545194448967 0.0012480216523542515 0.0008433019050756089 0 0 0 0
35815788 0.008741617221188701 -0.0191324439725682 0.00127017610696515 0.0007982437126050263 0 0 0 0
35848734 0.008762080985559717 -0.019136143384503448 0.001279780136841215 0.0007927353399598921 0 0 0 0
35881680 0.008817011489819875 -0.01924481147733504 0.0012795018337686686 0.0007980218408796635 0 0 0 0
35914626 0.00877997367227268 -0.019146783949402633 0.0012866687119044542 0.0008030949855969437 0 0 0 0
35947572 0.008803885616594247 -0.019255053147082056 0.0012792117368726984 0.0007856732945739738 0 0 0 0
35980518 0.008698015729018236 -0.019217958586599408 0.0012918614400062479 0.0007951939227995257 0 0 0 0
36013464 0.008764830759553274 -0.0192159862681596 0.0012897478408101706 0.0008212226562130064 0 0 0 0
36046410 0.00871143524730666 -0.019390022561344485 0.00128169132675138 0.0007983107175760889 0 0 0 0
36079356 0.008831042679148951 -0.01923825828625821 0.001281358794279674 0.0007870879291701791 0 0 0 0
36112302 0.008869520789430912 -0.019302369699635336 0.001276958891588283 0.0008042537281101856 0 0 0 0
36145248 0.008907509880555392 -0.019316654098228303 0.0013004296582057903 0.0008272426429032388 0 0 0 0
36178194 0.008689310024686685 -0.019342204414079505 0.0012923955735652693 0.0008290311285922302 0 0 0 0
36211140 0.0087436834266346 -0.019439691464613423 0.0013024998445297356 0.000806922734279903 0 0 0 0
36244086 0.008785366674119314 -0.019448226695182758 0.0013012374845906938 0.0008261707485533686 0 0 0 0
36277032 0.008737311185822855 -0.019509658971464575 0.0012844097501848845 0.000798430949295024 0 0 0 0
36309978 0.0088546055487084 -0.019242268901699458 0.0013019557340143762 0.0008107672289767793 0 0 0 0
36342924 0.008685316023315659 -0.019455682078871443 0.001288843571595767 0.0007830577014957237 0 0 0 0
36375870 0.008706654436579303 -0.019335517363382446 0.0012838988218439895 0.0008217445828899823 0 0 0 0
36408816 0.00859178576643311 -0.019314001668280713 0.0012888740878296242 0.0008065056593984629 0 0 0 0
36441762 0.009075034413233457 -0.0194551948726105 0.001284766734771611 0.0008306531702332553 0 0 0 0
36474708 0.00880984902809349 -0.019428883412743757 0.0013039703647377942 0.000829141505550577 0 0 0 0
36507654 0.008739472939395277 -0.019565189325902826 0.0012981841651614576 0.0008237626349395354 0 0 0 0
36540600 0.008839850443736714 -0.019549469301224764 0.0013049609218176261 0.0008217157287501526 0 0 0 0
36573546 0.008724648554835564 -0.019560363598894903 0.001296334177506642 0.0008299107657194378 0 0 0 0
36606492 0.008809615800062695 -0.01961766533130364 0.0012834023187282071 0.0008161366396356274 0 0 0 0
36639438 0.00884452065613105 -0.019619188039602855 0.0012861446735233737 0.0008376325980617758 0 0 0 0
36672384 0.008903136012878721 -0.01960234239950773 0.0013304036358614136 0.0008162482652582126 0 0 0 0
36705330 0.008851531236228326 -0.0196513775440819 0.0012885241250157739 0.0008353473238567114 0 0 0 0
36738276 0.008708492861303733 -0.019576242454205233 0.001291885586176474 0.0008227696834596777 0 0 0 0
36771222 0.008761440988523892 -0.01979278680306295 0.0012720434627867558 0.000828521243476261 0 0 0 0
36804168 0.008760324299310554 -0.019682342383119184 0.0013123451468399657 0.0008331559987441718 0 0 0 0
36837114 0.008844222692164928 -0.0195807534672223 0.0012844119829769948 0.0008437223813034704 0 0 0 0
36870060 0.008749852492651661 -0.01969831137211051 0.0013261005382568694 0.0008409397053450507 0 0 0 0
36903006 0.00876321130669893 -0.01971473931947575 0.0013128341403873171 0.0008312739067861925 0 0 0 0
36935952 0.008802750731238984 -0.01982807348440958 0.0013165801434063856 0.0008301405399408635 0 0 0 0
36968898 0.008788671271115281 -0.019744288397765736 0.0013154307060554984 0.0008181014028556084 0 0 0 0
37001844 0.008874304421505556 -0.01971995657234094 0.0013129191689269027 0.0008205900133862779 0 0 0 0
37034790 0.008770503381580173 -0.019786022525370255 0.0013015285718496552 0.0008331110928992314 0 0 0 0
37067736 0.008745696799438332 -0.019801127674074808 0.0013036310227196066 0.0008428501110828384 0 0 0 0
37100682 0.008817585389781843 -0.019887438216004673 0.0013104259225269136 0.0008368500340103412 0 0 0 0
37133628 0.008943791481718137 -0.019830224507025276 0.0013296952236467145 0.0008165408180041675 0 0 0 0
37166574 0.008834847264266388 -0.019870535671665177 0.0013146558781686136 0.0008698980470751452 0 0 0 0
37199520 0.00881417837561655 -0.01985562431662738 0.0013147972497245767 0.0008379718087057849 0 0 0 0
37232466 0.008863937363981843 -0.019885522942451207 0.0013245135662161484 0.0008430108365934263 0 0 0 0
37265412 0.008789345801838917 -0.019905575363776917 0.0013182106302172159 0.0008372641406522628 0 0 0 0
37298358 0.008791328650140479 -0.0198860685682014 0.001305725516281703 0.0008492455111686809 0 0 0 0
37331304 0.008839785195995252 -0.01984316904990246 0.0013231646260574875 0.0008229605193867637 0 0 0 0
37364250 0.008780962313616296 -0.019995903562472696 0.0013095178565056132 0.0008301886197629897 0 0 0 0
37397196 0.008900333435195045 -0.020050825961821322 0.0013478003482334767 0.0008355690363969663 0 0 0 0
37430142 0.008948702676721836 -0.020062987787922676 0.001316593813126578 0.0008665338786735316 0 0 0 0
37463088 0.008788233883084117 -0.020042448108525283 0.0013363334597968832 0.0008434654876698011 0 0 0 0
37496034 0.008773151032841226 -0.020056621191718648 0.0013260605059220987 0.0008561558607685478 0 0 0 0
37528980 0.008877037062156156 -0.02002577378231168 0.0013488277462332862 0.0008583553650840746 0 0 0 0
37561926 0.008799230222024747 -0.020103657001345237 0.0012958932698922082 0.0008532799512263924 0 0 0 0
37594872 0.008821760362355754 -0.020077544049780592 0.0013405792065364428 0.000846964857416982 0 0 0 0
37627818 0.008864789997031917 -0.020098397262915145 0.0013193138876933708 0.0008383983826272023 0 0 0 0
37660764 0.008864315883316851 -0.0201250593170216 0.0013378973301982524 0.0008287822065338173 0 0 0 0
37693710 0.008872014515625503 -0.020139214682006284 0.00131740415892475 0.0008225748997924859 0 0 0 0
37726656 0.008813313878576758 -0.02023323724607074 0.001332194874181361 0.0008225752716351822 0 0 0 0
37759602 0.008847017925986462 -0.020110310157209287 0.0013146566429539633 0.0008380610603785465 0 0 0 0
37792548 0.008781883990587675 -0.020215331412544578 0.001309411313915361 0.0008343198171501998 0 0 0 0
37825494 0.008939262585440411 -0.02022759690781153 0.0013233511843649857 0.0008565231251904888 0 0 0 0
37858440 0.008937824565132417 -0.020268594706552095 0.0013097754019319187 0.000854201400373358 0 0 0 0
37891386 0.008835886265911292 -0.020181634763991742 0.0013321635330002003 0.0008531700632554451 0 0 0 0
37924332 0.008797903111315772 -0.020290081272299497 0.0013361458139832818 0.0008485007215817404 0 0 0 0
37957278 0.008776672254656323 -0.020238922489264764 0.0013449599150309063 0.0008586791831111425 0 0 0 0
37990224 0.008898378193553285 -0.020331061623233816 0.001352258177237436 0.0008522548510850739 0 0 0 0
38023170 0.008850093496410326 -0.020373908889059544 0.0013410957104464415 0.0008400599550130806 0 0 0 0
38056116 0.008962230138453918 -0.020275862827843633 0.0013503102456492973 0.0008885876403097525 0 0 0 0
38089062 0.008852082974879251 -0.02036284557451472 0.0013466238363247258 0.0008414167368993889 0 0 0 0
38122008 0.008915051660629482 -0.020310007146161088 0.0013281756346129091 0.000890829296983907 0 0 0 0
38154954 0.008860893625777081 -0.020450928811117042 0.0013077456546514285 0.0008636254043794067 0 0 0 0
38187900 0.008781846058721187 -0.02035822385758486 0.001359235612930391 0.0008531687464275074 0 0 0 0
38220846 0.008834948700621103 -0.02041531557979608 0.0013678076181709502 0.0008608655847687589 0 0 0 0
38253792 0.008787248407855313 -0.020436777567079026 0.0013483331586472385 0.0008542343366814232 0 0 0 0
38286738 0.008794269863325481 -0.020493247870573127 0.0013543135999010165 0.0008558427154251122 0 0 0 0
38319684 0.00886307164039 -0.020422981677916056 0.001360756326916851 0.0008546427742468032 0 0 0 0
38352630 0.008844190977794758 -0.020527450039223714 0.0013347520402233024 0.0008577618279078698 0 0 0 0
38385576 0.008841977379196167 -0.02056347311718101 0.0013396836319893141 0.0008791698160888336 0 0 0 0
38418522 0.00885065324621978 -0.020594305111866655 0.0013389251968635946 0.0008463084493085973 0 0 0 0
38451468 0.008891938172372061 -0.020564839077840492 0.001340983620409609 0.0008455283292179341 0 0 0 0
38484414 0.008855363610190093 -0.020531176440469378 0.001372790640985005 0.0008960899968002487 0 0 0 0
38517360 0.008869216195291513 -0.020554744370220132 0.0013859669997414003 0.0008629078039221385 0 0 0 0
38550306 0.008860219890658298 -0.02057347705339061 0.001362557044399697 0.0008439928804028497 0 0 0 0
38583252 0.008922651735874646 -0.020596816020174515 0.0013542777911552326 0.0008603519476046773 0 0 0 0
38616198 0.008853409075938288 -0.020563070041742494 0.001356200922666616 0.000826360916864275 0 0 0 0
38649144 0.008824443862396301 -0.02062372414488275 0.0013618590127052145 0.0008743933618908337 0 0 0 0
38682090 0.008822846660218299 -0.020655950186974845 0.001343561602895666 0.000863432122343235 0 0 0 0
38715036 0.00890371121641541 -0.020751520278818592 0.0013381237711417215 0.0008847806524778642 0 0 0 0
38747982 0.008891481305957865 -0.020745742618291572 0.0013732760815114756 0.000868828226925985 0 0 0 0
38780928 0.008903205697734909 -0.02070923756448976 0.00137205473847372 0.0008768479058354338 0 0 0 0
38813874 0.008904112094514778 -0.02066386828675155 0.001348560634381849 0.0008666967943490973 0 0 0 0
38846820 0.008836236856914167 -0.02069051038754536 0.0013582461748589214 0.0008840874270300385 0 0 0 0
38879766 0.008853041119449125 -0.02079329578389115 0.0013571731121389612 0.0008784230658046491 0 0 0 0
38912712 0.008854009104295369 -0.02080255049815816 0.0013682091019130316 0.0008571155316509827 0 0 0 0
38945658 0.008908438256861767 -0.020827794915267848 0.0013719014463865098 0.0008582729197794026 0 0 0 0
38978604 0.008834181855746654 -0.020822700348136984 0.0013613078446471627 0.0008752595797274599 0 0 0 0
39011550 0.009021609424356772 -0.020897859777498282 0.0013592490352360485 0.0008595389265861586 0 0 0 0
39044496 0.00888995846899885 -0.02090076548124737 0.001366196701547955 0.0008812538293656494 0 0 0 0
39077442 0.008923615372799183 -0.020852430944743736 0.0013866193758679782 0.0008818943149915248 0 0 0 0
39110388 0.008912243593981536 -0.02086958201252595 0.0013599473404632913 0.0008817666513738584 0 0 0 0
39143334 0.008900243826500827 -0.020947750409004075 0.0013805652025382356 0.0008963506472879292 0 0 0 0
39176280 0.008971135302369745 -0.021042890954715315 0.0013726289229989785 0.0008715776843585858 0 0 0 0
39209226 0.008918050887219383 -0.020844031612305677 0.0013823661971489583 0.0008817015720646827 0 0 0 0
39242172 0.008814519472519067 -0.020924743105136482 0.0013491617942179691 0.0008692699412545897 0 0 0 0
39275118 0.008858902045296801 -0.02100667306321637 0.0013601775215431855 0.0008876532697724427 0 0 0 0
39308064 0.008947145531519953 -0.0210270647430499 0.0013834565913499884 0.0008846168220508121 0 0 0 0
39341010 0.008934558376989336 -0.021020332344372002 0.0013939359823607101 0.0008909449526732897 0 0 0 0
39373956 0.008922559784137354 -0.02101668776912583 0.001389769399011912 0.0008900407946008686 0 0 0 0
39406902 0.008917314467502293 -0.021040584501307354 0.001399792095070404 0.0008978231040018858 0 0 0 0
39439848 0.008854730995564204 -0.02107257424322179 0.0013854415522765139 0.000874324868728749 0 0 0 0
39472794 0.008934493188891047 -0.021086280521073933 0.0013935646275648956 0.0008994635931837098 0 0 0 0
39505740 0.008870744404135244 -0.021097021920243247 0.00138557969495877 0.0008794969289064757 0 0 0 0
39538686 0.008855902336173194 -0.021071815562953376 0.001391429758675287 0.000880526780244082 0 0 0 0
39571632 0.008939382475472464 -0.02111733553636533 0.00138016105256858 0.0008650175505564334 0 0 0 0
39604578 0.008872881931590741 -0.021268624951943878 0.001375539177922838 0.0008973522082461927 0 0 0 0
39637524 0.008915890593781017 -0.02114509797184482 0.0013805101338272363 0.0008887842734268235 0 0 0 0
39670470 0.00898104728756048 -0.021162346893692383 0.0013956800353268875 0.0009106765913478546 0 0 0 0
39703416 0.00895362853403472 -0.021216886429155493 0.0013650510831494436 0.0009014357883302419 0 0 0 0
39736362 0.008905880502182828 -0.02126132173156839 0.0014007567489983694 0.0008918404895715918 0 0 0 0
39769308 0.008929678896192205 -0.021277753569713644 0.0013839544442121366 0.0009100758670285868 0 0 0 0
39802254 0.008923893937983235 -0.021205842432734566 0.0013953041868826664 0.0009022849851831956 0 0 0 0
39835200 0.008943605892820904 -0.021199428814120614 0.001372549449023502 0.000927494786664484 0 0 0 0
39868146 0.008858302232324967 -0.02137181216469325 0.0014157374280409755 0.0008912030213725912 0 0 0 0
39901092 0.00894430593144434 -0.021261978884715302 0.0013951096274072638 0.0008999978147209373 0 0 0 0
39934038 0.008813718407774203 -0.02132047533715041 0.001371033478533734 0.0008946820892162707 0 0 0 0
39966984 0.008911284509833648 -0.021419354063139703 0.001384835930492688 0.0009042056266942034 0 0 0 0
39999930 0.008962992622239289 -0.021311227471702318 0.0013820544499571375 0.0008927245894677629 0 0 0 0
