# HZ S RI R 50
300000 0.030274078111749012 -0.021422421752583666 0.0005866588784159496 -0.0004556357921440195 0 0 0 0
332946 0.025952930131349135 -0.023917597646406198 0.0006871261630519124 -0.0003284802054771619 0 0 0 0
365892 0.021756335818126783 -0.02504062187877766 0.0008222397802982043 -0.0002742140548515052 0 0 0 0
398838 0.0178779566397324 -0.025205385292517455 0.0009250369035521 -0.00032703347105719863 0 0 0 0
431784 0.01836459394619134 -0.020825027719772262 0.0013183209202624745 0.0003461261760799414 0 0 0 0
464730 0.01628791076965025 -0.01934587910069736 0.0013876045720246865 0.0003184254971746957 0 0 0 0
497676 0.013433907318510815 -0.019637691874521288 0.0014431609776377364 0.00028367684349064106 0 0 0 0
530622 0.011440568398770634 -0.018388625472247202 0.0014877926049703045 0.00027493955426184576 0 0 0 0
563568 0.010304518643888896 -0.017132854944889593 0.0015450871244404067 0.00025264550157974705 0 0 0 0
596514 0.009024023543196452 -0.01597120574418576 0.001555368958080397 0.00023499015078954274 0 0 0 0
629460 0.008206145707494505 -0.014706181426148723 0.0015809796484803874 0.0002452761730970361 0 0 0 0
662406 0.007766854184995916 -0.01396027307868067 0.0015880709288542086 0.00021306441941298503 0 0 0 0
695352 0.00723154454603641 -0.012850692988922276 0.0016362440325479928 0.00018303509903638365 0 0 0 0
728298 0.006966989089820114 -0.012039771425152774 0.0016508307144887963 0.00019723798767036694 0 0 0 0
761244 0.006912975138007726 -0.010922363764282135 0.0016377518558537496 0.00012230103808535335 0 0 0 0
794190 0.006629864281901672 -0.010402396533188264 0.0016502938926336924 0.00014065789114402314 0 0 0 0
827136 0.0066452840565381106 -0.00981782754693934 0.0016682550916980756 0.00012647164375320064 0 0 0 0
860082 0.006641721296331644 -0.009312379098332638 0.0016475658335956304 0.0001250184323163127 0 0 0 0
893028 0.006649829713206376 -0.008950078639076037 0.0016701358578200577 0.00012206451513647891 0 0 0 0
925974 0.006547513720968875 -0.00838977162353004 0.0016760856706604648 0.00010189528337265196 0 0 0 0
958920 0.006804789195631224 -0.008348413697904858 0.0016779596239229991 7.600882743452574e-05 0 0 0 0
991866 0.006594106210115564 -0.0077417432747315966 0.0016921725909085459 6.986993646029774e-05 0 0 0 0
1024812 0.006664313325622695 -0.007542096324925056 0.0017052892592376919 6.538986362658854e-05 0 0 0 0
1057758 0.006837788872693815 -0.00736236255474818 0.0016755833590461318 7.540475745737431e-05 0 0 0 0
1090704 0.006630067425158006 -0.0071340252060348094 0.0017141128882821155 4.8465415747097316e-05 0 0 0 0
1123650 0.006523463047786481 -0.006809522816332698 0.0017484919697294916 2.0275028268438817e-05 0 0 0 0
1156596 0.006613942193022288 -0.006584266262351372 0.0017229606121512999 4.295976107920971e-05 0 0 0 0
1189542 0.00682674355458584 -0.006532380324017129 0.0017332918643390932 1.594568545780718e-05 0 0 0 0
1222488 0.00684383987783977 -0.0063541543130222165 0.001748909591371064 3.1855478382456856e-05 0 0 0 0
1255434 0.0068223661964189235 -0.006234749058116142 0.0017409036601729038 -1.0137333267140417e-06 0 0 0 0
1288380 0.00665810863786303 -0.006014104156525972 0.0016991348749107846 -2.383645063156047e-05 0 0 0 0
1321326 0.006764287131811778 -0.00594178323928695 0.0017563217737017734 -2.450929651428945e-05 0 0 0 0
1354272 0.006784589025805513 -0.005776050584195354 0.0017680057708087558 -5.237871801471308e-05 0 0 0 0
1387218 0.006904578847477673 -0.005910413149163974 0.001754517671297425 -3.3843773109687306e-05 0 0 0 0
1420164 0.0068404939843028515 -0.005731012214383791 0.0017692661665374785 -6.373010800611668e-05 0 0 0 0
1453110 0.0067683737967820165 -0.005777429496867532 0.0018002267790030767 -5.61690608452188e-05 0 0 0 0
1486056 0.006660249365385358 -0.005611748040299855 0.0017857992593484351 -7.751453366581638e-05 0 0 0 0
1519002 0.006702806289405835 -0.005620898669007086 0.0017718017929483055 -8.418545684780512e-05 0 0 0 0
1551948 0.006637670539330947 -0.005384328628682992 0.0017670528102180188 -8.709395944971518e-05 0 0 0 0
1584894 0.0066166631803152975 -0.005386367981876146 0.0018067010668170846 -0.00012481600245049774 0 0 0 0
1617840 0.00653806063899937 -0.005280082374352541 0.0018063557614384613 -0.00015794055823626594 0 0 0 0
1650786 0.0066151434574024375 -0.005320345958594696 0.0017891848533790578 -0.0001515631584349649 0 0 0 0
1683732 0.006375670089112416 -0.0052498187613640125 0.0018072251449812978 -0.00013223775926558817 0 0 0 0
1716678 0.006396491290382073 -0.005166440876948927 0.0018267133306695367 -0.00016983832885869994 0 0 0 0
1749624 0.006219058678248765 -0.005089048390278476 0.0018230310610936125 -0.00016887700443873535 0 0 0 0
1782570 0.0062948347055844685 -0.005064040105785444 0.0018180140319129176 -0.00018872763086448467 0 0 0 0
1815516 0.006305612474590773 -0.004985777853644877 0.0018290683622813836 -0.00020729165988476 0 0 0 0
1848462 0.006452294048593102 -0.0049890470080168605 0.001826672768182017 -0.00020382760796949748 0 0 0 0
1881408 0.006427554024913313 -0.005049659176299963 0.0018335317883211206 -0.00024535265684079476 0 0 0 0
1914354 0.006241896026017063 -0.004877107164377402 0.0018362744701934807 -0.0002798679938876101 0 0 0 0
1947300 0.006136999704397381 -0.004759555003629211 0.0018293826535890336 -0.00026751038359755725 0 0 0 0
1980246 0.005963284834872201 -0.004693245870468526 0.0018549244671436243 -0.0003218175853948 0 0 0 0
2013192 0.006112752853866475 -0.004769527995473571 0.0018399580758818083 -0.0003168131633791553 0 0 0 0
2046138 0.006066587595794684 -0.004620122080755567 0.0018347477506952515 -0.00033965431850010297 0 0 0 0
2079084 0.006203472750116419 -0.004537802564332634 0.001840620762077285 -0.00031911270776707767 0 0 0 0
2112030 0.006099448042413802 -0.004462073014791941 0.0018640487959732887 -0.000328349779936099 0 0 0 0
2144976 0.005937046525064497 -0.004363665849111581 0.0018441953235848365 -0.00037569925354061896 0 0 0 0
2177922 0.0058985222009703886 -0.0042642597296629866 0.0018366030007243386 -0.00039495910065897785 0 0 0 0
2210868 0.005780931437588645 -0.004284697060250329 0.0018362504584228524 -0.00041899249302055995 0 0 0 0
2243814 0.005969932752758094 -0.004394223928390104 0.0018420544986217132 -0.0004164544842725999 0 0 0 0
2276760 0.005882256044689984 -0.00439686267399672 0.0018357748440141926 -0.000441207422749309 0 0 0 0
2309706 0.005845350456241457 -0.004222053016973112 0.0018213512617355596 -0.0004947200034872232 0 0 0 0
2342652 0.005762198125733413 -0.004258773789900428 0.0018185579484954666 -0.0004737359429497663 0 0 0 0
2375598 0.005787787065775453 -0.004094582604550769 0.0018455881102062623 -0.0005287162937272879 0 0 0 0
2408544 0.005784791062273695 -0.0040779733855458855 0.0018213524822723306 -0.0005365279679117622 0 0 0 0
2441490 0.005619094715433391 -0.004022721185335366 0.001802918369901642 -0.0005582170824591315 0 0 0 0
2474436 0.005488832759335023 -0.003891101411062572 0.0017845771234376291 -0.0005632697676945175 0 0 0 0
2507382 0.005797439181338124 -0.003825205966091925 0.0017702845468472379 -0.0006145549691193502 0 0 0 0
2540328 0.00570421104481129 -0.0038200706954766993 0.0017904666118771899 -0.0006181752322712245 0 0 0 0
2573274 0.005555157689274348 -0.00377223721884121 0.0017604335217908612 -0.0006469147704626137 0 0 0 0
2606220 0.00551853292814491 -0.0036776124931161523 0.0017553723179380065 -0.000674874544738693 0 0 0 0
2639166 0.005584010662145094 -0.003669874074113513 0.0017129475847364212 -0.0006832878874243849 0 0 0 0
2672112 0.005764961722677586 -0.003629322100028122 0.0017557616806852814 -0.0006972513283857859 0 0 0 0
2705058 0.0056628951955795225 -0.003554083025165658 0.0017006183206662309 -0.0007270980214903837 0 0 0 0
2738004 0.005629653258939775 -0.0035022964131763367 0.001705239074679028 -0.0007627135712253579 0 0 0 0
2770950 0.005690332465420769 -0.003457661070431266 0.001692654175882958 -0.0007449219834756983 0 0 0 0
2803896 0.005354710379574705 -0.0033747766905520456 0.0016309295147556402 -0.0008184518151737166 0 0 0 0
2836842 0.005482475405743709 -0.0035060068286026265 0.0016341299376994598 -0.0008145802972138422 0 0 0 0
2869788 0.005720786265829706 -0.0034210801733409704 0.0016131852440463387 -0.0008369110102196058 0 0 0 0
2902734 0.005635348657395976 -0.003342944207410239 0.00158563930251637 -0.0008427199213418767 0 0 0 0
2935680 0.0054565965888428904 -0.0032786079031841666 0.0015603498720725265 -0.0008109384048892356 0 0 0 0
2968626 0.005513664013620012 -0.003246459162692432 0.0015637176907391664 -0.0008906045937938664 0 0 0 0
3001572 0.0055077422584702265 -0.0031670270963143256 0.0015460033914045169 -0.0008878185865238118 0 0 0 0
3034518 0.00568909603526943 -0.00312075974758868 0.0015150621464943602 -0.0009146889469262226 0 0 0 0
3067464 0.005480626180811297 -0.003055350983143755 0.0014586084114349993 -0.0009004536362681322 0 0 0 0
3100410 0.005454809409495481 -0.003076909930740399 0.001451710388887797 -0.0009026141423015983 0 0 0 0
3133356 0.005520623740845498 -0.0031116090370563367 0.0013959557234372677 -0.0009562259275031226 0 0 0 0
3166302 0.005675731320095204 -0.0030726688343364044 0.0013944981669766238 -0.0009512410944280244 0 0 0 0
3199248 0.005563274278267285 -0.0029707937992640397 0.0013629131621499411 -0.000924898644763856 0 0 0 0
3232194 0.005375459325252589 -0.0028706262401382615 0.001371641821333369 -0.000938002733595205 0 0 0 0
3265140 0.005440097933134404 -0.0029165616116418047 0.0013122217584393017 -0.0009396287133478233 0 0 0 0
3298086 0.005483973933949139 -0.0029683999514015795 0.0012963456170386356 -0.000938585341664356 0 0 0 0
3331032 0.005531807651932432 -0.002943241103628147 0.001249526893518978 -0.0009414079979469546 0 0 0 0
3363978 0.005468121910608112 -0.0028398057519412106 0.0012195148999682604 -0.0009500875044840591 0 0 0 0
3396924 0.005517193972228082 -0.0027533735509389914 0.0012163580323940478 -0.0009370938300536446 0 0 0 0
3429870 0.005405301028540643 -0.0027992030464977008 0.0011666733806820683 -0.0009514325539822538 0 0 0 0
3462816 0.0054690535511420476 -0.0027969262552253486 0.001167498644012881 -0.0009455063755349124 0 0 0 0
3495762 0.005490845045760492 -0.0027768220748518612 0.00113304949755685 -0.000940666872680657 0 0 0 0
3528708 0.0055552880995017664 -0.0026409673090124356 0.001112785234583892 -0.0009273752025341023 0 0 0 0
3561654 0.005567084681080774 -0.0026693641900280398 0.0010843740663961257 -0.0009063554926781191 0 0 0 0
3594600 0.005632204023192842 -0.0026177695723329586 0.0010714564552420864 -0.0009025424419564113 0 0 0 0
3627546 0.005510460766529642 -0.002771309045695434 0.001039679238322572 -0.0009052107864483957 0 0 0 0
3660492 0.0055351898266894186 -0.0026512727434441765 0.0010107231157714864 -0.0008761159660896128 0 0 0 0
3693438 0.005461767671808535 -0.0025886716300285184 0.000981209674106886 -0.0008834747589187768 0 0 0 0
3726384 0.005572421480643627 -0.002677786640541041 0.0009657946425718037 -0.0008584141963582794 0 0 0 0
3759330 0.005440379852039707 -0.0026546277672460403 0.0009591852025661649 -0.0008862522590166862 0 0 0 0
3792276 0.005613213122261878 -0.0025229304648104736 0.0009417381140467466 -0.0008697205514189201 0 0 0 0
3825222 0.005594868416266067 -0.002612470639643853 0.0009127218744976704 -0.0008456422549665124 0 0 0 0
3858168 0.0054725638998665066 -0.002498020338519315 0.0009386443968511617 -0.0008330686821510191 0 0 0 0
3891114 0.00544026439355475 -0.002578503169736047 0.00087612271393572 -0.0008098872452004689 0 0 0 0
3924060 0.005444663334044641 -0.002510767257763244 0.0008726833157594699 -0.0008287114784325983 0 0 0 0
3957006 0.005576677641012143 -0.0025046555214901143 0.0008413637459661203 -0.0007849148303826375 0 0 0 0
3989952 0.005688295854430177 -0.0024433847681112238 0.0008466505564096725 -0.0007592894793877715 0 0 0 0
4022898 0.005478902802162047 -0.0023735341474460008 0.0008434246770601004 -0.0007609654976180322 0 0 0 0
4055844 0.005481388173242904 -0.002418323238983319 0.000820631840327842 -0.0007577529347448683 0 0 0 0
4088790 0.005609322386463324 -0.002341850360363818 0.0008102381320392207 -0.0007606837919066446 0 0 0 0
4121736 0.005462891417842879 -0.0024719603883070584 0.0008100470369943872 -0.0007150150760450847 0 0 0 0
4154682 0.005640757232959857 -0.0024154908233896613 0.0007837864994487529 -0.0007456157349544674 0 0 0 0
4187628 0.00556062815261062 -0.0023512799537989694 0.0007822504086560119 -0.0007092496307634493 0 0 0 0
4220574 0.005489855732071531 -0.00230873669629557 0.0007731331896131519 -0.0006534946530321057 0 0 0 0
4253520 0.005479273635916756 -0.0023751450730890604 0.0007569998802660632 -0.0006610287742351989 0 0 0 0
4286466 0.005597959265303511 -0.0023007598987734973 0.0007451689932403894 -0.0006283449755239683 0 0 0 0
4319412 0.005528151696401424 -0.0022998040975441753 0.0007833792217707463 -0.0006328167082550792 0 0 0 0
4352358 0.005681611387824574 -0.0022237398789201153 0.0007210550634052037 -0.0006191656188866823 0 0 0 0
4385304 0.00544550595332486 -0.002173302568762981 0.0007454344321035942 -0.0006011300954769783 0 0 0 0
4418250 0.005629318624815245 -0.002285450533677899 0.000714321760685291 -0.0006163594638471123 0 0 0 0
4451196 0.005652910372729241 -0.002179835423768279 0.0007099914527962429 -0.0005961368678831477 0 0 0 0
4484142 0.0057031273153674115 -0.002142512646530943 0.0007244047480609189 -0.0005644284810837597 0 0 0 0
4517088 0.005642774071972985 -0.0022151327290805965 0.0006989780262666661 -0.0005707487218721432 0 0 0 0
4550034 0.005530190141108654 -0.002198172327767716 0.0007019091316419574 -0.000539442175983654 0 0 0 0
4582980 0.0056183515492452775 -0.0022028666857815283 0.0006948702066902318 -0.000570079708203532 0 0 0 0
4615926 0.005638031923764302 -0.0020745821413696588 0.0007054714609233715 -0.0005331795768119339 0 0 0 0
4648872 0.005613320715388627 -0.0020436466255793727 0.0006685877091949718 -0.0005208988854775305 0 0 0 0
4681818 0.005703236473864808 -0.002058078005426571 0.0006937630314266714 -0.0005131617247021118 0 0 0 0
4714764 0.0057100116622125835 -0.002072050457707107 0.0006683332083077471 -0.0004987577685164169 0 0 0 0
4747710 0.005617643196086372 -0.0020890303027915912 0.0006513592972113854 -0.00048779214513166414 0 0 0 0
4780656 0.005633836805540351 -0.0020965288576732994 0.0006668560061206815 -0.00047880554337175927 0 0 0 0
4813602 0.005709656161328532 -0.0021260922698966827 0.0006805468770588641 -0.0004738384083421135 0 0 0 0
4846548 0.005607751719261956 -0.0020011438129502995 0.0006709695151018035 -0.00043303780986335487 0 0 0 0
4879494 0.005679613045998611 -0.0019804799499031226 0.0006729707631562807 -0.0004233646665316705 0 0 0 0
4912440 0.005702439864815958 -0.002076702323841874 0.0006744265542862666 -0.0004176940583056025 0 0 0 0
4945386 0.005741047451052406 -0.0020409213329512736 0.0006790149930862743 -0.0004314381196482846 0 0 0 0
4978332 0.0056906606652625 -0.001859626276942606 0.0006622396365446381 -0.00043217127466572264 0 0 0 0
5011278 0.005753971107214594 -0.001986630997108278 0.0006743369053032222 -0.00042137643981487457 0 0 0 0
5044224 0.005780277648893509 -0.0020069081410341617 0.0006644319381477502 -0.00041713372139878465 0 0 0 0
5077170 0.005786957483246856 -0.0018825363891463128 0.0006824744524872868 -0.00037973324277525627 0 0 0 0
5110116 0.005647072288503417 -0.0018370151443219886 0.0006866860245078837 -0.0003858306654941864 0 0 0 0
5143062 0.005648386106957818 -0.0018579005798324312 0.0006777133869973862 -0.00036212156879128726 0 0 0 0
5176008 0.005726180371343036 -0.0018209398985539005 0.0006517023845377343 -0.0003391842176262969 0 0 0 0
5208954 0.005729060973674542 -0.0018330332241254452 0.0006456617095123282 -0.00037942357951082994 0 0 0 0
5241900 0.005832495879722918 -0.0017870825197638153 0.0006493811585007503 -0.00034310618666343973 0 0 0 0
5274846 0.005865477182334358 -0.0018434240337430994 0.0006711028633247486 -0.0003068963218478965 0 0 0 0
5307792 0.005881130885404469 -0.0018671304555470088 0.0006404513536065631 -0.0003314248006921631 0 0 0 0
5340738 0.005921988974464675 -0.001780890925961814 0.0006722173153695636 -0.0003321846694958141 0 0 0 0
5373684 0.005886441499112438 -0.001781435208063238 0.0006578309982196634 -0.00030735782157409507 0 0 0 0
5406630 0.005918503391535647 -0.001776891615894602 0.0007098403700333254 -0.00029589604809287796 0 0 0 0
5439576 0.006017340504967024 -0.0017977283760291828 0.0006700961496586622 -0.000322244865701113 0 0 0 0
5472522 0.005904550885317574 -0.0017495221132397295 0.0006622126680401364 -0.0002870690996883842 0 0 0 0
5505468 0.005904477970256824 -0.0018113129712006074 0.0006504431489362613 -0.0002919073910613587 0 0 0 0
5538414 0.005981486071238849 -0.0018464678662044503 0.0006755263018289426 -0.0002679486367731563 0 0 0 0
5571360 0.005849672829529179 -0.0017960718984637739 0.0006548706770846592 -0.0002717594975102581 0 0 0 0
5604306 0.005874014387780575 -0.0017113199968414544 0.0006755164711729872 -0.00028362008354860293 0 0 0 0
5637252 0.006024832692522448 -0.001772068305182361 0.0006474289502773436 -0.0002636265963598384 0 0 0 0
5670198 0.005983156879004717 -0.001821617132511145 0.0006570237711454511 -0.00025206500507988475 0 0 0 0
5703144 0.005999298311100821 -0.0018294141049340557 0.0006683178528666775 -0.00025052549572660503 0 0 0 0
5736090 0.006011099003863398 -0.0017700302540041121 0.0006801360071624653 -0.0002366053114929375 0 0 0 0
5769036 0.006019198041374428 -0.0017677048689713607 0.0007094725719291395 -0.0003008142434286623 0 0 0 0
5801982 0.006191013760754507 -0.001906574072685583 0.0006485261402554681 -0.0002805211033334208 0 0 0 0
5834928 0.006116948498239885 -0.0017665673535433336 0.0006869419479369385 -0.00023558415029138519 0 0 0 0
5867874 0.006086629780088675 -0.0017380035285089546 0.0006499674703963139 -0.00021113433707979634 0 0 0 0
5900820 0.006054909066086679 -0.001737216695100966 0.0006840705601642869 -0.00017650775402956343 0 0 0 0
5933766 0.006087612342647692 -0.0017160308110755807 0.000660318496933891 -0.0002309979194209362 0 0 0 0
5966712 0.006089270746124511 -0.0016699345279515704 0.0006742809296681442 -0.00020255610496462808 0 0 0 0
5999658 0.006059359012702096 -0.0017565690761119721 0.000676129561423394 -0.00019419470404388528 0 0 0 0
6032604 0.006352028600146569 -0.0018233107122152725 0.0006762746151527995 -0.000228836345237104 0 0 0 0
6065550 0.006155914894778886 -0.001760686287218264 0.0007203382564047795 -0.0001990865159777593 0 0 0 0
6098496 0.006112193514642744 -0.00153900187136954 0.0006867127982300208 -0.00018015867500865393 0 0 0 0
6131442 0.006195813580144769 -0.001686475643200807 0.0006898556597339597 -0.00018484718139104826 0 0 0 0
6164388 0.006140820696906703 -0.001715993403738595 0.0006914409259412484 -0.00016285207015910894 0 0 0 0
6197334 0.006196984671156497 -0.0017261221058795318 0.0007070471809321042 -0.00014772050240200677 0 0 0 0
6230280 0.006299799554273249 -0.0016867429173117233 0.0007024643956463423 -0.00015766615865486883 0 0 0 0
6263226 0.006262627227894519 -0.0016923975213375987 0.000690169123551797 -0.00016075455387179572 0 0 0 0
6296172 0.006315286053641174 -0.0015923209767606224 0.0006811525950689802 -0.0001791247912411981 0 0 0 0
6329118 0.006286126106456902 -0.0018250178262217496 0.0006914763225537725 -0.00017035564981571195 0 0 0 0
6362064 0.006262030879130375 -0.0016497452862839364 0.0007124214196287848 -0.00016489319610684303 0 0 0 0
6395010 0.006332798067055768 -0.0017279011726527044 0.0006648830969246655 -0.00016361894678720837 0 0 0 0
6427956 0.006256776389473908 -0.001716227954975559 0.000726910910657188 -0.00014942135616935812 0 0 0 0
6460902 0.006236054407083337 -0.0017676549556269626 0.0007274216603900187 -0.00013571121925300258 0 0 0 0
6493848 0.00635729725738486 -0.0016812826874431097 0.0007051948712300011 -0.00013438066451460233 0 0 0 0
6526794 0.00638567729055311 -0.0017765280654690359 0.0007051598027898944 -0.00013761744833388475 0 0 0 0
6559740 0.006267935162298779 -0.0017144293751184439 0.0006961099810956785 -0.00010833300483199421 0 0 0 0
6592686 0.006415934976273415 -0.0017556262092154203 0.0007205486261873287 -0.0001446778911556221 0 0 0 0
6625632 0.006467127026519381 -0.0017213169717203148 0.0006899376071678475 -0.00012006786376097107 0 0 0 0
6658578 0.006441766641456421 -0.0017275996522284791 0.0007214839926223303 -8.9409526928122e-05 0 0 0 0
6691524 0.006383917882074514 -0.0017974233415104467 0.0007135933042679113 -0.000102293720855332 0 0 0 0
6724470 0.006412178914404892 -0.0017542724757942908 0.0007078769258194841 -0.00011046472005881023 0 0 0 0
6757416 0.006369925858103811 -0.0016935396618536064 0.0007357904691932004 -9.875252668901656e-05 0 0 0 0
6790362 0.006539817919254329 -0.0018029896011563667 0.0007499252486457416 -0.00011915122139047094 0 0 0 0
6823308 0.006630422062485845 -0.0017512998940936407 0.0007014108567098398 -0.00010905953231298177 0 0 0 0
6856254 0.006455366956575266 -0.0018097217438875963 0.0006736582529078175 -0.00010245967325680757 0 0 0 0
6889200 0.006529069899107841 -0.0017172268531239806 0.0007268297561207769 -5.21803142333078e-05 0 0 0 0
6922146 0.006520572486773096 -0.001663694465568674 0.0007196791174324499 -6.91053975739512e-05 0 0 0 0
6955092 0.006590766447117061 -0.0016361673820578496 0.0007671855071895292 -8.392349183018078e-05 0 0 0 0
6988038 0.006594289751145941 -0.0016500530850931804 0.0007292406998370205 -8.375379626929563e-05 0 0 0 0
7020984 0.006641707760011283 -0.0017380276278741854 0.0007272071577944068 -8.048682271419598e-05 0 0 0 0
7053930 0.006613206061306575 -0.001676330749251849 0.0007461051154605492 -6.710925525946649e-05 0 0 0 0
7086876 0.006632896868454081 -0.0017462785693232888 0.0007032856582190792 -5.98793488437319e-05 0 0 0 0
7119822 0.006570157533010485 -0.0016614581683979186 0.0007313848680498222 -7.10384471205003e-05 0 0 0 0
7152768 0.0066009982124672845 -0.0016896362520184584 0.0007308267712292246 -4.0748382889586055e-05 0 0 0 0
7185714 0.006626200607841442 -0.0016663953195024139 0.0007543182315122581 -8.621455168758937e-05 0 0 0 0
7218660 0.0066820793935241235 -0.0017813185789291896 0.0007524939331313373 -3.845095432333591e-05 0 0 0 0
7251606 0.006693843898947665 -0.0017229395575445619 0.0007040181806373569 -7.335386987908745e-05 0 0 0 0
7284552 0.006704202077205279 -0.0018359912758427648 0.0007267895494978609 -5.7432720687642446e-05 0 0 0 0
7317498 0.006684846021429561 -0.001750110409117125 0.0007349710281216581 -5.5985920938675404e-05 0 0 0 0
7350444 0.006722108452378463 -0.00184479619953809 0.0007190374810973185 -5.5922794324752096e-05 0 0 0 0
7383390 0.006697728488453089 -0.001850121993164457 0.0007414143985958284 -6.284813720466556e-05 0 0 0 0
7416336 0.006809126477336853 -0.00185596836547275 0.0007377484593752723 -2.8877010921746405e-05 0 0 0 0
7449282 0.006772689469834671 -0.0017694110060350607 0.0007550200415727608 -7.08110957206884e-05 0 0 0 0
7482228 0.006773065373495694 -0.001847677651445602 0.0007661730167984475 -1.2907384612048378e-05 0 0 0 0
7515174 0.0067862688428756285 -0.0017993189882683162 0.0007460823784339287 -3.297303801030839e-05 0 0 0 0
7548120 0.006763657136494968 -0.0018052167288901363 0.0007399039209423512 -6.029862097019751e-05 0 0 0 0
7581066 0.0067624288950929165 -0.0018648954530420265 0.0007443870986256572 -5.990857004988386e-06 0 0 0 0
7614012 0.006803634826746568 -0.0018388935486880265 0.0007435922596632682 -2.05267592023347e-05 0 0 0 0
7646958 0.006770812590704749 -0.0018389612643804967 0.0007587943108039928 -1.1460112191972318e-05 0 0 0 0
7679904 0.006811984142542195 -0.0018607905948451152 0.0007580631535303782 -4.4252552351105944e-05 0 0 0 0
7712850 0.00683244710110933 -0.0018078875791551644 0.0007578046527068657 -2.864084577909168e-05 0 0 0 0
7745796 0.006890257349893285 -0.001892625977029138 0.0007285377684173914 -2.452585294835272e-05 0 0 0 0
7778742 0.006832372083017638 -0.0018973276487192505 0.000718546525984437 -3.4388402069298716e-05 0 0 0 0
7811688 0.006969963383324895 -0.0019265895271096804 0.0007683130115664593 -5.15730444375506e-05 0 0 0 0
7844634 0.006914978167006001 -0.001929163844275188 0.000755110127460421 -4.569733971451846e-05 0 0 0 0
7877580 0.0069677613381678855 -0.0019619784811511854 0.0007445944627494088 -2.0077415289890714e-05 0 0 0 0
7910526 0.00688929627068324 -0.0018739045456918617 0.000736347537317619 -1.3318170549508788e-05 0 0 0 0
7943472 0.006944860317344318 -0.0019199625315777138 0.0007479468993628553 -4.034330187841077e-05 0 0 0 0
7976418 0.006975549840041963 -0.001924623590119497 0.000761804757256629 -4.746064489002027e-05 0 0 0 0
8009364 0.007050267398374798 -0.0019795676715374374 0.0007770998161847572 -6.921051461496722e-07 0 0 0 0
8042310 0.006969209869165964 -0.002062223650102581 0.0007661626081521705 6.016437190887936e-06 0 0 0 0
8075256 0.007129248487122748 -0.0020022331390279987 0.000762695306315581 -1.4750563755926556e-05 0 0 0 0
8108202 0.007024133800270495 -0.001942921907035213 0.0007741011410556807 -3.5784835384353177e-06 0 0 0 0
8141148 0.007061247242669333 -0.0019313592850991994 0.0007548483670539299 -2.511247845618931e-05 0 0 0 0
8174094 0.007118085635581377 -0.0020031629567255796 0.0007609318334248363 -9.41370205839704e-06 0 0 0 0
8207040 0.007093193776567855 -0.001964222411633743 0.0007565987520214486 1.267040962307992e-05 0 0 0 0
8239986 0.007238454227965442 -0.002064017336051652 0.000803246137727809 3.353712720263728e-05 0 0 0 0
8272932 0.007142141505559021 -0.002008748284409548 0.0007770375466176465 5.842062259381929e-06 0 0 0 0
8305878 0.00701313382962685 -0.0019410927967307395 0.0007588807171494333 1.4298482470039898e-05 0 0 0 0
8338824 0.007084007669865663 -0.0020352621410163565 0.0007748607934062251 1.0564588814973932e-05 0 0 0 0
8371770 0.007041076874358453 -0.0020591322174186933 0.0007695455075762233 -1.6682712102545842e-05 0 0 0 0
8404716 0.007128547279344241 -0.002082381370193404 0.0007793511862481371 1.2640586883774872e-05 0 0 0 0
8437662 0.007278285769572183 -0.002170185178286481 0.0007798114704516001 2.564046827059652e-05 0 0 0 0
8470608 0.007303435020493546 -0.0021342123608014524 0.0007624235753656915 3.377967642370122e-05 0 0 0 0
8503554 0.0071719978905903 -0.002012395921998284 0.0007651717551553783 1.816145498232574e-05 0 0 0 0
8536500 0.007206663636313209 -0.002108427219017946 0.0008050966832675877 1.7752162769759726e-05 0 0 0 0
8569446 0.007187204631276518 -0.001962243596149609 0.0007723443758544695 1.4126792258840145e-05 0 0 0 0
8602392 0.0072013881440110405 -0.002196494068096158 0.0007875581782846023 3.815192242879877e-05 0 0 0 0
8635338 0.0072398526425992635 -0.002220481084739445 0.0007893981510970596 1.1210711029368997e-05 0 0 0 0
8668284 0.007257771468250461 -0.0022272915336583685 0.0007925048010198034 6.150348378037618e-05 0 0 0 0
8701230 0.007300231772322046 -0.002090524508202333 0.0007720790643890376 1.410638657382959e-05 0 0 0 0
8734176 0.007274559928065777 -0.002094516558588325 0.0007668977865322888 2.1576598950947316e-05 0 0 0 0
8767122 0.007274378091468659 -0.00205924136363945 0.0007951450106539408 3.347021669962235e-05 0 0 0 0
8800068 0.00727233351204069 -0.0022481160652287413 0.0007588367792041464 3.370374205530391e-05 0 0 0 0
8833014 0.007300240847726304 -0.0022323595313980416 0.0007635652150153332 3.20179083633022e-05 0 0 0 0
8865960 0.007325194563384334 -0.002258495918133561 0.0008110496664964782 4.2515252556384594e-05 0 0 0 0
8898906 0.007345120193176398 -0.002167573860429005 0.0007689732963870777 4.418418848556542e-05 0 0 0 0
8931852 0.007313056817856677 -0.002248396092690989 0.0007784396274539941 4.443437771332022e-05 0 0 0 0
8964798 0.007422884805665653 -0.0022781785633964463 0.0007818116121306775 4.445945437267021e-05 0 0 0 0
8997744 0.0073340315611869844 -0.002380592908717682 0.0007736141531000416 5.8230540010030456e-05 0 0 0 0
9030690 0.00744805309557665 -0.0022748590903469753 0.0007661831237437879 4.112239920648808e-05 0 0 0 0
9063636 0.007420493092065342 -0.0022304920574500336 0.0007906443695030254 4.077910603459551e-05 0 0 0 0
9096582 0.007353511555530134 -0.0022098545425701063 0.0007665047922391606 7.962942236963504e-05 0 0 0 0
9129528 0.0073951661547123244 -0.002227312336164272 0.0007952089069592194 6.287527186795245e-05 0 0 0 0
9162474 0.007524210961653842 -0.002441575843542522 0.0007894581510333575 6.45677326651922e-05 0 0 0 0
9195420 0.007522983811764164 -0.0023875085475478235 0.0007884664749782442 6.204136750377546e-05 0 0 0 0
9228366 0.007535693333792999 -0.0023750894041005156 0.0007588929263216461 7.812766374080779e-05 0 0 0 0
9261312 0.007521498556829103 -0.0024167289821900788 0.0008023208799533785 6.963142165892106e-05 0 0 0 0
9294258 0.007459088248713411 -0.0024103140038847287 0.0007851920070184121 5.5786363175721556e-05 0 0 0 0
9327204 0.00743593762179459 -0.0023794941181209985 0.0007879266350257723 5.796365676378853e-05 0 0 0 0
9360150 0.007516824936426068 -0.0023855581351390144 0.0008005555962314299 5.010659896823165e-05 0 0 0 0
9393096 0.007527966034010715 -0.002368767235399473 0.0007971176014786815 5.9489543581837846e-05 0 0 0 0
9426042 0.007513203967031369 -0.002459412630879843 0.0008113365757181662 7.683631869076953e-05 0 0 0 0
9458988 0.007599597821856856 -0.0024556875099474447 0.0007662626431596533 8.512747382174613e-05 0 0 0 0
9491934 0.007650968539392288 -0.002395395632957258 0.0007906055447130363 8.289593340833161e-05 0 0 0 0
9524880 0.007582855114441062 -0.0024079123842915516 0.0008022787628587105 4.854536431311226e-05 0 0 0 0
9557826 0.007632446663043683 -0.002429708377389945 0.0008157469502522015 8.19046506089428e-05 0 0 0 0
9590772 0.007568433722270083 -0.002515761935074394 0.0007806779533334997 4.498007623180258e-05 0 0 0 0
9623718 0.0075782555830582405 -0.002599107215440452 0.0007952368487373103 5.797789959777555e-05 0 0 0 0
9656664 0.007670244747918818 -0.002517796474431494 0.0007949662057861062 6.034887751322734e-05 0 0 0 0
9689610 0.007641974111220757 -0.0025920924387836486 0.0007744161167818467 9.493845726994059e-05 0 0 0 0
9722556 0.007501138653681337 -0.0025599885401729125 0.0007989356600309022 8.241950841777632e-05 0 0 0 0
9755502 0.0076574981757267305 -0.0026113331126015426 0.0007867396785213282 8.91522051769126e-05 0 0 0 0
9788448 0.007637562949827395 -0.002572988614888744 0.0007773433171220304 9.432546178539438e-05 0 0 0 0
9821394 0.007674831426454751 -0.0026471900707544112 0.0008156819646911621 8.563846029686053e-05 0 0 0 0
9854340 0.007764511253539543 -0.0026373694784194023 0.0008307201582093806 7.308391817396446e-05 0 0 0 0
9887286 0.007690792489349908 -0.002665881761480243 0.0007913612235342218 8.115034809490203e-05 0 0 0 0
9920232 0.007635947294671832 -0.0026143409111983214 0.0008186243321062997 8.219133818241347e-05 0 0 0 0
9953178 0.007609906941443925 -0.0026149588186681746 0.0008149811751337435 0.00011283149044163911 0 0 0 0
9986124 0.007691989432513196 -0.002660645312342943 0.000771554812749592 0.00010804719564264238 0 0 0 0
10019070 0.007833711097913991 -0.0025915623337506104 0.0007860352515974735 9.988249050563439e-05 0 0 0 0
10052016 0.0078087055324261075 -0.0027512250714476047 0.0007940645780803127 8.019616408529363e-05 0 0 0 0
10084962 0.007721841683333503 -0.0027132371745371585 0.0007926174523148901 0.00011031894563823113 0 0 0 0
10117908 0.007713323527654329 -0.0026561162942164776 0.0007933566666115738 9.695498123707196e-05 0 0 0 0
10150854 0.007737730895860383 -0.0027893682767572026 0.0008001687551635081 7.743400865980851e-05 0 0 0 0
10183800 0.007744363499224514 -0.0027485605449734667 0.0007962272460458841 0.00011370941324732542 0 0 0 0
10216746 0.007831127619946263 -0.0027954574250801 0.0008218998540237992 0.00011213020541359985 0 0 0 0
10249692 0.007823357396879402 -0.0028768566099931976 0.0008097818916881185 0.00010227595316625429 0 0 0 0
10282638 0.007713270427241237 -0.0028068910909753264 0.0008178419521210262 0.00011548296563346497 0 0 0 0
10315584 0.007683095363001431 -0.002685727812760356 0.0008054955630660623 0.00011261752370182954 0 0 0 0
10348530 0.00783073188158693 -0.002808145226737267 0.000811684779729064 0.00010765749475623365 0 0 0 0
10381476 0.007735968108269294 -0.002953165748727113 0.0008089903439001126 0.00011685113113739769 0 0 0 0
10414422 0.007798098365947366 -0.002942706138769537 0.000818727933151494 0.00010355534018123845 0 0 0 0
10447368 0.007778098644825063 -0.002889051227450476 0.0007962846093855096 9.8935936353732e-05 0 0 0 0
10480314 0.007784300087481147 -0.002824362629792266 0.0008013380037586251 0.00010278694229802902 0 0 0 0
10513260 0.00782947433403357 -0.002898772872806819 0.0008050873317879428 9.234517809659192e-05 0 0 0 0
10546206 0.007857845818742226 -0.002970545371895714 0.0008029295497855984 0.0001194672152436616 0 0 0 0
10579152 0.007839677323766153 -0.002999057636242007 0.0008097576190727254 0.0001058932456776339 0 0 0 0
10612098 0.0078485354562519 -0.0029386485345061606 0.0008254655426691701 0.00013498467768565824 0 0 0 0
10645044 0.007860327746461213 -0.0029586318916179975 0.0008219396841629202 0.00013377319704790375 0 0 0 0
10677990 0.007797622032144569 -0.0028625598014699236 0.0008236890760613092 0.00012945670430464462 0 0 0 0
10710936 0.007821040302288364 -0.0030497125208102187 0.0008272463132327835 0.00011305411160881365 0 0 0 0
10743882 0.008021637210777718 -0.0030757160856251806 0.0008002071023290263 0.00012812962628987092 0 0 0 0
10776828 0.007951722310904017 -0.0030051259045858294 0.0007922172271796734 0.0001400443958977591 0 0 0 0
10809774 0.007820380186310932 -0.0029559759164219965 0.0008140586633107532 0.000146576436328662 0 0 0 0
10842720 0.00780293852901569 -0.003022852621356835 0.0008305083103733057 0.0001367036086578194 0 0 0 0
10875666 0.00795959707506347 -0.0031226008052750707 0.0008162543419489304 0.00014963528125921623 0 0 0 0
10908612 0.007869887274958631 -0.0030377060040692127 0.0007855198701388907 0.00010748196992483467 0 0 0 0
10941558 0.008017007637262465 -0.003003759540474004 0.0008341124274869113 0.00013846851166597125 0 0 0 0
10974504 0.007923532452681679 -0.0031248949391117654 0.0007758388942854774 0.00012376838224306818 0 0 0 0
11007450 0.007849031559552338 -0.003094602864698502 0.0008032853406756866 0.0001433190871779372 0 0 0 0
11040396 0.007937165076837368 -0.0031119059223500417 0.0008382629744744695 0.0001383350289255252 0 0 0 0
11073342 0.007996161157413993 -0.003174505610018161 0.000822014039156541 0.00013911946066461116 0 0 0 0
11106288 0.00802929891507307 -0.0031410750726500675 0.0008094703709116781 0.00013385689410523585 0 0 0 0
11139234 0.008063654848344206 -0.003162264361437836 0.0008241673238705593 0.00013158044297814425 0 0 0 0
11172180 0.008115450996627478 -0.003255835851522544 0.0008345678627385601 0.00013712392218370967 0 0 0 0
11205126 0.008043545439885466 -0.0031820191263088877 0.0008429890177556656 0.00012847530136973547 0 0 0 0
11238072 0.008065498071449646 -0.0032483949405727195 0.0007775559316715704 0.00013999968885986013 0 0 0 0
11271018 0.00796031213703114 -0.003207204074183339 0.0008433558328769709 0.0001444989620250185 0 0 0 0
11303964 0.008008516140303136 -0.003410851718083318 0.0008652074586188244 0.00013528892103398192 0 0 0 0
11336910 0.008036840154806492 -0.003290705615075833 0.0008421834683071521 0.00013367774470489133 0 0 0 0
11369856 0.008045519600417215 -0.003287512653753803 0.0008651057076031144 0.00015565484495788068 0 0 0 0
11402802 0.00814336484354519 -0.0033318144858030772 0.0008433933028909031 0.00013987172839413149 0 0 0 0
11435748 0.008166608386306956 -0.003395649828591754 0.000844011820065386 0.0001591605192475009 0 0 0 0
11468694 0.008026208333411925 -0.0033481956958112224 0.000820882215045926 0.00013568837958194256 0 0 0 0
11501640 0.008066855923579787 -0.0034945336398183083 0.0008376251003345262 0.00012965575139899828 0 0 0 0
11534586 0.008048579765876888 -0.0034348642217583727 0.0007921796489895851 0.00012839791212664433 0 0 0 0
11567532 0.008145613586117949 -0.0033861793970087757 0.0007955286080486308 0.0001690021189545312 0 0 0 0
11600478 0.00816672662334507 -0.0034247445893576377 0.0008056587803575555 0.0001695773567863442 0 0 0 0
11633424 0.008119716826812808 -0.003455634588915088 0.000810366656750097 0.00016252014602697356 0 0 0 0
11666370 0.008129074791381431 -0.003418350132232208 0.0007761733960463288 0.00015452306416828277 0 0 0 0
11699316 0.00808783700181067 -0.0034676867907039426 0.0008343433378578825 0.00016983276789371318 0 0 0 0
11732262 0.008040299096633277 -0.0034728460645111455 0.0008310318603194989 0.0001644125587830748 0 0 0 0
11765208 0.008196393782553652 -0.003551837730964985 0.0008452851152660341 0.00014253477197237653 0 0 0 0
11798154 0.008154647484087167 -0.0035372617137017495 0.0008526804419831163 0.00015833831409397427 0 0 0 0
11831100 0.008090134081067074 -0.003533430959962289 0.0008175931093372774 0.00015065281610279334 0 0 0 0
11864046 0.00810393193539121 -0.0034708924465272867 0.0008366972477097705 0.00015717852029934035 0 0 0 0
11896992 0.008133989085517518 -0.0036100582747670253 0.0008410387220533455 0.00019016108851834977 0 0 0 0
11929938 0.008151499221629407 -0.0035707254100430593 0.0008155232292798837 0.00017643341054563518 0 0 0 0
11962884 0.008161772484268175 -0.00368994697059757 0.000824891302385859 0.00017475860496103305 0 0 0 0
11995830 0.00816533605590146 -0.0036670628424827854 0.0008294868381286138 0.00016117256953645829 0 0 0 0
12028776 0.008263242923489239 -0.0037186142938838464 0.0008370266932916822 0.0001846516442089126 0 0 0 0
12061722 0.008154946463493552 -0.0035755224363800183 0.0008492111568311275 0.00020198080972253977 0 0 0 0
12094668 0.00830626212680218 -0.003699471161771928 0.0008193660174313993 0.0001720312459671168 0 0 0 0
12127614 0.008125190011388965 -0.003597672782938847 0.0008294911245163273 0.000155276411733165 0 0 0 0
12160560 0.008108808298246317 -0.003564406002676528 0.0008584763779132337 0.00020027851582492655 0 0 0 0
12193506 0.008188203398672276 -0.003704628856838416 0.0008315354211147604 0.00018384424092418065 0 0 0 0
12226452 0.008167896873282008 -0.0036407782808206865 0.0008271527213855093 0.00018197768069566975 0 0 0 0
12259398 0.00826340621631366 -0.0037107913427496604 0.0008562090728960694 0.00018309573355306026 0 0 0 0
12292344 0.008141304132496113 -0.003668525863292578 0.0008526893060389148 0.00014992485794744964 0 0 0 0
12325290 0.008321900269691047 -0.0038328384310564977 0.0008659689846484438 0.00018804445762584404 0 0 0 0
12358236 0.008235952436689016 -0.0038472639814129904 0.0008231824553555567 0.00018493825222216259 0 0 0 0
12391182 0.008313294710826676 -0.003771715177525268 0.0008364034347117101 0.00017010987466477712 0 0 0 0
12424128 0.008312277435602203 -0.003870112571622892 0.0008557762775535333 0.0001586028466340923 0 0 0 0
12457074 0.008169473602908634 -0.003840947117434941 0.0008401841490155375 0.0001477833316468276 0 0 0 0
12490020 0.008209342842139646 -0.003888105436175979 0.0008231243073997961 0.00019417335314079174 0 0 0 0
12522966 0.008248722421699904 -0.003906120322863055 0.0008543600186904525 0.00017865141859959343 0 0 0 0
12555912 0.008199845840366466 -0.003848942498170154 0.0008534041958866343 0.00014344213052720024 0 0 0 0
12588858 0.00819096378131431 -0.0038245033038062444 0.00085078372508985 0.0001791739059205469 0 0 0 0
12621804 0.008376341775592615 -0.003989167046732342 0.0008298593957953318 0.00018060109791550796 0 0 0 0
12654750 0.0083276850056347 -0.003886758191756371 0.0008534000003226325 0.00020133464832960689 0 0 0 0
12687696 0.008289042023272143 -0.004001317393245532 0.0008490638056893985 0.00014534989331807714 0 0 0 0
12720642 0.008262754929965331 -0.003879062924689964 0.0008470494483280062 0.00015839930063279558 0 0 0 0
12753588 0.008254304728466978 -0.0039024624409719475 0.0008421909812699536 0.00020922074531867324 0 0 0 0
12786534 0.008235528568580952 -0.0040596756801757495 0.0008612050170046302 0.00017407452237597128 0 0 0 0
12819480 0.008261253673425938 -0.004011693705786788 0.0008370049215248933 0.00019304507211474734 0 0 0 0
12852426 0.008380837745031393 -0.004051456298276452 0.0008527439945583081 0.00021369750905019522 0 0 0 0
12885372 0.00839500065609092 -0.00405447620575825 0.0008466565131239124 0.00019805555753510417 0 0 0 0
12918318 0.008371135312178634 -0.004036018669486007 0.0008491935660865396 0.00021992288106321647 0 0 0 0
12951264 0.008259479643672693 -0.0040229852178013045 0.000847140157800588 0.00018533067967376967 0 0 0 0
12984210 0.008267729477585792 -0.004040562417435249 0.0008490719528017806 0.00020775308756424077 0 0 0 0
13017156 0.008256377467250416 -0.004129874595184379 0.0008493810122698569 0.00018616459716324713 0 0 0 0
13050102 0.008363136433651493 -0.004213428771443783 0.0008483991507955215 0.0001891789437716024 0 0 0 0
13083048 0.008441712019562087 -0.0041738136100550405 0.0008496737809986745 0.00019244820790635217 0 0 0 0
13115994 0.008373834763383648 -0.0041173409351052724 0.0008673481294359098 0.00020191784512348554 0 0 0 0
13148940 0.008358934512211725 -0.004187208060272484 0.0008637697616488164 0.0002084685103541569 0 0 0 0
13181886 0.008389901597450384 -0.004202562759026781 0.0008589788841155141 0.00018853248908284163 0 0 0 0
13214832 0.008499963531742654 -0.004238205201038061 0.0008522714787789127 0.0001956055197751645 0 0 0 0
13247778 0.008307401204274124 -0.0042415534169132265 0.000888769027928109 0.00019378378911161153 0 0 0 0
13280724 0.008383709604542705 -0.004259811009584069 0.0008643231871498418 0.00022895186418535421 0 0 0 0
13313670 0.008448580578174181 -0.004161488239315604 0.000865503513342828 0.0002041274949676639 0 0 0 0
13346616 0.008449574482136579 -0.004252267134526368 0.0008637347960518131 0.00019027487676354264 0 0 0 0
13379562 0.008279642501184847 -0.004327555000823655 0.0008673824252928383 0.00020567194141736904 0 0 0 0
13412508 0.00835836451131901 -0.004247019238241271 0.0008711726520968374 0.00021953160697991947 0 0 0 0
13445454 0.008323762988168233 -0.004323076433824583 0.0008482357923599543 0.0002086892042904243 0 0 0 0
13478400 0.008315936977896203 -0.00435532159069804 0.0008597269260902386 0.00021052964078901545 0 0 0 0
13511346 0.008428805175981404 -0.0043536456487854895 0.0008696234707524572 0.0002106092517687192 0 0 0 0
13544292 0.008343214188915555 -0.004382292941478073 0.0008671854154034303 0.0002093574886097582 0 0 0 0
13577238 0.008513006860718918 -0.004372500666331649 0.0008287988745004434 0.00019653954149930424 0 0 0 0
13610184 0.008483471559381135 -0.004317598695390755 0.0008582034619358142 0.00022052903832607318 0 0 0 0
13643130 0.008444855136928468 -0.004434982521373029 0.0008561651046217348 0.00018976557834053765 0 0 0 0
13676076 0.008509810172092753 -0.004467367991045511 0.0008705215432951838 0.00020905618922387035 0 0 0 0
13709022 0.00846299685576431 -0.004503387616059898 0.0008531758170457059 0.00021777527590711597 0 0 0 0
13741968 0.008435457196168157 -0.004405234578441688 0.0008534391596720627 0.00022168922564520742 0 0 0 0
13774914 0.008436324515477918 -0.004521135304791687 0.0008677061419431666 0.00018232123533477211 0 0 0 0
13807860 0.008408084287166676 -0.0044711573220136925 0.0008455105502778035 0.0002381767790895401 0 0 0 0
13840806 0.008441991496200582 -0.004548822331388093 0.0008687993382071895 0.00021595510306682638 0 0 0 0
13873752 0.008440000758046271 -0.0045660422723553355 0.0008547230387632938 0.0002191641939484439 0 0 0 0
13906698 0.008420767676961592 -0.004555669184641528 0.0008610347242611617 0.00022074348911857748 0 0 0 0
13939644 0.008444727185855035 -0.004566783970648433 0.0008813250565753148 0.00022686861119590988 0 0 0 0
13972590 0.00840552264587386 -0.004627155953356299 0.0008857617588286632 0.00021387238009747432 0 0 0 0
14005536 0.008483898940287353 -0.004531026616734373 0.0008648936305530747 0.00022549926784405902 0 0 0 0
14038482 0.008519478153552973 -0.00463576795975291 0.000898971222318445 0.000212951512756762 0 0 0 0
14071428 0.008566491972062346 -0.0046022602133260985 0.0008435492803521686 0.00019568964183419506 0 0 0 0
14104374 0.008502464935881698 -0.004643339983825996 0.0008749596830028122 0.00021973651160727493 0 0 0 0
14137320 0.008452762284933957 -0.004655777022426746 0.000875480862549799 0.00020365354293135448 0 0 0 0
14170266 0.008489300256469915 -0.00469356991130034 0.0008816425001063646 0.0002330894000234278 0 0 0 0
14203212 0.008423398705122629 -0.004655531994471041 0.0008833100261896502 0.00021780725189667966 0 0 0 0
14236158 0.008534172785156975 -0.004736451577483282 0.0008553687729733419 0.00021432220944387118 0 0 0 0
14269104 0.008481994373339978 -0.004749390902355562 0.0008715949864354258 0.00022650453752799728 0 0 0 0
14302050 0.00857791470869432 -0.004704238896171457 0.0008856200053030804 0.00024017006998639138 0 0 0 0
14334996 0.008520128048722845 -0.0047208072172370994 0.0008380862580586263 0.00022265054674252315 0 0 0 0
14367942 0.008487364251324661 -0.004785080102085283 0.0008720534794066226 0.0002342258542829934 0 0 0 0
14400888 0.008515656686857357 -0.004805303077761784 0.0008724742659192232 0.00023459587892840547 0 0 0 0
14433834 0.008561371341760288 -0.004907857836485411 0.000898114729726494 0.00024825330468475094 0 0 0 0
14466780 0.008525623328706829 -0.004848335079194028 0.0008792542308476011 0.0002310562677164348 0 0 0 0
14499726 0.00857243530197517 -0.0048920045457509385 0.0008718387749954258 0.0002501084250202868 0 0 0 0
14532672 0.008628510111191012 -0.0048656115213374365 0.0008766349621218485 0.00025439709939965833 0 0 0 0
14565618 0.008540911674457105 -0.004886730302665581 0.0008906124121661199 0.0002513392825012628 0 0 0 0
14598564 0.008542243384157657 -0.004801863552059991 0.0008669680587399638 0.00026126975398565625 0 0 0 0
14631510 0.008552683566228545 -0.004903669604241046 0.0008980226509445995 0.000221447842162225 0 0 0 0
14664456 0.008507938200646405 -0.0049364919092310415 0.0008988793903338986 0.00021443417876730692 0 0 0 0
14697402 0.008497704383777874 -0.004849368626864077 0.0008654011330486213 0.00023788074335667184 0 0 0 0
14730348 0.008488738137194375 -0.004911069269837519 0.0008676131557880563 0.00026120757007397333 0 0 0 0
14763294 0.008597531927193796 -0.004956867712530783 0.0008998666334715677 0.00024020985130001992 0 0 0 0
14796240 0.008562889545669061 -0.005036839399131568 0.0008731903930389328 0.00024120169817230884 0 0 0 0
14829186 0.008543395054898938 -0.004981746706591177 0.0008747828304103732 0.0002421305624297355 0 0 0 0
14862132 0.008548206566593561 -0.005038604043305003 0.0008568639901530879 0.00023345951639683332 0 0 0 0
14895078 0.008581068846097993 -0.005079257475044298 0.0008792273163427688 0.00023237760595399935 0 0 0 0
14928024 0.008562197384140205 -0.005036237771660914 0.0008851769751943209 0.00025798157167171854 0 0 0 0
14960970 0.00858743328646564 -0.005036632156799917 0.0008934305210656457 0.00026712849904053236 0 0 0 0
14993916 0.008675447334908349 -0.005068984709347216 0.0008829780093701828 0.00027533105025166077 0 0 0 0
15026862 0.008546676061456026 -0.005117000800356049 0.000877674159951608 0.0002591455602212101 0 0 0 0
15059808 0.00854085245894545 -0.005092618475314016 0.0008920117754809011 0.00023521241599602506 0 0 0 0
15092754 0.008583400938232998 -0.005207006859772953 0.0008532486689873012 0.00024407347184469386 0 0 0 0
15125700 0.008618870398161246 -0.005164256506677341 0.0008619335191462319 0.00024321577431407515 0 0 0 0
15158646 0.008556118218249337 -0.005109948744584354 0.0008921459426329546 0.0002417461593929515 0 0 0 0
15191592 0.008652384053564806 -0.0051698953680422615 0.0008931705833399906 0.0002592130520730131 0 0 0 0
15224538 0.00864853059504673 -0.005251367476868566 0.0008874239437333007 0.0002714976222965301 0 0 0 0
15257484 0.008504447377789506 -0.005180031595369382 0.0008949669915589909 0.00023714218646516815 0 0 0 0
15290430 0.008599425786114992 -0.005327213517266409 0.0008987300871933004 0.00026949946850405194 0 0 0 0
15323376 0.008646241547772025 -0.00527371920684769 0.0008711101734706903 0.00025211129311464384 0 0 0 0
15356322 0.008654932775378247 -0.0052161705318118316 0.0008967560024634979 0.000248500165704968 0 0 0 0
15389268 0.008564690658565414 -0.005326918607590858 0.0008646326181556838 0.00026094539102487557 0 0 0 0
15422214 0.008655674566415226 -0.00524974521495362 0.0009325092989064971 0.00024060882179251428 0 0 0 0
15455160 0.008616453188190272 -0.005223096907224471 0.0008836141169822393 0.0002629472435889873 0 0 0 0
15488106 0.008719550452225727 -0.005319595719879984 0.0008801547490968679 0.00028405278736133897 0 0 0 0
15521052 0.008603663054004881 -0.005426599681095793 0.0008780479382891936 0.00025056912332571517 0 0 0 0
15553998 0.00861032164838853 -0.005296409951301161 0.0009157920716367119 0.0002672948452883735 0 0 0 0
15586944 0.008681560684304715 -0.005344385585559491 0.0008842595795683097 0.000269733432544603 0 0 0 0
15619890 0.008709543476672662 -0.005344581543729062 0.0009004533504849313 0.0002698376614598004 0 0 0 0
15652836 0.008621671169574444 -0.005404224594353143 0.0008658055638687751 0.000280259859560136 0 0 0 0
15685782 0.008551615048552475 -0.005438374457482126 0.0008663466816329989 0.00023687950860361051 0 0 0 0
15718728 0.008665705772942539 -0.005470877914687579 0.0008478115132518374 0.00030135625049803515 0 0 0 0
15751674 0.008631150036211479 -0.005420685289770978 0.0010041399910390516 0.0002679420798362927 0 0 0 0
15784620 0.008682845235765235 -0.0054803202379517454 0.0008884937038489128 0.00042380840168750755 0 0 0 0
15817566 0.0086106428287332 -0.005525422763676518 0.0007003079534997572 0.00031186526363415247 0 0 0 0
15850512 0.008670199285487616 -0.005504013967942138 0.0009520249363663183 0.0002716957648562083 0 0 0 0
15883458 0.008721378509681528 -0.005434242960807759 0.0009143242557942891 0.00029685536307562453 0 0 0 0
15916404 0.008615205825664935 -0.005608599065296526 0.0007294473396132491 0.0003775575474197913 0 0 0 0
15949350 0.008694243966282973 -0.005519744716998004 0.0008978226616063003 0.0002997979162745769 0 0 0 0
15982296 0.008731359746421193 -0.005623927842424214 0.0008941899051998396 0.0002656730912108076 0 0 0 0
16015242 0.008635837201229193 -0.005581529636301967 0.0008997565268067837 0.0002676283647631988 0 0 0 0
16048188 0.008672244495940689 -0.005562654030299576 0.0009167123361624811 0.0002468135091327652 0 0 0 0
16081134 0.008632658917453687 -0.005588020828829845 0.0008723822731356118 0.000299786762915528 0 0 0 0
16114080 0.008768263782018433 -0.005646491262680417 0.0009161180765132798 0.00025165784420024825 0 0 0 0
16147026 0.008693828226003357 -0.0055861592588072806 0.0009152969123351734 0.0002655448939617676 0 0 0 0
16179972 0.00866227825932291 -0.005688519157872917 0.0009081252663753329 0.00025618657751590515 0 0 0 0
16212918 0.008692094352507696 -0.005726104402257185 0.0009007048391304387 0.0002750203741691639 0 0 0 0
16245864 0.008664718512421125 -0.005760323740252786 0.0009026164591122445 0.00025248864014881307 0 0 0 0
16278810 0.008698972081885265 -0.005657692043903972 0.00090732400997652 0.00027583855938646975 0 0 0 0
16311756 0.008731576989018925 -0.005722904388214457 0.0008743083165890515 0.0002899426880406126 0 0 0 0
16344702 0.008681050488413854 -0.005759027465872029 0.0009202996298579735 0.0003150837189288368 0 0 0 0
16377648 0.008694874268650515 -0.005786658591454904 0.000887785565887256 0.0003123739489995629 0 0 0 0
16410594 0.008705924878917524 -0.005774344497847086 0.0008755640198881224 0.00026886789959762095 0 0 0 0
16443540 0.00881602580366179 -0.005802776434822371 0.0009300014551891682 0.00028403365740184205 0 0 0 0
16476486 0.008634573445993556 -0.005845861109772162 0.0009260796423168122 0.0003022359453386278 0 0 0 0
16509432 0.008691580237400487 -0.0058025702738502966 0.0008895439908363464 0.00030368462112779403 0 0 0 0
16542378 0.008781854809170483 -0.0058347758551888845 0.0009004607360805005 0.0002960647736259604 0 0 0 0
16575324 0.008703599486442757 -0.0058176239325613294 0.0008921951938146013 0.00029049357884428095 0 0 0 0
16608270 0.00878011455799579 -0.00585099244187813 0.0009087278716159437 0.00031631470125563613 0 0 0 0
16641216 0.008764323149101798 -0.005913882023067166 0.0008983079907900962 0.00029915188970921027 0 0 0 0
16674162 0.008789249143577616 -0.0058190892646628935 0.000915559000732946 0.00030150408868629113 0 0 0 0
16707108 0.009104447858163434 -0.005824713438772483 0.000903279948594611 0.00029605088392890995 0 0 0 0
16740054 0.008824257796465616 -0.0058856932399740745 0.0009256747901402093 0.0002912806856090007 0 0 0 0
16773000 0.008673601906910465 -0.005939485873871687 0.0009249555320639738 0.0003043408157345214 0 0 0 0
16805946 0.009023261951665383 -0.006110212803427421 0.0009091940630692071 0.00026656033908710995 0 0 0 0
16838892 0.008894805182470272 -0.0061035055292829364 0.0008962130083465463 0.00030325451897803864 0 0 0 0
16871838 0.00858566316601273 -0.00618917490614663 0.0009163663226686959 0.00033003760612256846 0 0 0 0
16904784 0.008725462450972568 -0.006081201700656335 0.000929185168434746 0.00030241364049269525 0 0 0 0
16937730 0.008814731404282202 -0.006090379761002748 0.0009090380691758016 0.0003097687061569789 0 0 0 0
16970676 0.00854210119803144 -0.005974879448175703 0.0008910493275202457 0.0002870778201328316 0 0 0 0
17003622 0.008808187541744145 -0.006066813145397192 0.0009174374456148086 0.00030352317892455853 0 0 0 0
17036568 0.00872852194629692 -0.0061272866893985235 0.0009020744956368209 0.00029769017418993074 0 0 0 0
17069514 0.008723341631820142 -0.005989842526321711 0.000926666531920291 0.00032505539174086895 0 0 0 0
17102460 0.008886838943659832 -0.0059711581585032165 0.000941900107297773 0.0003001377600588386 0 0 0 0
17135406 0.008747137898376648 -0.006089693175915185 0.0008831818515284728 0.00030980283410659036 0 0 0 0
17168352 0.008722361087413808 -0.006132016254835531 0.0009195102235010042 0.00029331712971211027 0 0 0 0
17201298 0.00878633889856321 -0.006168897635798526 0.0009106299895399099 0.0003007237574358976 0 0 0 0
17234244 0.008770419748520615 -0.006223609105485148 0.0009062577945199048 0.00027536450347123335 0 0 0 0
17267190 0.008729421869026116 -0.006211712672258314 0.0008993139174424768 0.00032744023138491884 0 0 0 0
17300136 0.008741494425142405 -0.006231965218779814 0.0009403103624538963 0.0003013700402552709 0 0 0 0
17333082 0.008796463792924392 -0.006210746920976585 0.0009079247970044632 0.0003088293880673134 0 0 0 0
17366028 0.008661927422671427 -0.0062298881732579066 0.0009077672674130365 0.00031856451385372413 0 0 0 0
17398974 0.008744974992380293 -0.005965158033986413 0.0009552843888020252 0.00029536673650165104 0 0 0 0
17431920 0.008701861792118671 -0.006156856943765774 0.0008891150533793977 0.00036182836746840186 0 0 0 0
17464866 0.008901417499451275 -0.006374083722605501 0.0007366897473168108 0.000438038655397345 0 0 0 0
17497812 0.008886789865333825 -0.006266629927656737 0.0009144584100565027 0.0003581534908496185 0 0 0 0
17530758 0.009088338084774357 -0.006417788179383029 0.0008479854371318648 0.000480807519620247 0 0 0 0
17563704 0.009079961395124877 -0.006322518056501202 0.0010773897082793844 0.0003390560008169189 0 0 0 0
17596650 0.008762894344861435 -0.0064534899478592535 0.0009535605607709368 0.0003335502340832267 0 0 0 0
17629596 0.008793858996952203 -0.006334013914535083 0.0010412878495991886 0.0002982455518842379 0 0 0 0
17662542 0.00884180159208427 -0.006492282834446228 0.0008589471461162903 1.161636741900206e-05 0 0 0 0
17695488 0.008594234223345909 -0.006336003818891998 0.0009353884381822267 0.00030266966364091825 0 0 0 0
17728434 0.008854154226140668 -0.006154165986896227 0.0009234645816675076 0.0003473475933223452 0 0 0 0
17761380 0.00878127435266592 -0.006478099656398874 0.0009471809111200823 0.0003288483187289186 0 0 0 0
17794326 0.008771601882777254 -0.006320549634969039 0.0009157666679163717 0.00029861075641954467 0 0 0 0
17827272 0.008891124385396675 -0.006470784539059092 0.0009318221737353756 0.00032671061992341444 0 0 0 0
17860218 0.008826270195590217 -0.006487750319371428 0.0009363115660515779 0.00032811845754439725 0 0 0 0
17893164 0.008858133238260237 -0.006540569926413656 0.0009355098000729523 0.0003489243104202598 0 0 0 0
17926110 0.008776863316140169 -0.006511608069580031 0.0009424212634212042 0.00035512985839340554 0 0 0 0
17959056 0.00888182958380938 -0.00650036103660207 0.0009278198847441435 0.0003294702460511469 0 0 0 0
17992002 0.008853210257773794 -0.006537937955158122 0.0009295916756030475 0.0003228936903516212 0 0 0 0
18024948 0.008825989644770648 -0.006596547243252994 0.000919318534221799 0.00031487650264113646 0 0 0 0
18057894 0.008799757584832658 -0.006609360166477067 0.0009461752951055014 0.00033632622922339414 0 0 0 0
18090840 0.00874424756880836 -0.006237761833760415 0.0009144934050631527 0.00030829452355762073 0 0 0 0
18123786 0.008770090998109784 -0.00662675002254703 0.0009405909782376621 0.00033075937554549647 0 0 0 0
18156732 0.008835518806660288 -0.006521622511411911 0.000898846840124708 0.0003436040327630812 0 0 0 0
18189678 0.00904361542508214 -0.006635625696980729 0.0009283664232917296 0.00031520172288580897 0 0 0 0
18222624 0.008993380374363138 -0.006925133177748635 0.0009034001321545937 0.00031734601007105606 0 0 0 0
18255570 0.00883474927327394 -0.007062767235852569 0.0009339885573477965 0.00033264431931737446 0 0 0 0
18288516 0.009010520232047951 -0.0067184426046470146 0.0008968512458605304 0.0003333527334902618 0 0 0 0
18321462 0.00885038751531966 -0.006654661624027022 0.0009276588701671597 0.0003425832692549239 0 0 0 0
18354408 0.009083409960176321 -0.006692304696406053 0.0009392920400865495 0.0003542721501722082 0 0 0 0
18387354 0.008548004360497461 -0.006881201061490095 0.0009257150527349697 0.000349817211560608 0 0 0 0
18420300 0.00881512502484474 -0.006743621326658406 0.000928221152260863 0.0003023995639109418 0 0 0 0
18453246 0.008834460757377803 -0.006660526456164084 0.0009081208663327768 0.0003441681980494285 0 0 0 0
18486192 0.008816779371383547 -0.006763272226347528 0.0009100671577930963 0.00033720845138328776 0 0 0 0
18519138 0.008905295108870451 -0.006801267636929612 0.0009222954989498893 0.000341002402331151 0 0 0 0
18552084 0.00891084608380909 -0.00681711824738996 0.0009226322083262108 0.0003256162192048275 0 0 0 0
18585030 0.008894637976411476 -0.006793580300334638 0.0009436111931814432 0.0003432875969720252 0 0 0 0
18617976 0.008856993089712132 -0.0067676577214109785 0.0009175545234456882 0.00034548784161710143 0 0 0 0
18650922 0.008907087519596136 -0.0068307369633447395 0.0009352383449507111 0.0003318647499867887 0 0 0 0
18683868 0.008886817766889776 -0.0068506417295092666 0.0009605844620098631 0.0003218829429990323 0 0 0 0
18716814 0.008911104453329686 -0.006776390803745298 0.000924284487861585 0.0003653559249761573 0 0 0 0
18749760 0.008864556686914162 -0.0068834326695098235 0.0009492755782618928 0.000369045772355963 0 0 0 0
18782706 0.008964978076601833 -0.0069154390644283635 0.0009505151384463328 0.00036920908940002347 0 0 0 0
18815652 0.00887668947360243 -0.006870210668181993 0.0009511748515411594 0.0003297295967599924 0 0 0 0
18848598 0.008913668924246616 -0.00691506159968323 0.0009323205097041305 0.0003463211482573781 0 0 0 0
18881544 0.008949765056812865 -0.006932592518444261 0.0009329411990944425 0.00035832661704774245 0 0 0 0
18914490 0.008818953218569093 -0.006979722288194893 0.000935533364711733 0.0003703261826114289 0 0 0 0
18947436 0.00888436891284744 -0.0069951565277636294 0.0009290085429870862 0.0003512265043276445 0 0 0 0
18980382 0.008966234465106271 -0.007053200455091905 0.0009367950830337983 0.0003540319114922372 0 0 0 0
19013328 0.008851958354429411 -0.006998934986253985 0.0009399745851329709 0.0003658247820280776 0 0 0 0
19046274 0.008909121315910856 -0.006946752847276602 0.0009342055339867873 0.0003582542004306131 0 0 0 0
19079220 0.008878073085575375 -0.006990293583781193 0.0009187668654811579 0.0003680213947741302 0 0 0 0
19112166 0.008897874916630624 -0.007061044707228117 0.000910233979567269 0.00037295304834349477 0 0 0 0
19145112 0.008950334446884083 -0.007128766572067239 0.0009360969252496069 0.0003606911244238551 0 0 0 0
19178058 0.008855031339667275 -0.007113599148246077 0.000952189896925516 0.0003561248305680158 0 0 0 0
19211004 0.00891507550173463 -0.007064286832234213 0.000909942384833971 0.00035700898939876254 0 0 0 0
19243950 0.008903926373115729 -0.007111167446077199 0.0009381918955007219 0.0003608629182925379 0 0 0 0
19276896 0.008921780053010926 -0.007196783972494981 0.0009483551715913532 0.00035181218624124125 0 0 0 0
19309842 0.00888457374507035 -0.007154229468252793 0.000932415544078919 0.0003565274853017706 0 0 0 0
19342788 0.008902678177192737 -0.007137655271836943 0.0009707301415287517 0.0003426841508538871 0 0 0 0
19375734 0.008824833604038525 -0.007180368115853453 0.0009570283340191332 0.0003451894695059999 0 0 0 0
19408680 0.00892735880354291 -0.007195896980733913 0.0009327606270658811 0.0003709888974336669 0 0 0 0
19441626 0.008917464695707325 -0.007273095496566689 0.0009414111245491173 0.0003707019908856578 0 0 0 0
19474572 0.008897003358300501 -0.007205234831028027 0.0009522918164520586 0.00036262920155335956 0 0 0 0
19507518 0.00894198230088176 -0.00715188621987553 0.0009221397514517162 0.0003786124347038025 0 0 0 0
19540464 0.008934618687428791 -0.007228845367676919 0.0009563654316023319 0.0003440116925835473 0 0 0 0
19573410 0.008899574609193045 -0.007262033955622934 0.0009216261089735781 0.0003492646318132538 0 0 0 0
19606356 0.008957959307326476 -0.007295709205751593 0.0009403931768988345 0.0003698490473692111 0 0 0 0
19639302 0.008917192634710155 -0.0073803089124698795 0.0009464045347474404 0.00036220940103338294 0 0 0 0
19672248 0.008943509913661243 -0.007320286366248668 0.0009520689504574848 0.00035897905858834006 0 0 0 0
19705194 0.008978642340022665 -0.00728081874973419 0.0009137962270434878 0.00038278704418852073 0 0 0 0
19738140 0.008895827650566474 -0.007416296145564541 0.0009364460993831723 0.00035441581900422795 0 0 0 0
19771086 0.009058013770886464 -0.007371585809493613 0.0009275253029250889 0.00035975686776365523 0 0 0 0
19804032 0.008841170034112965 -0.007380617376762894 0.0009354402643438161 0.0003585790176210178 0 0 0 0
19836978 0.008899101859679166 -0.007444897553213826 0.0009464223360650174 0.0003544852326576827 0 0 0 0
19869924 0.008901136492186611 -0.007358290902661727 0.0009686757847309805 0.0003336230563989796 0 0 0 0
19902870 0.008951284293308716 -0.007362321815731645 0.0009474098459901908 0.00039080966353339077 0 0 0 0
19935816 0.008985278547735778 -0.00745320127726277 0.0009435412133293509 0.00036488948819013184 0 0 0 0
19968762 0.008992670505070152 -0.00743268796646391 0.0009367885986862365 0.00040463972044555774 0 0 0 0
20001708 0.008956906458008266 -0.007438394133521919 0.0009469357605743559 0.00036813426018796644 0 0 0 0
20034654 0.008942952180746052 -0.007439640278509937 0.0009626905328354249 0.00036104285614500727 0 0 0 0
20067600 0.008998794881892844 -0.007503894318001904 0.0009624220119070347 0.000366682437380461 0 0 0 0
20100546 0.009001679869102344 -0.007475145605771393 0.000953999066117276 0.00036334479441137846 0 0 0 0
20133492 0.008928897187039545 -0.007548272463849545 0.0009645660857649463 0.0003736865609932812 0 0 0 0
20166438 0.009025689637453664 -0.007643884011657727 0.0009514075431570873 0.00037065958868294843 0 0 0 0
20199384 0.009000396571079502 -0.007563128840430441 0.0009403827212197025 0.00037481184475016014 0 0 0 0
20232330 0.00898506325280911 -0.00753958670649186 0.0009423269113068379 0.00038678222117615417 0 0 0 0
20265276 0.008919547618261829 -0.007574736183068869 0.0009424605710246812 0.0003943510609299661 0 0 0 0
20298222 0.008967213225298918 -0.007641655527627748 0.0009407808765104511 0.0003555557039369563 0 0 0 0
20331168 0.00898331328730258 -0.00767097242666086 0.000959549030734642 0.00037432773808911206 0 0 0 0
20364114 0.008990424602808089 -0.007660245514671521 0.0009776406874720713 0.00036946851820997094 0 0 0 0
20397060 0.009053831386361599 -0.007600394107376684 0.0009553795214352929 0.000378334367418828 0 0 0 0
20430006 0.008950113069583668 -0.0076751664272736945 0.0009636516458908809 0.000388077936514148 0 0 0 0
20462952 0.008990846306595938 -0.007718638441910773 0.000963309505619982 0.0003602513853101869 0 0 0 0
20495898 0.008961935963854938 -0.007700837999372953 0.0009394165845434885 0.0003937477854973491 0 0 0 0
20528844 0.009029643766212396 -0.007632475467959014 0.0009506320832085322 0.00038070327818333274 0 0 0 0
20561790 0.009079334818016671 -0.00769847697865275 0.0009659609529870956 0.0003867815660200915 0 0 0 0
20594736 0.008914450776281124 -0.007761532251201482 0.000977127118882247 0.00039033264393534115 0 0 0 0
20627682 0.00897496775774727 -0.007715984304697226 0.00093326082877565 0.00037676159659483905 0 0 0 0
20660628 0.009025538830547459 -0.00779008092692471 0.0009673642313613655 0.0003927168005535347 0 0 0 0
20693574 0.009057818562385021 -0.007759871291685789 0.000986929896688689 0.0003769263926746759 0 0 0 0
20726520 0.009033937834337452 -0.007803295654791575 0.0009541323232610345 0.0004001361044171341 0 0 0 0
20759466 0.009017566023494449 -0.007800830720511057 0.0009605824071008955 0.00041502879618002004 0 0 0 0
20792412 0.008963515332699236 -0.007829771632752372 0.0009513207572323095 0.00038055627330924247 0 0 0 0
20825358 0.008947051682894735 -0.0078282565314707 0.0009524599021555101 0.00039976018180215816 0 0 0 0
20858304 0.008989820023496955 -0.007787227189221475 0.000964485666371207 0.00039025855815196864 0 0 0 0
20891250 0.008973700722186133 -0.007863574786374837 0.0009630412244051268 0.00038835107431763673 0 0 0 0
20924196 0.00905646783368952 -0.007905855551920528 0.0009702573221561178 0.0004222837922976364 0 0 0 0
20957142 0.009062747990878273 -0.007912208009660884 0.0009742346746014445 0.0003584261615747152 0 0 0 0
20990088 0.008976952850218954 -0.00788749048083301 0.0009693849356627114 0.00038605300357716984 0 0 0 0
21023034 0.008998030802163229 -0.007938976872112237 0.000995701889340716 0.00040267634255964767 0 0 0 0
21055980 0.008998378221262336 -0.007915501808697356 0.0009611739376743976 0.00040042447145875585 0 0 0 0
21088926 0.009092645157697964 -0.007998133791155214 0.0009933109819272674 0.0004243987360776001 0 0 0 0
21121872 0.008990226157261472 -0.007961580435174065 0.0009554797137169134 0.0004184002755531335 0 0 0 0
21154818 0.009059341736261257 -0.007953487940944118 0.0009820229102690907 0.00038413885063840977 0 0 0 0
21187764 0.009083803805053737 -0.007996599546165066 0.0009980561206554418 0.0004243346695029657 0 0 0 0
21220710 0.008942615124619809 -0.007945367133494597 0.0009657606058030583 0.0003963167030136604 0 0 0 0
21253656 0.008965297934782757 -0.008021798328581362 0.0009779746820784137 0.0003930734812005958 0 0 0 0
21286602 0.008975560527763668 -0.008091294314074049 0.0009496928760498273 0.0004223115258470207 0 0 0 0
21319548 0.00901042782161388 -0.008052628853170828 0.0009658975674851919 0.0004038967786481465 0 0 0 0
21352494 0.009045465976945421 -0.008059790295930437 0.0009494604514625157 0.0004086149159955929 0 0 0 0
21385440 0.009081921825694885 -0.008063155778026448 0.0009603454005786856 0.0004063299280404671 0 0 0 0
21418386 0.009028518474446398 -0.008072089466770141 0.0009895137063624052 0.0004155651565036016 0 0 0 0
21451332 0.008973235298754814 -0.008132752629860539 0.0009889776486696606 0.0004094559682115839 0 0 0 0
21484278 0.009018490215080827 -0.008153329228081119 0.0009824819400455372 0.00039604434851820433 0 0 0 0
21517224 0.009036306892172757 -0.00816032094913468 0.000951213164451456 0.00038942642165338263 0 0 0 0
21550170 0.009098509709740047 -0.008184497692582319 0.000981099444317756 0.00042812635451363294 0 0 0 0
21583116 0.009122862462241307 -0.008228048312876433 0.0009985881364238316 0.0004241840756934501 0 0 0 0
21616062 0.00912095561532634 -0.00825238204992029 0.0009928544791648242 0.0003808374258024824 0 0 0 0
21649008 0.00901372961170164 -0.008237848507768566 0.0009778482175293417 0.00038781245664858057 0 0 0 0
21681954 0.00901191254659926 -0.00812514796030119 0.0009687165804180686 0.00042511912376873274 0 0 0 0
21714900 0.009062195339828948 -0.008224133006848393 0.0009777211153987032 0.0004044041599913265 0 0 0 0
21747846 0.009083639865297102 -0.008277270013709266 0.0009712214673743591 0.00042221745340711514 0 0 0 0
21780792 0.009070236304508372 -0.008287103888218768 0.0009908195094791925 0.0004153981141875816 0 0 0 0
21813738 0.008994443469780533 -0.008236793727573072 0.0009814506405652443 0.0004207184050768709 0 0 0 0
21846684 0.008961360508590345 -0.008322207643619463 0.0010013723155690088 0.00042114039581488664 0 0 0 0
21879630 0.009058151891680691 -0.00831541859242911 0.0009764753280396333 0.00040713950182812034 0 0 0 0
21912576 0.009025460927514682 -0.008335856678270914 0.0009938425416901237 0.00042532309212868415 0 0 0 0
21945522 0.009055809046064766 -0.008338372257715821 0.0009722525355291836 0.00039126937612505685 0 0 0 0
21978468 0.009029376901339826 -0.008446891752450213 0.0009744692248693333 0.00041413646553706556 0 0 0 0
22011414 0.009042158123058183 -0.008308120389580162 0.0009934520264729594 0.00041850972621454663 0 0 0 0
22044360 0.009048051309252679 -0.008450094174223113 0.0009999565308074347 0.00044572280697533363 0 0 0 0
22077306 0.008963757179181788 -0.00840897281432555 0.000971413979239248 0.00040356778870298863 0 0 0 0
22110252 0.009125094165786692 -0.008489145169601288 0.000991966733774202 0.00044714771428858505 0 0 0 0
22143198 0.00910831232390229 -0.008451751757808853 0.0009822691103683633 0.0004192125108499906 0 0 0 0
22176144 0.009121453081058273 -0.008443669585538818 0.0009834484363739795 0.00040236955105706534 0 0 0 0
22209090 0.00903968457524476 -0.008506649972082751 0.0009575830704391624 0.000434236490125054 0 0 0 0
22242036 0.009031937654126666 -0.008524187651569681 0.0010243621369193825 0.0004190627129112708 0 0 0 0
22274982 0.00904958421955198 -0.008505814275397724 0.0009653765658687281 0.00042664323149931477 0 0 0 0
22307928 0.00906773260422192 -0.008611734720615043 0.0009954363715259952 0.0004002451297008819 0 0 0 0
22340874 0.00909570450799331 -0.008500499711854792 0.0009801167612018145 0.0004383568723604392 0 0 0 0
22373820 0.009111444368518788 -0.008528235899804682 0.001021740121644284 0.0004227169999582301 0 0 0 0
22406766 0.00904754167991554 -0.00847189334910683 0.0009772786470801367 0.0004480036252485223 0 0 0 0
22439712 0.009160732998883718 -0.008591589486260471 0.00099387917267575 0.00041879606687422093 0 0 0 0
22472658 0.009057933080321075 -0.008594171148266742 0.0009853013313536043 0.00044520384761730043 0 0 0 0
22505604 0.009079979201400528 -0.008563296042538963 0.0009694604430325066 0.0004294160080844805 0 0 0 0
22538550 0.009133553164514968 -0.008662874248326983 0.0009764924187475027 0.000449583293033404 0 0 0 0
22571496 0.009147419980257707 -0.008649433604708023 0.000995561880437561 0.00045017302112431004 0 0 0 0
22604442 0.009188402469986598 -0.008531131227869347 0.0009796248676010428 0.0004170678887687164 0 0 0 0
22637388 0.009033171234646625 -0.008707268798064948 0.0010154060583614825 0.0004160054088941521 0 0 0 0
22670334 0.00900332117188742 -0.008698296753048855 0.0009989732757604713 0.0004191754625652039 0 0 0 0
22703280 0.00913921550449451 -0.00871113318966383 0.0009819784880150141 0.00044111394936871155 0 0 0 0
22736226 0.00910649617877761 -0.008711405513611136 0.0009760161184640063 0.0004152818640697806 0 0 0 0
22769172 0.009149864468110292 -0.00871070760163573 0.0009663436378927926 0.0004497271160678255 0 0 0 0
22802118 0.009103359362469731 -0.008682007908209962 0.0009912193588253726 0.00042200517927411696 0 0 0 0
22835064 0.009068201089309242 -0.00868211425191355 0.0010109609245514918 0.0004295743987135773 0 0 0 0
22868010 0.00908876753921184 -0.00875712465304091 0.0009930588262214994 0.0004183284190262082 0 0 0 0
22900956 0.009124987563333005 -0.00879289983570453 0.0009706820935536886 0.00044931091589724603 0 0 0 0
22933902 0.009188674230512096 -0.008810052198138019 0.0009733429575540102 0.0004708724631073349 0 0 0 0
22966848 0.009141600908395053 -0.008757546349320374 0.001024362077384758 0.00045390837473514736 0 0 0 0
22999794 0.009035234360152564 -0.008871095667420314 0.0009788087172099412 0.00043179187906035353 0 0 0 0
23032740 0.008960681430554784 -0.008903584141985912 0.0010089143729885212 0.0004264322827504373 0 0 0 0
23065686 0.009133724270492914 -0.008822661688056883 0.0010000525547065088 0.0004279444251932224 0 0 0 0
23098632 0.009114445704592534 -0.008906699959160838 0.001000249918954625 0.0004545354257378805 0 0 0 0
23131578 0.009196208685879687 -0.00892047825886245 0.001004864362007974 0.00043024676497083067 0 0 0 0
23164524 0.009098582441750302 -0.008918212876172098 0.0010163134900246556 0.0004699997731009472 0 0 0 0
23197470 0.009121311099079025 -0.00888612934159104 0.0010118201317843058 0.00045571870733502885 0 0 0 0
23230416 0.009172779199396908 -0.008894737934508415 0.0009823160194496832 0.0004566464764743042 0 0 0 0
23263362 0.00909800671948713 -0.008969135505955135 0.0009837698791595787 0.0004464467591841715 0 0 0 0
23296308 0.009074256411943413 -0.008850344171247485 0.0010023203509171856 0.00047245431837237623 0 0 0 0
23329254 0.00919011798892173 -0.009066312121525382 0.0009806432086963321 0.00046471932801437287 0 0 0 0
23362200 0.009135421320742083 -0.00906315884149702 0.000972032977924668 0.000464742679380924 0 0 0 0
23395146 0.009164999748518317 -0.00906664786959823 0.0009978355612980504 0.0004484073071516568 0 0 0 0
23428092 0.009191445494284403 -0.009000666970767119 0.000994863917882084 0.00044403578204555496 0 0 0 0
23461038 0.009108425393670088 -0.009073426703184746 0.0009991474280635175 0.00045479289537471787 0 0 0 0
23493984 0.009161749693988244 -0.009054988363257304 0.001011154667839666 0.00043625220986283055 0 0 0 0
23526930 0.009184836511708393 -0.009070107576239581 0.0009734203078527035 0.00045063579214067235 0 0 0 0
23559876 0.009211161548700619 -0.009056312869611473 0.0010104007447679438 0.00047148814658476743 0 0 0 0
23592822 0.009080672561456594 -0.009004310603665584 0.0009921166823758953 0.00044949594942868574 0 0 0 0
23625768 0.00912985273253135 -0.009075179407000504 0.000996713500859298 0.00045332172683793995 0 0 0 0
23658714 0.0091200088532281 -0.009161399036226823 0.0009975839494477442 0.00047421930420005605 0 0 0 0
23691660 0.009159957955349005 -0.00919280316514134 0.00102024091185096 0.00045832819835957056 0 0 0 0
23724606 0.009183353129780929 -0.00925563409466803 0.001000885063411927 0.00045765758543146615 0 0 0 0
23757552 0.009184691003288874 -0.00913011138677169 0.0010128585589205166 0.0004696318517372529 0 0 0 0
23790498 0.00918590457417767 -0.009135627640891845 0.0009829713434115932 0.00045366469839477094 0 0 0 0
23823444 0.009086422526371733 -0.00918758129738162 0.000997087553514814 0.0004568429805430781 0 0 0 0
23856390 0.009181355628989928 -0.009205596185246419 0.0010315224611925744 0.0004555751618629041 0 0 0 0
23889336 0.009161019650667884 -0.009302265934869413 0.0010148001896117136 0.00046471750010645247 0 0 0 0
23922282 0.00916828536660638 -0.00923631957023647 0.0010331558483441037 0.00045168318542470313 0 0 0 0
23955228 0.009178290133994623 -0.009249064359095248 0.0010285752458785737 0.000489216004554522 0 0 0 0
23988174 0.009104558415214877 -0.009223511982566018 0.001004928641325699 0.00048126546456579776 0 0 0 0
24021120 0.00914066352567632 -0.009320548106741348 0.0010253500349976373 0.00042853322505525626 0 0 0 0
24054066 0.009183874365840703 -0.009305467238959657 0.0010290396160939877 0.00044124309119046974 0 0 0 0
24087012 0.009227969619716645 -0.009376556311977643 0.0009888422431994376 0.00048792818219216814 0 0 0 0
24119958 0.00918368698329925 -0.009245754018527423 0.0009902977081991048 0.00045353085058151375 0 0 0 0
24152904 0.009177678582122083 -0.009363245165899117 0.0010230629562916571 0.00048163399756365405 0 0 0 0
24185850 0.009144633198210721 -0.009387144587925965 0.000995585331661622 0.0004620648127407151 0 0 0 0
24218796 0.009207533196900592 -0.009425147713493821 0.0010183311156377137 0.0004687546536364341 0 0 0 0
24251742 0.00921691267456581 -0.009413237907474439 0.0010446753384060114 0.000469024765462877 0 0 0 0
24284688 0.009233427597618667 -0.009370367175744767 0.0010152840548897399 0.0004687509798545586 0 0 0 0
24317634 0.00914984274559558 -0.009475520015508623 0.0010321001546464328 0.00045739574933083526 0 0 0 0
24350580 0.009097087758926047 -0.009422674558459248 0.0010350371023312125 0.0004923609213288249 0 0 0 0
24383526 0.009123554920521502 -0.009505406727109025 0.001039156311163385 0.00046419557000813345 0 0 0 0
24416472 0.009228861668962963 -0.009449458959916562 0.0010337311089320806 0.000484347553382902 0 0 0 0
24449418 0.00918930402865406 -0.009506547673989526 0.0010459298599085325 0.0004886042307387981 0 0 0 0
24482364 0.009272449893895142 -0.009474564848142476 0.0010260589212992117 0.00046275165939719187 0 0 0 0
24515310 0.009094387719756717 -0.009529012277999814 0.0010187272896677903 0.0004862805203311559 0 0 0 0
24548256 0.009132625355308798 -0.009528440902895481 0.001027131045935073 0.00047059553388694147 0 0 0 0
24581202 0.00915902334536937 -0.009576957989780008 0.001006708690451239 0.0004711679145415377 0 0 0 0
24614148 0.009183582689161118 -0.009540930880633333 0.0010193533422801682 0.0004637616310970997 0 0 0 0
24647094 0.00919044009834928 -0.009554281026199611 0.0010245775507697577 0.0004719954456188711 0 0 0 0
24680040 0.009304331540865324 -0.009570022710202662 0.001013074454643426 0.00045065419974447 0 0 0 0
24712986 0.009250938026622696 -0.00952883453101936 0.0010137735716495414 0.0004892604749005766 0 0 0 0
24745932 0.009259062943523457 -0.009603985987627843 0.0010346576836486388 0.00048537705231314833 0 0 0 0
24778878 0.009120390618028704 -0.00955734657435876 0.0010342340501155519 0.0004946113313944982 0 0 0 0
24811824 0.009138617173828635 -0.009624562997572682 0.0010431340528248112 0.00049092833027239 0 0 0 0
24844770 0.009181295215050267 -0.009621772011241628 0.0010477653025480853 0.0004731969335661911 0 0 0 0
24877716 0.009257488539559282 -0.009704325542606135 0.0010279936002025656 0.0004764566248532316 0 0 0 0
24910662 0.009271994709085445 -0.00959803214255493 0.0010138898710223719 0.0004971355529115779 0 0 0 0
24943608 0.009245322349453326 -0.00958787407782539 0.0010270480946300725 0.0004924038691700033 0 0 0 0
24976554 0.009229016810228889 -0.009709948864463963 0.0010296300344049593 0.0005062132034712791 0 0 0 0
25009500 0.009169843636948938 -0.009742552816528758 0.0010050080547657045 0.000487692004876862 0 0 0 0
25042446 0.009147561864134355 -0.009667986649485429 0.0010402051247172977 0.00048518124938139504 0 0 0 0
25075392 0.009215260938113508 -0.009691986640487732 0.0010501049910377504 0.000485257064004003 0 0 0 0
25108338 0.009259460111752044 -0.009807473688421024 0.0010583695721947154 0.000495087367434329 0 0 0 0
25141284 0.00921214724756739 -0.009686293371663527 0.0010376389197865154 0.00048573676741831543 0 0 0 0
25174230 0.00916037310801067 -0.009781476339127688 0.0010373221704679592 0.0004877547415092698 0 0 0 0
25207176 0.009255407481427185 -0.009814381046324339 0.0010421173003912214 0.0004970138307569596 0 0 0 0
25240122 0.009184382663097106 -0.009731751924987804 0.001036578895339384 0.000490164610304646 0 0 0 0
25273068 0.009277420286748196 -0.009797636319326898 0.0010380697269484998 0.00049548157762868 0 0 0 0
25306014 0.009280934356399474 -0.009877228585729508 0.000985347903965337 0.0004947454884988436 0 0 0 0
25338960 0.009238948679070234 -0.00983416099607011 0.001030574772632032 0.0005258963539048245 0 0 0 0
25371906 0.009199237436478358 -0.009940089939028353 0.0010611827226001094 0.0004810433050033912 0 0 0 0
25404852 0.009292269964020603 -0.00988044930663586 0.0010424900699839397 0.0004804327786752335 0 0 0 0
25437798 0.009359939459473552 -0.009962719003449094 0.0010265665676368516 0.0004719389269056603 0 0 0 0
25470744 0.009228461985105588 -0.009957341532172521 0.0010360871695996373 0.00048193525245527485 0 0 0 0
25503690 0.009134386414349799 -0.00995727983540638 0.0010407973040199824 0.0004962985076700979 0 0 0 0
25536636 0.009167210832225298 -0.009891049850421866 0.0010627094317823022 0.0004961875497983468 0 0 0 0
25569582 0.009197415886551314 -0.010019609582434258 0.0010390005871539277 0.0005036438964300083 0 0 0 0
25602528 0.00924825284108617 -0.010024246837717472 0.0010443786620174074 0.0005077352118686329 0 0 0 0
25635474 0.009233666349382509 -0.010039662054789976 0.0010628789716419086 0.0005178772652051594 0 0 0 0
25668420 0.009292352028441517 -0.01001479562457491 0.0010443583615428415 0.0004794931968137719 0 0 0 0
25701366 0.009241364743696185 -0.010063490271847846 0.0010507954692204396 0.0004904594475203753 0 0 0 0
25734312 0.009276844131683658 -0.010052268982170402 0.001074626701441899 0.00048442075123856045 0 0 0 0
25767258 0.009209298630757902 -0.010035731097572855 0.001054266399261926 0.0005159322977894816 0 0 0 0
25800204 0.009210212816274444 -0.010050372358580653 0.0010440952912044027 0.0004959567468821093 0 0 0 0
25833150 0.00927646268507329 -0.010048902541590018 0.0010155309418900494 0.0005032932447533975 0 0 0 0
25866096 0.009304450390588902 -0.010108907739680276 0.0010539397463337821 0.0005233415859852538 0 0 0 0
25899042 0.009320448659150195 -0.010119124490680299 0.001035815108976029 0.0004996083398175608 0 0 0 0
25931988 0.009199879799395629 -0.010145028750807309 0.0010344768460903045 0.0005113976598075625 0 0 0 0
25964934 0.00921785623454371 -0.010186144851076448 0.0010307232374040488 0.0005240358233870736 0 0 0 0
25997880 0.009257620913104139 -0.010101413556191222 0.0010537660695658219 0.0005250952949156793 0 0 0 0
26030826 0.009264247941837861 -0.010199151992564798 0.0010460225388498419 0.00046929671640927637 0 0 0 0
26063772 0.00924505483380909 -0.010215975022046792 0.0010444803815634943 0.0004970835583776387 0 0 0 0
26096718 0.009204363600636138 -0.010219768471903035 0.0010485822330117637 0.0005013680109256939 0 0 0 0
26129664 0.00928342401698397 -0.010228151880570559 0.0010522222298585343 0.0004985895270558858 0 0 0 0
26162610 0.009290508737330453 -0.010268428677053108 0.0010472263650737651 0.0005129451794998142 0 0 0 0
26195556 0.009296226842976226 -0.010237849159406096 0.0010610133932846305 0.0004941742401671321 0 0 0 0
26228502 0.009271058891950163 -0.010253712692284594 0.0010347196449846674 0.0004952586548805654 0 0 0 0
26261448 0.009321352697005762 -0.010281580293921835 0.0010502527037593746 0.0005036138794561496 0 0 0 0
26294394 0.009259909295909525 -0.010303384401580384 0.0010589503609524807 0.0005192059508344069 0 0 0 0
26327340 0.00924081067871903 -0.010239249139073824 0.001077017830375259 0.0005197258463318451 0 0 0 0
26360286 0.009200690352323227 -0.010299638241291946 0.0010439526149315682 0.0005236847312832042 0 0 0 0
26393232 0.009265879837926202 -0.01033227662069072 0.0010620071377982281 0.0004982485809738624 0 0 0 0
26426178 0.009309910876838745 -0.010460577534659232 0.001069270383889982 0.0005111999185893017 0 0 0 0
26459124 0.009338087779282262 -0.010438734774654474 0.001065638206829251 0.0005441754085182743 0 0 0 0
26492070 0.009298717267551581 -0.010357883474246645 0.001052084345351979 0.0004969052997972303 0 0 0 0
26525016 0.009318360745177253 -0.010392659161906457 0.0010588665063678286 0.0005363642751430814 0 0 0 0
26557962 0.009293068006716981 -0.010367432943896132 0.0010638392085574647 0.000519289102390609 0 0 0 0
26590908 0.009234043531395878 -0.010459923225659818 0.0010523767348265052 0.0005003565174355125 0 0 0 0
26623854 0.009252645382716435 -0.010412024685379528 0.00107050798797727 0.0005411905732498008 0 0 0 0
26656800 0.009293854888325301 -0.010495497228363628 0.0010803426095357376 0.0005213308594186422 0 0 0 0
26689746 0.009376303532881575 -0.010507734412954318 0.0010677874239930106 0.0004937480745938451 0 0 0 0
26722692 0.009404149993735289 -0.0104595049589885 0.0010558636126749284 0.0005276742094545893 0 0 0 0
26755638 0.00928409967531669 -0.010463053619442097 0.0010556925539635207 0.0005209815315471265 0 0 0 0
26788584 0.009289931485283377 -0.010540563476665729 0.0010516944636427006 0.0005168814432122694 0 0 0 0
26821530 0.009248096564145845 -0.010527064508459959 0.0010585929605195288 0.0005223767271794075 0 0 0 0
26854476 0.009355277055202128 -0.010612325279100587 0.0010591246381714144 0.0005381594592637042 0 0 0 0
26887422 0.009274700337729638 -0.01055769512225948 0.0010433896458563964 0.0005268352259300095 0 0 0 0
26920368 0.009380777637349647 -0.010543819478212339 0.0010765955593681144 0.0005423423638574506 0 0 0 0
26953314 0.00928724902006238 -0.010612200042047623 0.0010710304681842916 0.0005201706430912248 0 0 0 0
26986260 0.009344753187691186 -0.010623000807401094 0.0010577960841261073 0.0005321620045867474 0 0 0 0
27019206 0.009302112843883104 -0.010617668742820508 0.0010726825464241992 0.0005287152936715078 0 0 0 0
27052152 0.00921175274085185 -0.010600999712654135 0.001070707206472768 0.0005091380381168044 0 0 0 0
27085098 0.00924182039891826 -0.010667234366480241 0.0010404638262386124 0.0005206588912672902 0 0 0 0
27118044 0.009198690658150176 -0.010672297814545983 0.0011005484393227872 0.0005189743630469213 0 0 0 0
27150990 0.009304202146834552 -0.010693211215636761 0.0010535863192520287 0.0005380447375422712 0 0 0 0
27183936 0.009323350165280695 -0.01072735757168334 0.0011029987491777689 0.0005414842794812982 0 0 0 0
27216882 0.00939918413597477 -0.010684905637205347 0.0010666886694907058 0.0005470563088163325 0 0 0 0
27249828 0.009321099425595586 -0.010637846580293996 0.0010824769162484783 0.0005347607507486847 0 0 0 0
27282774 0.00939387262351672 -0.010802112836276662 0.0010426907906245931 0.000538737630719288 0 0 0 0
27315720 0.009227578227111706 -0.010813596588287984 0.0010652632917118056 0.0005485138430559233 0 0 0 0
27348666 0.009300858040055506 -0.010721718213492354 0.0010769437944274263 0.0005114522011111022 0 0 0 0
27381612 0.009317326059857056 -0.010853186516305622 0.0010815602131212742 0.0005542837401860327 0 0 0 0
27414558 0.009386403572761087 -0.010869402770685455 0.0010794176591595573 0.0005071060265122184 0 0 0 0
27447504 0.009283789597829592 -0.0108316501113812 0.0010663311677255724 0.0005277205034938344 0 0 0 0
27480450 0.009291734949293312 -0.010770318175456081 0.0010620792938970274 0.0005457486008869397 0 0 0 0
27513396 0.009307314611926375 -0.010827014616393531 0.001090386947681619 0.0005340863823473481 0 0 0 0
27546342 0.00931849033772193 -0.010768111362841537 0.0010938520114965435 0.0005416716725643518 0 0 0 0
27579288 0.009313464271684311 -0.010836248757219521 0.0010799650334322036 0.000544624959613955 0 0 0 0
27612234 0.00932802715911823 -0.010822127614889874 0.0010962882879496688 0.0005499455427026296 0 0 0 0
27645180 0.009360903403884745 -0.010881858520356365 0.0011110070206527742 0.000577229053277149 0 0 0 0
27678126 0.009329603873545146 -0.01091779582015003 0.0010768336718142276 0.0005719295386757857 0 0 0 0
27711072 0.009342582107175694 -0.010855771415314047 0.0010655685886584404 0.0005460199593470736 0 0 0 0
27744018 0.009342910561441585 -0.010961612637861001 0.0010775611856812118 0.0005497867833091679 0 0 0 0
27776964 0.009362315690983534 -0.010943905051345468 0.001069483110631297 0.0005467940034528517 0 0 0 0
27809910 0.00935338285172492 -0.011009585186118723 0.001085191837659734 0.000567923823321562 0 0 0 0
27842856 0.009379609938699341 -0.010905187540337124 0.001089868641700784 0.0005435119214382782 0 0 0 0
27875802 0.009304474757253194 -0.010987022198730689 0.0010881895947835395 0.0005446633399366092 0 0 0 0
27908748 0.009344125775435416 -0.010942224083550204 0.0010895195927144521 0.000557473158135476 0 0 0 0
27941694 0.009342360989493571 -0.011000203455935088 0.0010892760264080421 0.0005617502933161714 0 0 0 0
27974640 0.009268557209289914 -0.010991051929542436 0.0010818649173931704 0.0005452709082637893 0 0 0 0
28007586 0.009351717259167832 -0.011081897047165995 0.001088418889650837 0.0005324562660670097 0 0 0 0
28040532 0.009343095647454903 -0.011038496875201247 0.0010755207619433807 0.0005495484663840932 0 0 0 0
28073478 0.009372139958588287 -0.011051630742343782 0.0010835286442131265 0.0005549289439547235 0 0 0 0
28106424 0.009324218487582818 -0.011005660845747492 0.0010888777813653097 0.0005371797282372635 0 0 0 0
28139370 0.009340299704121527 -0.011144776998699753 0.0010713225719913813 0.000577492855919196 0 0 0 0
28172316 0.009347267043693508 -0.011100865930306313 0.0011099855825549582 0.0005558250945263922 0 0 0 0
28205262 0.009364930602989874 -0.011135293409023278 0.0010727587133116461 0.0005636907355042128 0 0 0 0
28238208 0.009316836659682864 -0.011156198841449323 0.0010899541274794378 0.0005347656467164215 0 0 0 0
28271154 0.009388409429998055 -0.011087322109581521 0.0010866631881678384 0.0005433092609056607 0 0 0 0
28304100 0.009304382844752847 -0.011128687649124855 0.0010880629070335525 0.000580451508128164 0 0 0 0
28337046 0.009293245190401516 -0.011260237588057576 0.0010768536835454906 0.0005384673981965143 0 0 0 0
28369992 0.009271936264943662 -0.011300590236588292 0.0011201585783922722 0.000532372867342195 0 0 0 0
28402938 0.009429212631128097 -0.011105613681852184 0.001089211364548186 0.0005589460317980836 0 0 0 0
28435884 0.00936292634524556 -0.011231075047318318 0.0010950806648528722 0.0005728272765962484 0 0 0 0
28468830 0.009291484918745247 -0.011181706821853979 0.0010794642272449137 0.0005464657510146022 0 0 0 0
28501776 0.009399699064228552 -0.011245745835117506 0.0011003847966727684 0.0005714594325407727 0 0 0 0
28534722 0.009367142494850584 -0.01125433077470362 0.0011300914402660258 0.0005751255465113701 0 0 0 0
28567668 0.009346554794695719 -0.011234750733159151 0.0010952784176079863 0.0005573999374222078 0 0 0 0
28600614 0.00942468230229844 -0.0113025538913587 0.001122835802173207 0.0005711722554022984 0 0 0 0
28633560 0.009350886411962226 -0.011355077676690688 0.0011142476942970232 0.0005554685282290103 0 0 0 0
28666506 0.009325354572839412 -0.011284604065317328 0.0010707212757249777 0.0005680257316127233 0 0 0 0
28699452 0.009395131539990638 -0.011271490841265311 0.0010879280546202028 0.0005679871985065912 0 0 0 0
28732398 0.009383472353585609 -0.011374738729271635 0.0010916257852191778 0.0005691267955257993 0 0 0 0
28765344 0.009418681965945051 -0.01138419717047061 0.0011169499286770189 0.0005483632461470424 0 0 0 0
28798290 0.0093574229139419 -0.011299126733662922 0.0010799250759978602 0.0005570742054458921 0 0 0 0
28831236 0.00931621306589917 -0.011419798304157121 0.0011030726647253957 0.0005625213744889985 0 0 0 0
28864182 0.00938068116734274 -0.011470525163083436 0.00106908330731862 0.0005972220014688957 0 0 0 0
28897128 0.009406883183317897 -0.01146187756566538 0.0011061260756382344 0.0005684598007949522 0 0 0 0
28930074 0.009340228603517613 -0.011338822946123374 0.0011078203050929466 0.0005589604488950664 0 0 0 0
28963020 0.00935418720234584 -0.011498695764218117 0.001091831651857719 0.000567906000581333 0 0 0 0
28995966 0.009381087458425206 -0.011473888919324144 0.0010821852675028925 0.0005600736466623803 0 0 0 0
29028912 0.009395534151465797 -0.01145135865278684 0.001099589494898673 0.0005677149843479497 0 0 0 0
29061858 0.009437192387898358 -0.011528407838239161 0.00110122587936315 0.0005710682135992394 0 0 0 0
29094804 0.009404512016279419 -0.011433592795703074 0.0011244885215995612 0.0005764700635857659 0 0 0 0
29127750 0.00940788243566624 -0.011521809341982473 0.001103134393469111 0.000595211060759611 0 0 0 0
29160696 0.009350070524511016 -0.011624091964133753 0.0011033453263738866 0.0005828746430128396 0 0 0 0
29193642 0.009343991075485782 -0.011595029963609782 0.0011390347356021173 0.0005373372621769549 0 0 0 0
29226588 0.009379829720813125 -0.011582201517111722 0.0010768392381385289 0.0005691465949788518 0 0 0 0
29259534 0.009449277626023942 -0.011609692524028029 0.0011159708099889563 0.0005750475069720007 0 0 0 0
29292480 0.009313026558439578 -0.011611396353237885 0.0011106854250442324 0.0005825943949974276 0 0 0 0
29325426 0.009303243995695822 -0.011628137882827065 0.001115594986173991 0.0005658975998727072 0 0 0 0
29358372 0.009385436882934157 -0.011595378905649042 0.0011249459065625893 0.0005966287864094145 0 0 0 0
29391318 0.009416547767240522 -0.01161594399336803 0.001092525849538536 0.0005704180484089215 0 0 0 0
29424264 0.009474931724070903 -0.011622008194107393 0.001115641307777469 0.0005728408625019764 0 0 0 0
29457210 0.009374872510660718 -0.011659291614667147 0.0011078747042727775 0.0005445680521213676 0 0 0 0
29490156 0.009336325791757723 -0.011585354743526824 0.001111411220125701 0.0005868377922303298 0 0 0 0
29523102 0.00942332912969457 -0.011743760927483731 0.0011011984799251303 0.0005818835169431126 0 0 0 0
29556048 0.009325976752301297 -0.01173512787016135 0.0011406770544287567 0.0005877074053371192 0 0 0 0
29588994 0.009400039719523646 -0.011717009813183459 0.0011043781563125242 0.0005777392494202771 0 0 0 0
29621940 0.009477054581552654 -0.011715195892004154 0.0011044131579909884 0.000569866677514749 0 0 0 0
29654886 0.009372150650760748 -0.01173828173048758 0.0011177710787146477 0.0005669158536531013 0 0 0 0
29687832 0.009244350440934416 -0.011745234089127936 0.0011390447844825795 0.0005934294546932236 0 0 0 0
29720778 0.009430100374565537 -0.01180874603698503 0.0011188150134805277 0.0005835925119107401 0 0 0 0
29753724 0.009586367475542775 -0.011764610679405877 0.0011115114983651251 0.0005877041240912634 0 0 0 0
29786670 0.009443457947188155 -0.011748832519212297 0.0011251627743882262 0.0005912530958536279 0 0 0 0
29819616 0.009394643685754727 -0.011841066815826187 0.001116044215399161 0.0005923952385307114 0 0 0 0
29852562 0.00938521794285571 -0.011906182928721315 0.0010950672969684114 0.0005889339982537461 0 0 0 0
29885508 0.009584620045551653 -0.011831852878900708 0.0011133411455758536 0.0005799400265384815 0 0 0 0
29918454 0.00947318731581474 -0.011912609278757778 0.0011114359529351416 0.0005598247831925536 0 0 0 0
29951400 0.00943871254386393 -0.011805357933300023 0.0011250965006090428 0.0005780555164975516 0 0 0 0
29984346 0.009340688929319094 -0.01189219666744993 0.0011218461693621455 0.0005784984949471015 0 0 0 0
30017292 0.009405251535848607 -0.011855780839191884 0.001126855631445854 0.0005829321886565396 0 0 0 0
30050238 0.00943168321795326 -0.011940394304130164 0.001101324263870785 0.000598898308394407 0 0 0 0
30083184 0.009503137863254869 -0.01186269801838126 0.0011102497887521255 0.0005915009108412709 0 0 0 0
30116130 0.009495443324215386 -0.01196250928735021 0.0011459713239624668 0.000603762977178253 0 0 0 0
30149076 0.009417223825431777 -0.011944348821728599 0.0011125414727615232 0.0005885590239740684 0 0 0 0
30182022 0.009425307470234586 -0.012022105716912644 0.0011351814784268282 0.0005759225614132432 0 0 0 0
30214968 0.009329289127242252 -0.012015948980157818 0.0011170969796202666 0.0005991232271856583 0 0 0 0
30247914 0.009507052003311535 -0.012004862514564963 0.0011149028342319052 0.0005830611529762163 0 0 0 0
30280860 0.009538016334351682 -0.011976308979389333 0.0011393223041538168 0.0005784382812648006 0 0 0 0
30313806 0.00943852453366724 -0.01192493879755598 0.001142637108053656 0.0005744391524713561 0 0 0 0
30346752 0.009426332030237116 -0.012024537856609096 0.0011497201467964768 0.000618185948970566 0 0 0 0
30379698 0.00940222452272545 -0.012101155730265628 0.0011386240441490952 0.0005902786934061025 0 0 0 0
30412644 0.009371213274386385 -0.012120888865192263 0.0011333219633024747 0.0005989223158835323 0 0 0 0
30445590 0.009482803129149177 -0.012122301331545906 0.001124420967423229 0.0006156975556503244 0 0 0 0
30478536 0.009504269402296097 -0.01206425613878214 0.0011400117134000626 0.0005816630352195816 0 0 0 0
30511482 0.009552455421924597 -0.012072769042109228 0.0011306366724834372 0.0006078942088229455 0 0 0 0
30544428 0.0095091183100569 -0.012116293136160819 0.0011635339972076951 0.0005811990382088528 0 0 0 0
30577374 0.009462448410489188 -0.012195280448947073 0.001103880274288693 0.0006058448650967887 0 0 0 0
30610320 0.009272396326333794 -0.012202871399754085 0.0011292046313021735 0.0006052683207245888 0 0 0 0
30643266 0.00934825432144004 -0.012202234497605921 0.0011543716257452013 0.0006028828301921006 0 0 0 0
30676212 0.009429790645070515 -0.012254527862758158 0.001139195004894722 0.0006034674062132601 0 0 0 0
30709158 0.009470083204987597 -0.012212167360525975 0.0011636340451467529 0.0006052627121778697 0 0 0 0
30742104 0.009477987644723053 -0.01223108869899171 0.0011387499373074258 0.0005921444642493023 0 0 0 0
30775050 0.009437919632746573 -0.012178801236897008 0.0011462591058374028 0.0006104898021714717 0 0 0 0
30807996 0.009506269464733945 -0.012246491767348586 0.0011508023393666128 0.000600980353679364 0 0 0 0
30840942 0.009533695787749638 -0.012255733362930099 0.0011511003857010425 0.0005992830225477941 0 0 0 0
30873888 0.009488908606161042 -0.01229017143946342 0.0011111027844835236 0.0006011041542827877 0 0 0 0
30906834 0.009363706299095758 -0.012334309997911788 0.0011428438265618924 0.0006184077856122046 0 0 0 0
30939780 0.009557991996926371 -0.012357008938095718 0.0011588521603694561 0.000588977868906625 0 0 0 0
30972726 0.009506194807449332 -0.012220960250290593 0.0011513762354198793 0.0006461662461006878 0 0 0 0
31005672 0.009457946911123286 -0.012320843898767003 0.0011291265442608593 0.0005907262168128571 0 0 0 0
31038618 0.009348439478871496 -0.012343678154521684 0.0011523743200813812 0.0006190811333116786 0 0 0 0
31071564 0.009457652656502807 -0.012370383714493638 0.0011310723911383022 0.0005906529535938457 0 0 0 0
31104510 0.009503101949506902 -0.012369379694468855 0.0011419199823362721 0.0006170399786927873 0 0 0 0
31137456 0.00951248767128856 -0.01232927186843902 0.0011415406915380294 0.0006162484906048898 0 0 0 0
31170402 0.009411181310314438 -0.012368568616013688 0.0011528174105865606 0.0005936188777320533 0 0 0 0
31203348 0.009468633032868616 -0.012377577941995564 0.0011811483819162735 0.0006190610144340115 0 0 0 0
31236294 0.009528972763821357 -0.01241609095879236 0.0011390036574815048 0.0006079681829989595 0 0 0 0
31269240 0.009547964270392447 -0.01244629660980029 0.0011797984269653911 0.0006014385105937188 0 0 0 0
31302186 0.009427085214731089 -0.01242017715657551 0.0011501183932840068 0.0006149197838675399 0 0 0 0
31335132 0.009448462714395933 -0.012482457451110044 0.0011373257683571939 0.0006207559869709515 0 0 0 0
31368078 0.009545902028853845 -0.012515567762432763 0.001143505445220345 0.0006345044651859166 0 0 0 0
31401024 0.009538492076046332 -0.012520661623521553 0.001163450314976738 0.0006200148067293608 0 0 0 0
31433970 0.009441336857000741 -0.012480523478730961 0.0011419318754308638 0.0006375861754484648 0 0 0 0
31466916 0.009500674987431321 -0.012564857749376681 0.0011410161148872348 0.0005905048603857188 0 0 0 0
31499862 0.009605469657330865 -0.01254168403053191 0.001189982206226101 0.0005783070659763581 0 0 0 0
31532808 0.009471191068989358 -0.01254338019073925 0.0011385583833439159 0.0005956644016808998 0 0 0 0
31565754 0.0095287057742879 -0.012519773656202935 0.0011771177224780232 0.0006103670037258828 0 0 0 0
31598700 0.009435227397787358 -0.0126636354411224 0.001155240310938958 0.0006053403921994678 0 0 0 0
31631646 0.009475447475932992 -0.012588430026395448 0.0011186266053801258 0.0005915954811507701 0 0 0 0
31664592 0.009540390924832876 -0.012617999584556306 0.0012415368063405873 0.0006161466714012417 0 0 0 0
31697538 0.00955552094657494 -0.012674745127408986 0.001244903676782209 0.000590109525904823 0 0 0 0
31730484 0.009507308789447997 -0.012607811462895779 0.0011859489507833835 0.0006939127188741267 0 0 0 0
31763430 0.009401192327587548 -0.012769304170282585 0.001129465314759667 0.0006021842822745082 0 0 0 0
31796376 0.009465839386527187 -0.012577279495374018 0.0011388078612935737 0.0006110187232164633 0 0 0 0
31829322 0.00965058277434016 -0.012629215995824927 0.0011657883885998167 0.0006314873131715822 0 0 0 0
31862268 0.00954070084657557 -0.012724954157847957 0.0011176244742897288 0.0006314491467554481 0 0 0 0
31895214 0.009442434844940287 -0.012719523077537466 0.0011305831590491104 0.0006275924661134961 0 0 0 0
31928160 0.0093277808751199 -0.012758584789493918 0.0011776304788053502 0.0006339198181468903 0 0 0 0
31961106 0.009500197612271218 -0.012786613476185664 0.0011467378014729957 0.0006029903752544149 0 0 0 0
31994052 0.00947527994646229 -0.012809761865717877 0.001173810551253936 0.0006478951285860254 0 0 0 0
32026998 0.009518008154174746 -0.012798456910616832 0.0011433915170167785 0.0006372446476556449 0 0 0 0
32059944 0.009606097839334289 -0.01279342403881093 0.001171531164226328 0.0006491061602760316 0 0 0 0
32092890 0.00956561382316286 -0.01274046144622305 0.0011593753294751057 0.0006499352271003927 0 0 0 0
32125836 0.009491676104041549 -0.012817256300075313 0.0011628856374225425 0.0006179964351252119 0 0 0 0
32158782 0.009569074136713753 -0.012831684661031259 0.0011913394179149134 0.0006414698982502524 0 0 0 0
32191728 0.009526886101770918 -0.01282793111375181 0.0011683214799427962 0.0006507610769353821 0 0 0 0
32224674 0.009647707368786538 -0.012866714644781806 0.0011616750427048176 0.0006247222070764873 0 0 0 0
32257620 0.009566885193525693 -0.01277926826985267 0.0011594525625246187 0.000644043467277168 0 0 0 0
32290566 0.009412405630971931 -0.012885017037580241 0.0011975871075604154 0.0006254745082902818 0 0 0 0
32323512 0.009552231464430266 -0.01292880739871653 0.0011566986338859171 0.0006281384615196952 0 0 0 0
32356458 0.009567182047797258 -0.012854116439907028 0.0011793166775161488 0.0006266534149115027 0 0 0 0
32389404 0.009531705338005151 -0.012915483779781581 0.0011818309025861068 0.0006370957675261986 0 0 0 0
32422350 0.00952262435761354 -0.012987678465746118 0.0011750322802651391 0.0006500197763139845 0 0 0 0
32455296 0.009489576455270602 -0.012919948565502371 0.0011916857116467622 0.0006589825906462179 0 0 0 0
32488242 0.009479494246218155 -0.01297591886645099 0.0011875830389440896 0.0006352548553870028 0 0 0 0
32521188 0.009572815482215854 -0.012965346295917946 0.0011722315895419237 0.0006436036700428763 0 0 0 0
32554134 0.009605245330675175 -0.012987445192217803 0.0011584201403023393 0.0006295797680297985 0 0 0 0
32587080 0.009555492394052453 -0.012989872634298957 0.0012019103880090893 0.0006175378835042974 0 0 0 0
32620026 0.009524087576090851 -0.013028006921328135 0.0011487645271911285 0.0006474633743231575 0 0 0 0
32652972 0.009508514024485246 -0.01294672212274638 0.0011996637291083548 0.0006581028914157849 0 0 0 0
32685918 0.009468178333847747 -0.013079444620948346 0.0011967168625767008 0.000632600011639845 0 0 0 0
32718864 0.009505798015273202 -0.013115379406415655 0.0011631974680154217 0.0006473597126695577 0 0 0 0
32751810 0.009572419161461882 -0.01307670272222301 0.0011708332444842217 0.0006629121820750543 0 0 0 0
32784756 0.00957891794999504 -0.01300320332127901 0.0011781904802564318 0.0006254554162770959 0 0 0 0
32817702 0.009564582081882893 -0.013155528066192475 0.0011625585072394544 0.0006534737355900105 0 0 0 0
32850648 0.009516737204027861 -0.013157421511270027 0.0011728682489667392 0.0006535522056970987 0 0 0 0
32883594 0.009485910684330568 -0.013146245871410514 0.0011685824119760666 0.000657426112219992 0 0 0 0
32916540 0.009548526402996003 -0.013122153770720773 0.001199872251269744 0.0006353829162151775 0 0 0 0
32949486 0.009635483302896122 -0.013160217656984798 0.0011831671696180702 0.0006313212476576593 0 0 0 0
32982432 0.00963092552572108 -0.01313714222169902 0.0011834774272675521 0.0006489475590647632 0 0 0 0
33015378 0.009557735277564375 -0.01321412121281168 0.00117238395641216 0.0006594549707260701 0 0 0 0
33048324 0.009468069269042135 -0.013264594477792938 0.001202444219830299 0.0006447423940497626 0 0 0 0
33081270 0.009523609579016249 -0.013222796472002744 0.001201272042980825 0.0006593583868847908 0 0 0 0
33114216 0.009570671200762148 -0.013269018050883746 0.0012002376285181597 0.0006605916389247279 0 0 0 0
33147162 0.009624232748899812 -0.013269846825270598 0.001161288013955626 0.0006348896480544112 0 0 0 0
33180108 0.009585595651867057 -0.013303900934503855 0.0011795095018913588 0.0006477537929548227 0 0 0 0
33213054 0.009440171163174358 -0.013304939724943555 0.0011869399365927473 0.0006495394571692547 0 0 0 0
33246000 0.009497776171808834 -0.013266274195456278 0.0011905182251760102 0.000645038229489905 0 0 0 0
33278946 0.00946623251286612 -0.013221649164105053 0.0011850354646063663 0.0006654576990996329 0 0 0 0
33311892 0.009552540518594421 -0.013340631320159646 0.0011953591532874882 0.0006351814033854092 0 0 0 0
33344838 0.009598013653334835 -0.013360609516084206 0.0011781277488884796 0.0006645464083869336 0 0 0 0
33377784 0.009567530089003944 -0.013349965260737945 0.0012028215641184115 0.000635380486864568 0 0 0 0
33410730 0.0096497906876181 -0.01341883163143286 0.001174214716246227 0.0006400493901941932 0 0 0 0
33443676 0.00956168922968283 -0.013347885396872924 0.0011925831361163804 0.0006695595297888852 0 0 0 0
33476622 0.009577612116279626 -0.013337168119170288 0.001217335348480257 0.0006718858559466415 0 0 0 0
33509568 0.009654669551737006 -0.01328824313414201 0.0011904607713209689 0.0006660072901155762 0 0 0 0
33542514 0.009739674453427138 -0.01337195274515811 0.001210318606614164 0.0006433537061829941 0 0 0 0
33575460 0.009525026980525375 -0.013412073935282435 0.0012153766939987684 0.0006420441139913051 0 0 0 0
33608406 0.009595007562986166 -0.013486627543020364 0.0012057756626293356 0.0006754843261739804 0 0 0 0
33641352 0.00968334222628711 -0.013461717946766207 0.0012044442819270059 0.0006777397467387021 0 0 0 0
33674298 0.009511645550307568 -0.013418412137516694 0.001211474720265153 0.0006755986080520569 0 0 0 0
33707244 0.009597562429394734 -0.013408910521012023 0.0012068971833453079 0.0006419208350118391 0 0 0 0
33740190 0.0095223993525111 -0.013459467434262759 0.0011924715018740608 0.0006526521669059333 0 0 0 0
33773136 0.00950739706175826 -0.013503251806242336 0.0012038393396068604 0.0006365994691608826 0 0 0 0
33806082 0.009658791740222182 -0.013446764560547183 0.0012020982693218064 0.0006696282386598762 0 0 0 0
33839028 0.009656981997341326 -0.01341176815210378 0.00116777676675929 0.0006478347795156637 0 0 0 0
33871974 0.009514240744277603 -0.013603579715449865 0.0012066870015218386 0.0006560479324508435 0 0 0 0
33904920 0.009548912231765351 -0.01345431878213177 0.0011839917993330179 0.0006857605232125379 0 0 0 0
33937866 0.009689817567403239 -0.013471544620593197 0.0012176459295615684 0.0006748603329082226 0 0 0 0
33970812 0.009616002829931105 -0.013484692268682735 0.00121817388553766 0.0006478447785005597 0 0 0 0
34003758 0.009588503589695225 -0.013540662543261226 0.0012119615999888304 0.000668427274110174 0 0 0 0
34036704 0.009529092188253867 -0.013626202013943005 0.001211900209115407 0.0006374298026843528 0 0 0 0
34069650 0.0096189857632381 -0.01367660005763637 0.0011913722315104191 0.000680216936146502 0 0 0 0
34102596 0.009592350675114549 -0.013624927714731 0.0011876247904366412 0.0006609321943103789 0 0 0 0
34135542 0.009598477195350338 -0.013582261432296877 0.001172553532900819 0.0006839232669520077 0 0 0 0
34168488 0.009601925969896683 -0.013543229866180099 0.00123112747394494 0.0006799913553994526 0 0 0 0
34201434 0.009588860158734088 -0.013676169278845202 0.0012184224000587709 0.0006643736161856347 0 0 0 0
34234380 0.00954017931485678 -0.013683027656097234 0.0012238090823145098 0.0006696651215262301 0 0 0 0
34267326 0.009575255876894315 -0.013703118327032453 0.0012246817603446686 0.0006796445634248277 0 0 0 0
34300272 0.009634116017006644 -0.013746781226114425 0.0012208412319601458 0.0006644514826287083 0 0 0 0
34333218 0.009587815999914975 -0.013658966966964203 0.0012017625903789262 0.0006628785807237778 0 0 0 0
34366164 0.009683388733555716 -0.013666968603804034 0.0012197323363105075 0.0006666097046705608 0 0 0 0
34399110 0.009497656486705225 -0.01378192906001542 0.001219309901495321 0.000669860920114878 0 0 0 0
34432056 0.00967144702593949 -0.013825806057704703 0.0012066307664188502 0.000683185446625326 0 0 0 0
34465002 0.00955884763080697 -0.013775556249249409 0.0012290547715440318 0.0006679062895758394 0 0 0 0
34497948 0.009670425651836843 -0.013765547574864014 0.001216519842073637 0.0006921797389667446 0 0 0 0
34530894 0.009689871700082214 -0.013799685300484194 0.001224156149379965 0.0006955548862451304 0 0 0 0
34563840 0.009647599321228129 -0.013792252926291822 0.0012242212417720715 0.0006892671465129383 0 0 0 0
34596786 0.009621514820111695 -0.013908159193755194 0.0012359983223587875 0.0006647973065014343 0 0 0 0
34629732 0.009631741692457755 -0.013789491579703973 0.0012200738155464298 0.0006805948709862413 0 0 0 0
34662678 0.009584205986347061 -0.013874579096994565 0.001209146480877824 0.000695129620061015 0 0 0 0
34695624 0.009662274594935388 -0.013906686956713623 0.0012272615730629325 0.0006989881102709049 0 0 0 0
34728570 0.009649627009524741 -0.013943510643461244 0.0012221372316617944 0.000669533839699333 0 0 0 0
34761516 0.009665103472475324 -0.013934867219729063 0.0012314025809707066 0.0006715693748145162 0 0 0 0
34794462 0.009498437311412866 -0.013872755056145119 0.001237747574399997 0.0006712720139905454 0 0 0 0
34827408 0.009582416267723349 -0.0139406410026039 0.0012331895422198478 0.000688812321137835 0 0 0 0
34860354 0.00962099720214693 -0.01393940755604576 0.0012353191751816315 0.0006759815135967852 0 0 0 0
34893300 0.00960010360842103 -0.014000980371502202 0.0012325826347928635 0.0006743927040189996 0 0 0 0
34926246 0.009688699196995132 -0.013955483205962965 0.0012187757726752632 0.0006827729700919091 0 0 0 0
34959192 0.009671123664599738 -0.014064396295875008 0.001237543219816537 0.0007123909717085 0 0 0 0
34992138 0.009684579421166052 -0.01399983879760796 0.0012263048571140185 0.0007153611882571812 0 0 0 0
35025084 0.009637030936085134 -0.014013585313262716 0.0011994109429430396 0.0007582734429822368 0 0 0 0
35058030 0.009612325309992488 -0.013808385507620573 0.0011824571494698421 0.0006752493683208511 0 0 0 0
35090976 0.009713441418354833 -0.01409264150544313 0.0012196656656104344 0.0007251855609799807 0 0 0 0
35123922 0.009677534723346518 -0.014042883791856345 0.0012005238986430877 0.0006888817772234666 0 0 0 0
35156868 0.00964674571832321 -0.014012162894553173 0.001244806889362042 0.000652478813496204 0 0 0 0
35189814 0.00964265417064073 -0.014017784011575215 0.00122764777874154 0.00070964561809075 0 0 0 0
35222760 0.009564774304834609 -0.0141419136727537 0.0012692753253129054 0.0006733982471706953 0 0 0 0
35255706 0.009807464089417144 -0.014051827479423067 0.0011837941746709636 0.0007432585948096289 0 0 0 0
35288652 0.009853057622663388 -0.013987951783867794 0.0012390851284789818 0.0006218195531166581 0 0 0 0
35321598 0.00946492587000558 -0.014251229029985494 0.0011767352664997313 0.0006869933296531049 0 0 0 0
35354544 0.009708302127956123 -0.01405699685931801 0.0012159010702064478 0.0007202205764467133 0 0 0 0
35387490 0.009644655146362112 -0.014005158954804343 0.0012075856061496716 0.00065610164772506 0 0 0 0
35420436 0.009601929028916567 -0.014118428381572281 0.0012019193351090786 0.0007187677063516848 0 0 0 0
35453382 0.009583996952962642 -0.01421964588950502 0.0012209772353980193 0.0006987816206898738 0 0 0 0
35486328 0.009500151187553551 -0.01420254661505873 0.0012406568660113027 0.0006804441865933058 0 0 0 0
35519274 0.009691963283091016 -0.014312016681960393 0.001226754212371306 0.0007068066309356898 0 0 0 0
35552220 0.009666156785146193 -0.014231039929064012 0.0012684505265318658 0.0006891314184586238 0 0 0 0
35585166 0.009737739987053533 -0.01421179075971013 0.001273120153064217 0.0006810997120655494 0 0 0 0
35618112 0.009677875472840101 -0.014304691783289625 0.0012452306042528747 0.0007003567239486002 0 0 0 0
35651058 0.009566658179006874 -0.014277205330810425 0.0012590541887950507 0.0007010585293175485 0 0 0 0
35684004 0.009600984765834382 -0.014303656665595358 0.0012476642431580374 0.0006704794524171714 0 0 0 0
35716950 0.009672558186864619 -0.014253029666140234 0.0012494401864399812 0.0007001447306331745 0 0 0 0
35749896 0.009679537238269757 -0.01424388758254493 0.001253790814553045 0.0006827018172941491 0 0 0 0
35782842 0.009649553753534997 -0.014315414604817436 0.0012209710937114628 0.0007218224529221794 0 0 0 0
35815788 0.009674033147764074 -0.014322875711957495 0.001232301618671286 0.0007100891765908278 0 0 0 0
35848734 0.00961531081629375 -0.014342833869819755 0.001251961003282013 0.0006899042775053527 0 0 0 0
35881680 0.009744811432806892 -0.014407893218000298 0.001243825754123357 0.0006940874729435978 0 0 0 0
35914626 0.009636072956928837 -0.014324534682698236 0.0012592790851907734 0.000698775610959005 0 0 0 0
35947572 0.00971537970563793 -0.014427862443797068 0.0012514418277626395 0.0006909170790107345 0 0 0 0
35980518 0.009685103099772328 -0.014324318530000381 0.001268466640640902 0.0007043058752639516 0 0 0 0
36013464 0.009736678496752233 -0.014368363475965004 0.001287888389411537 0.0006910299903637721 0 0 0 0
36046410 0.009663909738704705 -0.014555445266829975 0.001240907586007093 0.0007122776373139064 0 0 0 0
36079356 0.009729677454501371 -0.014448453800320147 0.0012559895020609409 0.0006903272993587485 0 0 0 0
36112302 0.009709817342086003 -0.014451970063842032 0.0012562804401625607 0.0007196985570210176 0 0 0 0
36145248 0.00973300802798288 -0.0144149141565866 0.0012640555520256032 0.0007315888429543593 0 0 0 0
36178194 0.009694914149313949 -0.014497062109454254 0.0012498468228215427 0.0007049945443159743 0 0 0 0
36211140 0.009671710643488856 -0.014534300401888618 0.0012657731142639644 0.0006963164419779864 0 0 0 0
36244086 0.009752144768534952 -0.014645832416124908 0.0012585798500544482 0.0007270803704474098 0 0 0 0
36277032 0.009594895383147282 -0.01461356775510778 0.0012661907669436424 0.0006953854720824473 0 0 0 0
36309978 0.009617950995523502 -0.014426349133119038 0.001275364166691469 0.0007049861634543606 0 0 0 0
36342924 0.009615309681273873 -0.014563856625850656 0.0012615562111468984 0.000672109371041365 0 0 0 0
36375870 0.009686731655909137 -0.014435364419262924 0.0012598730849621776 0.0006956916621682954 0 0 0 0
36408816 0.00954524355301575 -0.014479593568082684 0.0012731145332738779 0.000712942294169843 0 0 0 0
36441762 0.009929527117746677 -0.014552392380246111 0.0012663926071315894 0.0007107251349120449 0 0 0 0
36474708 0.009644364790864677 -0.014572247162559473 0.0012712732495976872 0.0007321618701671132 0 0 0 0
36507654 0.009662447242985279 -0.014642165700362787 0.0012524817567529242 0.0007222578461959907 0 0 0 0
36540600 0.009706309436695332 -0.014682848415147984 0.0012646203267958284 0.000715697361826501 0 0 0 0
36573546 0.00963840349530466 -0.014638309471735002 0.0012816568564577044 0.0007272641286130763 0 0 0 0
36606492 0.009675943461079485 -0.014600659468340802 0.001280301285230963 0.0007149075024063654 0 0 0 0
36639438 0.009661207317984498 -0.014751063122466473 0.0012563615129005778 0.0007084919730548946 0 0 0 0
36672384 0.00979666635769364 -0.014682938762787003 0.0012774231915100174 0.0007314397289514198 0 0 0 0
36705330 0.009679848495163288 -0.014721343178328372 0.0012536632678704642 0.0007383302222261439 0 0 0 0
36738276 0.009884812347959742 -0.01468239948331732 0.0012823340247103483 0.0007322242371115758 0 0 0 0
36771222 0.009713943512488301 -0.01471925949032827 0.001244494670403451 0.0007105366793478937 0 0 0 0
36804168 0.009618786165657162 -0.014875313762896601 0.001298747793157227 0.0007192576555361931 0 0 0 0
36837114 0.009702074933266745 -0.014698916029759711 0.0012605594476323317 0.0007211132668336817 0 0 0 0
36870060 0.009690719146321898 -0.014831400521436836 0.001277215617589826 0.0007157605868366786 0 0 0 0
36903006 0.009634876372548694 -0.01472954627634731 0.0012588352771918405 0.0007336324374155181 0 0 0 0
36935952 0.009681204273792779 -0.014865079612348543 0.0012868394442074535 0.0007331645943004648 0 0 0 0
36968898 0.0095933611977622 -0.014902741946430221 0.0012820189299643505 0.0006966545775895009 0 0 0 0
37001844 0.00977169922700929 -0.014836412640961099 0.0012894444592180998 0.000721308756531944 0 0 0 0
37034790 0.009725334161069911 -0.014901181566595131 0.0012814241616916334 0.0007271583561767076 0 0 0 0
37067736 0.009774012278455684 -0.014850143113750745 0.0012647397526522719 0.0007194728306353827 0 0 0 0
37100682 0.0097419149281857 -0.014875950976865938 0.0012923888940646333 0.0007331597030438801 0 0 0 0
37133628 0.009786442549789246 -0.014891473694157054 0.0012872773591243397 0.0007134622928630805 0 0 0 0
37166574 0.009803196384688457 -0.014889938943965082 0.0012858911675064336 0.0007273732861062806 0 0 0 0
37199520 0.009711725368115147 -0.014822201518074693 0.0012822733776070823 0.0007417778377429423 0 0 0 0
37232466 0.009789139276710747 -0.014938086542014985 0.0013048492293160534 0.0007160831272509479 0 0 0 0
37265412 0.009727930830290832 -0.015002344496070555 0.0012828269281861485 0.0007424862292652023 0 0 0 0
37298358 0.00972981153927539 -0.014939802888764186 0.0012687199921672806 0.0007183450272302821 0 0 0 0
37331304 0.009750929983829298 -0.014865041161634866 0.0012742208962210307 0.0007083303977176612 0 0 0 0
37364250 0.009792813827661936 -0.014919831851857242 0.00126603389683051 0.0007326021827424405 0 0 0 0
37397196 0.009702840276797275 -0.015050189215662086 0.0013002212171515008 0.0007247438117594073 0 0 0 0
37430142 0.009754865550489334 -0.015026174166218976 0.001290525545762239 0.0007540161848920946 0 0 0 0
37463088 0.009736675621930969 -0.01503085715328669 0.001283701369312224 0.000730185821064312 0 0 0 0
37496034 0.009762591093405005 -0.015075475343825787 0.0012921088374057744 0.0007423757444860171 0 0 0 0
37528980 0.009829670137874412 -0.015070957293002424 0.0012982091162643155 0.0007450453272952472 0 0 0 0
37561926 0.00970668639688127 -0.015049400235418339 0.0012902295317345686 0.000733599035195248 0 0 0 0
37594872 0.009707569866051818 -0.015071339255598079 0.001292396160239179 0.000736675881845446 0 0 0 0
37627818 0.009772042337221605 -0.015074689851939226 0.0012817700912343263 0.0007420322085242037 0 0 0 0
37660764 0.009726660830537106 -0.015158179358158608 0.0012860740078356149 0.000719507331957603 0 0 0 0
37693710 0.009730419054877178 -0.015050353707370632 0.0012809220438465487 0.0007116027675181955 0 0 0 0
37726656 0.009731999345034867 -0.015086160929919976 0.001289874405445471 0.0007266766596130611 0 0 0 0
37759602 0.009793174818054824 -0.015082077742395814 0.0013072123116905834 0.0007283020893174555 0 0 0 0
37792548 0.009739815414548044 -0.015192443490009096 0.0012749119728637875 0.0007420575718843056 0 0 0 0
37825494 0.009842130326026457 -0.015236553223147093 0.0012937346218101636 0.0007357956393320997 0 0 0 0
37858440 0.009789631125538833 -0.015260980636363341 0.0012906363121036075 0.0007348431209525898 0 0 0 0
37891386 0.009748620159010953 -0.015146040116630425 0.0013165930835215567 0.0007363302955174304 0 0 0 0
37924332 0.00974949138824694 -0.015175889188604285 0.001303123225160152 0.0007568305939639546 0 0 0 0
37957278 0.009739169813628379 -0.01516353193918423 0.001291280943068971 0.0007487998470575647 0 0 0 0
37990224 0.009820868161508007 -0.015303395984412202 0.001306231541303373 0.0007402908688308756 0 0 0 0
38023170 0.009750977070307568 -0.015331005083520931 0.0013282918955866627 0.0007527711864581232 0 0 0 0
38056116 0.009839925931284984 -0.015185620063551463 0.0012909801994590926 0.0007812246110967154 0 0 0 0
38089062 0.009779779335786979 -0.015252195795632022 0.0012981715153677948 0.0007424212836083861 0 0 0 0
38122008 0.009772418989249323 -0.01530164972733996 0.0013003224993575683 0.000747580485807622 0 0 0 0
38154954 0.009810799246725649 -0.015290287429461038 0.0013062064537245283 0.0007398096709584399 0 0 0 0
38187900 0.009838605535275777 -0.015252362150160074 0.0013037604205288452 0.0007283836343269325 0 0 0 0
38220846 0.009777029361874539 -0.015335885567818905 0.0013207078899988326 0.0007516561980689733 0 0 0 0
38253792 0.009709477299862377 -0.015363175909674412 0.001306464715818357 0.0007511196063310005 0 0 0 0
38286738 0.009795946785148368 -0.01540311616819264 0.0013190965852384422 0.0007477263582344611 0 0 0 0
38319684 0.009787566677332068 -0.015374028179601158 0.0013419254373037456 0.0007703449752153344 0 0 0 0
38352630 0.009762313878978298 -0.015351940289222241 0.0012897480237418696 0.0007542205068028936 0 0 0 0
38385576 0.009791229084803205 -0.015400603437649069 0.001286632051996605 0.000759812736118567 0 0 0 0
38418522 0.009759226154147283 -0.015477377559366194 0.00132267349232294 0.0007404168019691431 0 0 0 0
38451468 0.00978714745395477 -0.015415521591646603 0.001318849719635427 0.0007304240717032052 0 0 0 0
38484414 0.009750272406807823 -0.0154791998798478 0.0012897176693221085 0.0007474871435658631 0 0 0 0
38517360 0.009769131792829946 -0.015462909959414902 0.0013358546301066223 0.0007497252400721167 0 0 0 0
38550306 0.009748463591990797 -0.015486866335047478 0.0013421528275691665 0.0007283164224437273 0 0 0 0
38583252 0.009705798373548603 -0.015534100696619877 0.0013157565053297906 0.0007530203081434366 0 0 0 0
38616198 0.009838324671683633 -0.015446213325521138 0.0013183253086732234 0.0007441512597718983 0 0 0 0
38649144 0.009751405671947919 -0.015530067533880015 0.0013025595989023908 0.0007461554030267081 0 0 0 0
38682090 0.009748780449617316 -0.015509077281744365 0.0013107181959061923 0.0007480135482155479 0 0 0 0
38715036 0.009774384232105457 -0.015615615079139349 0.001303706642785021 0.0007879204507333169 0 0 0 0
38747982 0.009826026252729672 -0.015616082848918852 0.0013479413794315492 0.0007678382982300671 0 0 0 0
38780928 0.009752891289766693 -0.015557756333428464 0.0013203013883421799 0.0007672480913272461 0 0 0 0
38813874 0.009783891686620031 -0.015509498477992727 0.0013235235641705589 0.0007556001696792494 0 0 0 0
38846820 0.009785377593941573 -0.015546447645780136 0.001332220013948011 0.0007428942906614322 0 0 0 0
38879766 0.00987688109677352 -0.015604534341352562 0.0013227930012585094 0.000779492236064573 0 0 0 0
38912712 0.009753004267956215 -0.015687395596090354 0.0013375792643576816 0.0007518982342315357 0 0 0 0
38945658 0.00986524252970527 -0.015630554642788612 0.001314336099812616 0.0007514508765991701 0 0 0 0
38978604 0.00979665907722918 -0.015674984507496877 0.0013107494093461312 0.000763277845129498 0 0 0 0
39011550 0.009876423169918434 -0.015654764375200407 0.0013364153708793158 0.0007603167460822275 0 0 0 0
39044496 0.00981755025692714 -0.015676465068024725 0.0013255338844365507 0.000782371111321892 0 0 0 0
39077442 0.009827171041594297 -0.015643102603965328 0.0013409612974579392 0.0007797733382337826 0 0 0 0
39110388 0.00991561368636396 -0.01570382149050473 0.001329492078730125 0.0007642498651863499 0 0 0 0
39143334 0.009869205877515734 -0.01570159726804682 0.0013424340160564513 0.0007837650034624579 0 0 0 0
39176280 0.009801705273061167 -0.015748277444407627 0.0013445137976311927 0.0007542972911925268 0 0 0 0
39209226 0.00983155329111184 -0.015773639644301608 0.0013381628303083045 0.0007548773072371776 0 0 0 0
39242172 0.009802590555942797 -0.015711286503434424 0.0013195246810924403 0.0007498683301082802 0 0 0 0
39275118 0.009812703670141044 -0.015715841734786958 0.0013440297810015653 0.0007808573905777811 0 0 0 0
39308064 0.009939374751034928 -0.015713091399066622 0.0013494547474648725 0.0007493229327495154 0 0 0 0
39341010 0.009856729545736558 -0.01583403239829833 0.0013631399293752976 0.0007745031245696642 0 0 0 0
39373956 0.009865674648195322 -0.01576867280404645 0.0013392457738831821 0.0007902828545791902 0 0 0 0
39406902 0.009782476535148103 -0.01582170445564484 0.0013474143613489992 0.0007793268200356568 0 0 0 0
39439848 0.009863842251285896 -0.01581673128345672 0.0013453380238469658 0.000761836997258654 0 0 0 0
39472794 0.009839427424883135 -0.015817928825998046 0.001348905924683798 0.0007630865552792627 0 0 0 0
39505740 0.009844844047060108 -0.015892866900352107 0.0013479524036815202 0.0007521535687865609 0 0 0 0
39538686 0.009770389393947641 -0.015872650867084018 0.0013422178141653857 0.0007790896407886269 0 0 0 0
39571632 0.009871395622001417 -0.01587118551321115 0.001323758900833246 0.0007681836312452696 0 0 0 0
39604578 0.00984309158606588 -0.015982488027259992 0.0013432520238352 0.0007893542551789805 0 0 0 0
39637524 0.00985613081371286 -0.01594845727755437 0.0013579345664568256 0.0007651419367788107 0 0 0 0
39670470 0.009912627704622852 -0.015862935267959715 0.0013541396473595012 0.0007682453114704407 0 0 0 0
39703416 0.009867400618009187 -0.015959046630309934 0.0013613628334672515 0.0007930432184345959 0 0 0 0
39736362 0.009783486670624866 -0.015955840676080735 0.0013447161050979986 0.0007595637657397885 0 0 0 0
39769308 0.009890124699046859 -0.016019049020959526 0.0013273524541267485 0.0007693314244249763 0 0 0 0
39802254 0.009933153015922595 -0.015921644818655614 0.0013329568678074318 0.0008038249981214724 0 0 0 0
39835200 0.009880746818519498 -0.015952370554192043 0.0013659333736488418 0.0007965565396611275 0 0 0 0
39868146 0.009835369247202606 -0.015977809049163412 0.0013734721960796605 0.0007710112033250231 0 0 0 0
39901092 0.009838314487251882 -0.015975457919246934 0.001338730151802688 0.00078051646176326 0 0 0 0
39934038 0.009804935951169404 -0.016044010292596042 0.001353837994632741 0.0007685300348590165 0 0 0 0
39966984 0.009905106617936688 -0.01607436640291632 0.0013704983527647841 0.0007916888395684604 0 0 0 0
39999930 0.009862255651215332 -0.016084671127730082 0.0013657927420112476 0.000772499076418245 0 0 0 0
