# HZ S RI R 50
300000 0.030691639903544506 -0.021523135030533044 5.8078647964091523e-05 4.5482196851012754e-05 0 0 0 0
332946 0.026081706638040946 -0.024069009177605332 7.521799552077459e-05 7.259361749578195e-05 0 0 0 0
365892 0.021817826208375447 -0.02524514437265998 7.507064105425812e-05 9.882748834269273e-05 0 0 0 0
398838 0.017939522629421265 -0.025331457950491573 5.142640553200617e-05 7.540804044033692e-05 0 0 0 0
431784 0.01829960593419933 -0.021022280621325756 4.1897945301939484e-05 0.00012583488989452947 0 0 0 0
464730 0.015782067832336447 -0.020490220157531353 2.8206919367253955e-05 0.00013617850626057197 0 0 0 0
497676 0.013387037477192951 -0.019767982342417847 2.4114808970159503e-05 0.00014438708935813198 0 0 0 0
530622 0.011517633379946454 -0.01866221306676956 1.5028759630196459e-05 0.0001627852040040304 0 0 0 0
563568 0.009951888537276035 -0.01727342292927738 3.188948447217576e-05 0.0001604373037548434 0 0 0 0
596514 0.009181764850006408 -0.0160147272434256 2.718796838474383e-05 0.00016141479948593985 0 0 0 0
629460 0.008285937123847757 -0.014692369986488926 1.818409798605673e-05 0.0001969335049131249 0 0 0 0
662406 0.007823927926518513 -0.013810036282720078 2.850477427167892e-05 0.0002147578453850906 0 0 0 0
695352 0.007141591218022361 -0.012690903338176894 2.0072251864140533e-05 0.000209118525547536 0 0 0 0
728298 0.006897071525665957 -0.011977025620393354 2.626485989473112e-05 0.00021739649772297106 0 0 0 0
761244 0.006902925038761087 -0.011180123579327671 7.962810032117367e-06 0.000198541062863902 0 0 0 0
794190 0.006713645178146156 -0.010466525345286175 4.66662496488132e-05 0.00022906587854498205 0 0 0 0
827136 0.0067259049807555284 -0.00985638647089197 4.359933551403904e-05 0.0002466163376265742 0 0 0 0
860082 0.00664293587936924 -0.009333880795393728 8.592649046076187e-06 0.00025742804485311604 0 0 0 0
893028 0.006573008506199684 -0.008960078736786782 3.29368075083916e-05 0.00026827897164593276 0 0 0 0
925974 0.006528430165021814 -0.008439918616073312 2.803471000922411e-05 0.0002873679266937899 0 0 0 0
958920 0.006630018176427209 -0.008280852316486051 2.874740708956074e-05 0.0002655594422996596 0 0 0 0
991866 0.006505818927446803 -0.007812247731035176 4.659026878273498e-05 0.0003048258209038152 0 0 0 0
1024812 0.006631069385370435 -0.007535807598935107 5.43385039077583e-05 0.0003033286718899139 0 0 0 0
1057758 0.006684898311895237 -0.007415692707772193 2.6835423181216685e-05 0.0003123986413348644 0 0 0 0
1090704 0.006760495698614823 -0.007276062600670118 3.497520067098713e-05 0.00032814613207942544 0 0 0 0
1123650 0.006662934050947018 -0.006913887330083645 5.9736726151512244e-05 0.0003281140857832048 0 0 0 0
1156596 0.006670534855029011 -0.006535713826607103 6.408891549547584e-05 0.0003628981057203042 0 0 0 0
1189542 0.0067436247424853876 -0.006462630033034938 8.177972890072937e-05 0.00036821889937152356 0 0 0 0
1222488 0.00695044164375235 -0.0063084073769024045 7.779570510770269e-05 0.0003888554879356344 0 0 0 0
1255434 0.006867112476592858 -0.006228665424903395 8.130367270637074e-05 0.00038306899543225157 0 0 0 0
1288380 0.006690943690169755 -0.0061743431267033 5.521847859184046e-05 0.0003784798969623042 0 0 0 0
1321326 0.006660354058387064 -0.005965511155767081 9.815541773619841e-05 0.00038124508286110464 0 0 0 0
1354272 0.006702292530262431 -0.005800545024883822 7.903540059431082e-05 0.00039731287585887266 0 0 0 0
1387218 0.006759678985451862 -0.005888519182354317 7.871019715596866e-05 0.00042908293189508796 0 0 0 0
1420164 0.006791823200060436 -0.005833739402531032 0.00010501043906592146 0.00045034341232250846 0 0 0 0
1453110 0.006720484531361503 -0.005861570513388532 0.0001222068023866752 0.0004493750074084094 0 0 0 0
1486056 0.0064788235628661026 -0.005676584562259598 0.00010719807360232204 0.0004556230407839217 0 0 0 0
1519002 0.006753842115931373 -0.0055767047168964225 0.00011187454884457541 0.0004674953191771283 0 0 0 0
1551948 0.0066525216039514555 -0.005420900641004828 0.0001314060270320776 0.0004645156653901266 0 0 0 0
1584894 0.006660254775102985 -0.005360967682516817 0.00011529349839913027 0.0004907307553470409 0 0 0 0
1617840 0.0065273451717979365 -0.005389526663544788 0.00015548256903424713 0.0004742148200555835 0 0 0 0
1650786 0.006414684343939073 -0.005214335652712182 0.0001338641906626608 0.0005093478317362471 0 0 0 0
1683732 0.006414899971064427 -0.005271579901682952 0.00016239888972728982 0.000544762656899371 0 0 0 0
1716678 0.006466410173481569 -0.005147261172176089 0.00017164862264476503 0.0005415373324466488 0 0 0 0
1749624 0.0063316382950693 -0.00504906990353073 0.00016464542257729108 0.0005310229217120583 0 0 0 0
1782570 0.006306375911795761 -0.004976583926639175 0.00016896968458292395 0.0005661711558743185 0 0 0 0
1815516 0.006333884729996637 -0.0050073450088069385 0.00018947581584001245 0.0005711243875804173 0 0 0 0
1848462 0.006203561094458936 -0.0050101803722047995 0.00019649854263657028 0.0005742682592887873 0 0 0 0
1881408 0.006242767304996398 -0.004945250747501182 0.00019417727988401608 0.0005698230132344409 0 0 0 0
1914354 0.006136353649782439 -0.004911864342299262 0.00022566263489410426 0.0005678628396135625 0 0 0 0
1947300 0.006170570128380993 -0.004614773055317401 0.00020749863352107536 0.0006142783287197166 0 0 0 0
1980246 0.0059759423048795475 -0.004758061394513328 0.00021184278595223465 0.0005809841485508476 0 0 0 0
2013192 0.006024179367767482 -0.004625519835995696 0.0002355692798389112 0.0006060533869092382 0 0 0 0
2046138 0.0058692378166130404 -0.004592120625284507 0.00025919858591235426 0.0006222437935764725 0 0 0 0
2079084 0.006015718605063612 -0.004512748884650849 0.0002565266531737945 0.0006485503008598141 0 0 0 0
2112030 0.006090489308633131 -0.00449878400041198 0.00028914569214174386 0.0006526204294939624 0 0 0 0
2144976 0.006081671297616321 -0.0043880224792478195 0.000292572360451937 0.0006634645676527336 0 0 0 0
2177922 0.005925115566329578 -0.0042309961193372604 0.0003018523284871631 0.0006459846057562789 0 0 0 0
2210868 0.0057170044399261506 -0.004249471430867876 0.0003378849287577545 0.0006725990787472687 0 0 0 0
2243814 0.0058089654078885885 -0.004253295497032777 0.0003341942292400684 0.000687758943503842 0 0 0 0
2276760 0.005833335790003254 -0.004215271919434252 0.00033645877687285113 0.0006865697440035744 0 0 0 0
2309706 0.005695594076490844 -0.004150694692104488 0.0003541855164091748 0.0006963659835442593 0 0 0 0
2342652 0.00566943218603164 -0.004202439022104894 0.0003627440091395758 0.0007139413381674379 0 0 0 0
2375598 0.005839395072232112 -0.0041440337776429215 0.00041009823200968145 0.0006871675570978984 0 0 0 0
2408544 0.005747230036920155 -0.00398901202149609 0.0004125498266798352 0.0007025780101065842 0 0 0 0
2441490 0.005628383787942759 -0.0038940952512996423 0.00042252260460006044 0.0007068767005509434 0 0 0 0
2474436 0.005406491173976051 -0.0038741837386213206 0.0004298537080794437 0.0007148351671194679 0 0 0 0
2507382 0.005700567267480041 -0.003925227968076262 0.0004620356020602434 0.0007281830270348124 0 0 0 0
2540328 0.005812955964846542 -0.0038020273179435954 0.00046917228383089175 0.0007330613334254208 0 0 0 0
2573274 0.005529628389045567 -0.003657008512869606 0.0005047904122134066 0.0006959608253809797 0 0 0 0
2606220 0.005424453972039024 -0.0035803140505068034 0.0005153450394097969 0.0007100248880628721 0 0 0 0
2639166 0.005443581680448188 -0.0035452384523760078 0.0004927600105045861 0.0006847587615018697 0 0 0 0
2672112 0.005693154061409771 -0.0036437480805050575 0.0005536193505248174 0.0007372574647391111 0 0 0 0
2705058 0.0056381566869109 -0.0035696904879782077 0.0005344170735960077 0.0006983437181205893 0 0 0 0
2738004 0.005599824205557691 -0.003405587956601077 0.0005559910514605816 0.0007029375867143001 0 0 0 0
2770950 0.00566988947086451 -0.003390131400815209 0.0005879065238436116 0.0007172664956014978 0 0 0 0
2803896 0.005408817512460869 -0.0032902193954353304 0.0005861369585178185 0.0006742255490314259 0 0 0 0
2836842 0.0052755018286611555 -0.003356400618106247 0.0006412250248667572 0.0006792729789272 0 0 0 0
2869788 0.005577329549237923 -0.0033202352316517012 0.000614713000417605 0.0006601503280332664 0 0 0 0
2902734 0.005616282347212147 -0.0032870775851461063 0.0006527728208426643 0.0006819967579638442 0 0 0 0
2935680 0.005467574348426828 -0.00320418320493359 0.0006614592537984918 0.0006839863395530999 0 0 0 0
2968626 0.005401838257219659 -0.0031162348880844153 0.0006658856709025131 0.0006796316057180579 0 0 0 0
3001572 0.005450777771678531 -0.0031138502759890524 0.0007168502593220966 0.0006288468780316989 0 0 0 0
3034518 0.005563378146754621 -0.003104233592654254 0.0007144841983911812 0.0006229256983561244 0 0 0 0
3067464 0.005501875724837782 -0.002945696733415468 0.000681637156494252 0.0006144019278728403 0 0 0 0
3100410 0.005354793178544355 -0.002984432063877117 0.0007241155539446836 0.0006125201770035728 0 0 0 0
3133356 0.005327576173676491 -0.002912133922906922 0.0006988933170668118 0.0006062297658656763 0 0 0 0
3166302 0.005521630190499346 -0.0030629441930010762 0.0007286630293576814 0.0005689084777488131 0 0 0 0
3199248 0.005519268241216547 -0.0029812894702208885 0.0007498773694593018 0.0005808980705668657 0 0 0 0
3232194 0.005407316028803772 -0.0028622813614091304 0.0007817912428669249 0.0005790246981253825 0 0 0 0
3265140 0.005362852061518202 -0.002770838440763494 0.0007676960272616744 0.0005629926482733821 0 0 0 0
3298086 0.00527931477287321 -0.0027732841453275503 0.0007716872005092542 0.0005597772392210667 0 0 0 0
3331032 0.0055248254784304104 -0.002839027437101967 0.0007885927226710482 0.0005248335140339858 0 0 0 0
3363978 0.005486192882497518 -0.0027858944308040475 0.0007600049763634627 0.0005218282531104099 0 0 0 0
3396924 0.005493523121120249 -0.002733372817217865 0.0007800117423222831 0.00047938646669138394 0 0 0 0
3429870 0.005354093934035631 -0.002712214924447038 0.0007680241147297173 0.00047267225121048844 0 0 0 0
3462816 0.005290020921693337 -0.002672646403178258 0.0007471554938571671 0.00046526546728922345 0 0 0 0
3495762 0.005324360103841401 -0.0026175904599789715 0.0007825308988698425 0.0004664327217323283 0 0 0 0
3528708 0.005393225742627213 -0.0026743046758147026 0.000817175076667385 0.00044915691439703995 0 0 0 0
3561654 0.00556445241108779 -0.0026253472391676467 0.0007923295843680901 0.00045555928132673504 0 0 0 0
3594600 0.005480782861595921 -0.002541740606723368 0.000790220047389384 0.00043459204684658095 0 0 0 0
3627546 0.005519131687059434 -0.0025918122652428166 0.0007627209038207675 0.0004113776777413475 0 0 0 0
3660492 0.005442037988542087 -0.002435442986690429 0.0007585555825762716 0.00041056607942711946 0 0 0 0
3693438 0.005273377534233839 -0.00246912330865398 0.0007743560644264137 0.0003946703989114269 0 0 0 0
3726384 0.00545456749353718 -0.002542837879267401 0.0007595915065176787 0.00038924091804775875 0 0 0 0
3759330 0.005293055046368192 -0.0025611069819751853 0.0007512043430476803 0.00034328275476247164 0 0 0 0
3792276 0.00542634336274516 -0.0024562947423646545 0.0007490343081074496 0.00034893830257007715 0 0 0 0
3825222 0.005489971623384995 -0.002547745915847163 0.0007335596135935944 0.00036812320535775016 0 0 0 0
3858168 0.005355444339020987 -0.0022905810083954504 0.0007536745131395032 0.00032297974121382484 0 0 0 0
3891114 0.005393488544906957 -0.0023713037054760903 0.0007488913409693454 0.0003224438163958003 0 0 0 0
3924060 0.005266107130871348 -0.0023471173867880275 0.000753490870098924 0.0003160702294728277 0 0 0 0
3957006 0.0053692802451705554 -0.0023302986986393527 0.0007064454541094471 0.0003311488550119286 0 0 0 0
3989952 0.005510815062167809 -0.0023192869326855176 0.0007214199459636522 0.0003002900156225243 0 0 0 0
4022898 0.005381085742228589 -0.002370187263983479 0.0007381785799745289 0.00030590511829169413 0 0 0 0
4055844 0.005445915734093216 -0.0022869966061531085 0.0007265941298602866 0.00029509821666244296 0 0 0 0
4088790 0.005473713363896481 -0.00222679882874374 0.0007045355384002057 0.00028904487200293776 0 0 0 0
4121736 0.005309061842519978 -0.0023236091698452823 0.0007051395684304594 0.00029688388842376875 0 0 0 0
4154682 0.005470607294039961 -0.002215228276124251 0.0006856544002191752 0.00026678938810223863 0 0 0 0
4187628 0.005555803519602999 -0.0022066990632458885 0.0006665648321620729 0.0002669135994557298 0 0 0 0
4220574 0.00544379096925017 -0.002154685675804316 0.0006685258420487714 0.0002936257519960668 0 0 0 0
4253520 0.0053844639813015235 -0.0020239878886973094 0.0006604975506780883 0.00027736922711534126 0 0 0 0
4286466 0.005434014040337016 -0.0020773091204878144 0.0006465928675565254 0.00028101219883581904 0 0 0 0
4319412 0.005523209275560235 -0.002104046260245187 0.0006667732431160111 0.0002859557748018427 0 0 0 0
4352358 0.005502612267080328 -0.0020264051440769234 0.0006377340466278793 0.00028979491029168747 0 0 0 0
4385304 0.005270214612263118 -0.0020882227223334745 0.0006544516362062999 0.0002867713255857561 0 0 0 0
4418250 0.005472349584792181 -0.002064069406942141 0.0006310079637754941 0.00024452939476485 0 0 0 0
4451196 0.005576276473185466 -0.0020480482604832836 0.0006054688939958919 0.0002810120242794448 0 0 0 0
4484142 0.00550648152216642 -0.0019446095503317866 0.0006394239651369165 0.00028104684878183704 0 0 0 0
4517088 0.005486779453273545 -0.0020084024680520262 0.000626742900998973 0.0002788472691669712 0 0 0 0
4550034 0.005459232934990741 -0.0019669213568049627 0.0005823484560910188 0.0002614621575042775 0 0 0 0
4582980 0.0054409516484109025 -0.002001268142858517 0.0006079629197735921 0.0002795456909546111 0 0 0 0
4615926 0.00554064045870228 -0.0019691482932528933 0.0005969002500301494 0.00026244850705890407 0 0 0 0
4648872 0.005570056551562529 -0.001888965954409689 0.0005843036152117273 0.00025487147366044083 0 0 0 0
4681818 0.005608408765559858 -0.001966480641901755 0.0005891425743593639 0.0002740421652594538 0 0 0 0
4714764 0.005571643261457767 -0.001819809734657462 0.0005618149668143701 0.0002590603205611941 0 0 0 0
4747710 0.005506772937371913 -0.0018130901199574102 0.0005487096004988447 0.0002514735567980929 0 0 0 0
4780656 0.0055161531544205425 -0.0017820532425758407 0.0005527722315665728 0.0002703919912951401 0 0 0 0
4813602 0.005609971104109914 -0.0018498169382144744 0.0005590530325546134 0.0002588995547350954 0 0 0 0
4846548 0.0056276938025753885 -0.0018002780242181765 0.0005552264954838693 0.0002905268642593064 0 0 0 0
4879494 0.005505959315559228 -0.0018018833422307082 0.0005410553675722381 0.0003099190308022062 0 0 0 0
4912440 0.005542907563782935 -0.0017523778754203858 0.0005532556201962267 0.00027884189089536843 0 0 0 0
4945386 0.005614810514904686 -0.0017967530817382046 0.0005325087595837642 0.0002927976660336204 0 0 0 0
4978332 0.005624362102767224 -0.0016825111643215195 0.0005177305059920349 0.000291057031737965 0 0 0 0
5011278 0.005621344210170408 -0.0017314708345540373 0.0005177457585393171 0.00027981362183147684 0 0 0 0
5044224 0.005690982565066763 -0.0017479757587998252 0.0004990878019412626 0.0002733300888486168 0 0 0 0
5077170 0.005653528267492443 -0.0016870881560468404 0.0005498621498487849 0.00028106692942818893 0 0 0 0
5110116 0.005546486204639527 -0.0016308666308242775 0.0005137292416371082 0.00031665461082746053 0 0 0 0
5143062 0.005592062005204573 -0.001677244316285821 0.0005220398674159103 0.000288684244896262 0 0 0 0
5176008 0.005615631720800307 -0.0016168430314347994 0.00047598846807593765 0.0002978114951466336 0 0 0 0
5208954 0.005763568524301839 -0.0016509685789061323 0.0004923638518193878 0.0003049466887200936 0 0 0 0
5241900 0.005683321555851662 -0.0015615669072331665 0.000471092882699731 0.00028714805058506704 0 0 0 0
5274846 0.005651035002638642 -0.0016111677952669412 0.0004999210817341644 0.00031960445361866815 0 0 0 0
5307792 0.005690001188015108 -0.0016253775816094593 0.00046064952914163815 0.00029061917490216533 0 0 0 0
5340738 0.0057788039485893745 -0.0016270845845782458 0.00045921135201482165 0.00031334785712493375 0 0 0 0
5373684 0.005804633348423567 -0.0016129039584271026 0.0004698612116001116 0.00031570119546224366 0 0 0 0
5406630 0.005822320822925099 -0.001596339568848729 0.0004736323673244352 0.00031597382615216284 0 0 0 0
5439576 0.005806044367085502 -0.0015715104086667154 0.00047961938749067396 0.000305897967928635 0 0 0 0
5472522 0.005754964593003597 -0.0015749408403431852 0.00046433067502587075 0.00030970266422604263 0 0 0 0
5505468 0.005820700356255934 -0.001562028323424176 0.00044966604392973283 0.0003221727409919814 0 0 0 0
5538414 0.00587959971727426 -0.0016902709670739977 0.0004715667413179377 0.0003359687163151585 0 0 0 0
5571360 0.00579491624794649 -0.0015033750865601403 0.00041928304070597765 0.0003381267759106412 0 0 0 0
5604306 0.005728039851901751 -0.0015438946292045015 0.0004423318908128378 0.0003316457550391534 0 0 0 0
5637252 0.005847348241112875 -0.0015000490235498201 0.0004388690826004886 0.0003393514729296704 0 0 0 0
5670198 0.005891726293408807 -0.0015159651497202132 0.0004304503038139008 0.00034084088235559107 0 0 0 0
5703144 0.005903258638175816 -0.0015332205562031563 0.0004341622866511485 0.0003588289999124451 0 0 0 0
5736090 0.005902537040899525 -0.0015138326211930502 0.0004435539141206865 0.0003567047508664602 0 0 0 0
5769036 0.005929745517304983 -0.0015683105779766187 0.0004483920775624139 0.0003266467150281916 0 0 0 0
5801982 0.00610084249527888 -0.0015415635257105703 0.000429514053274362 0.0003385312236354076 0 0 0 0
5834928 0.00597670444733524 -0.0014781437505520184 0.0004310710549241495 0.00031980512514531565 0 0 0 0
5867874 0.005963901516757762 -0.0014529729635637987 0.00039577059767687656 0.00038133841555516515 0 0 0 0
5900820 0.005942623590591669 -0.0014095628079857998 0.00039647032474424024 0.0003836393839651242 0 0 0 0
5933766 0.006041330296167658 -0.0014519439124857916 0.00039486088260645024 0.00035789166417853313 0 0 0 0
5966712 0.005891381781531775 -0.0014781068594950978 0.000387548411661609 0.00036795991596421697 0 0 0 0
5999658 0.005966851354506545 -0.0014560844229908638 0.00039742685907516125 0.0003790553448432334 0 0 0 0
6032604 0.0061823165721314995 -0.0015472656553594376 0.00040073878867984884 0.00039389875950999494 0 0 0 0
6065550 0.0060058380260383576 -0.0014676174869222881 0.00041425042376803787 0.000379581811565779 0 0 0 0
6098496 0.006130640473379421 -0.0013454346872108537 0.00038620514464598034 0.00037650827165411165 0 0 0 0
6131442 0.006060991660663553 -0.0014132625067044668 0.0003834571912253489 0.00040537539650452233 0 0 0 0
6164388 0.005985421626243854 -0.0014896864452462806 0.00036660120294827834 0.00039365938303404944 0 0 0 0
6197334 0.006104936880489274 -0.0014328884585438257 0.0004269101768605904 0.00044274578451801406 0 0 0 0
6230280 0.006145701263486044 -0.0014574881378268208 0.00041757818122690397 0.00041556698358383707 0 0 0 0
6263226 0.006161995059772061 -0.0013637548783097724 0.0004085164866001868 0.00043518489116007447 0 0 0 0
6296172 0.006150701135516416 -0.0013345161330079586 0.0003715851695339471 0.00040007012157466004 0 0 0 0
6329118 0.006132260968537703 -0.001431811668379652 0.00036479824782313056 0.0004038666017212771 0 0 0 0
6362064 0.006167403507004268 -0.0014244039391723895 0.00038547251261165883 0.00042072029723863027 0 0 0 0
6395010 0.006216213694627821 -0.0014197765911550242 0.0003769006324727703 0.00042589045026881307 0 0 0 0
6427956 0.006155767023876322 -0.0013624516056178941 0.0003888782052516193 0.0004348972514726463 0 0 0 0
6460902 0.006171818850861796 -0.0014239724541169581 0.00038409616599033395 0.0004401358251742771 0 0 0 0
6493848 0.006155981999243709 -0.0013843896427008964 0.0003640568872486558 0.00045312145964132247 0 0 0 0
6526794 0.006238762184300591 -0.0014289920606808707 0.00036837995736674285 0.0004410509793491971 0 0 0 0
6559740 0.006166284315137833 -0.0014339044224434229 0.0003853552639559731 0.0004901317612928893 0 0 0 0
6592686 0.006328550380665162 -0.0013794336513692049 0.0003876552943281982 0.000444157530165767 0 0 0 0
6625632 0.006288610772563148 -0.0014155748249219645 0.00034536720184356597 0.00047329086793842254 0 0 0 0
6658578 0.006308556669152416 -0.001395879427634333 0.00038084398002482937 0.00048257476813941524 0 0 0 0
6691524 0.006248902834099294 -0.001494832282928614 0.0003467091256668886 0.00047612180869604847 0 0 0 0
6724470 0.006293268710236721 -0.0014487007695188371 0.0003383808696482855 0.00047918109816294226 0 0 0 0
6757416 0.006347760004601114 -0.0013486682834895434 0.0003395073336617668 0.00045110998179739007 0 0 0 0
6790362 0.006413057610476412 -0.0014922154886754676 0.00038336280574706574 0.0004929755502189801 0 0 0 0
6823308 0.006402800790901419 -0.0014164947848121642 0.0003393180240231196 0.00047225678007177324 0 0 0 0
6856254 0.006406207356519715 -0.0014151430023358967 0.00033038001495350856 0.0004707095731294909 0 0 0 0
6889200 0.006386320089328007 -0.0013213177635579974 0.00034527614193547926 0.0005157481457784125 0 0 0 0
6922146 0.006322879879201425 -0.0013389123328453848 0.00034572300088601607 0.0005070137825167614 0 0 0 0
6955092 0.006467083370975084 -0.0013716790353411619 0.0003744158333795466 0.0004941660726460584 0 0 0 0
6988038 0.0064105975535240535 -0.001358611551668804 0.00036631303930752376 0.000496447249830976 0 0 0 0
7020984 0.006538939453412455 -0.0014446654403929644 0.0003251469241703935 0.0005106636660046644 0 0 0 0
7053930 0.006518813941303759 -0.0012970740733757773 0.00033250042144877616 0.0005021329682105429 0 0 0 0
7086876 0.006525552688019292 -0.0014072120791581225 0.00035267859275562213 0.0005159943907437767 0 0 0 0
7119822 0.006486237393235951 -0.001390604853274775 0.0003167656598642888 0.000502761050446162 0 0 0 0
7152768 0.006454915918314949 -0.0014706969745519394 0.00033041831356072954 0.0005325009414439058 0 0 0 0
7185714 0.006463762807699891 -0.0013245946790785184 0.00034047932479743155 0.0005066159645757928 0 0 0 0
7218660 0.006499981254791616 -0.0014191312168044974 0.00034197709752347333 0.000546492569848405 0 0 0 0
7251606 0.0065916521286364564 -0.0013472417492766523 0.0003151873163287087 0.0005145299678906845 0 0 0 0
7284552 0.006533247444435467 -0.0014930615834620553 0.00032221266269886177 0.0005618237866357063 0 0 0 0
7317498 0.00652711889609889 -0.0013737942521357745 0.0003085005573949889 0.0005711351369724968 0 0 0 0
7350444 0.006545137441573256 -0.001408930350527695 0.00031448679663153835 0.0005391408910863561 0 0 0 0
7383390 0.00648958092100775 -0.0014699422215627414 0.00032722990021724846 0.0005401105668179001 0 0 0 0
7416336 0.00663793403675678 -0.0014704409151094866 0.00031508335237574606 0.0005591853445812525 0 0 0 0
7449282 0.006595207838593009 -0.001412830218232768 0.00031929620442511616 0.0005671231865665166 0 0 0 0
7482228 0.006611217488931006 -0.0014533256863947916 0.0003269438998286082 0.0005891105069226248 0 0 0 0
7515174 0.006605142356102291 -0.0014359670068170266 0.00034628230003105144 0.000580468101664352 0 0 0 0
7548120 0.006626990566573455 -0.0013937965640751105 0.00033295141099884526 0.0005630813010259569 0 0 0 0
7581066 0.006596743700122124 -0.001476710314832136 0.0003332343692177527 0.0006024154889763785 0 0 0 0
7614012 0.006623566095465217 -0.0014690081357196729 0.00030854720414683295 0.0005867845855443071 0 0 0 0
7646958 0.00661528499344888 -0.0014242730044319687 0.0002922516569727268 0.0005954404920603608 0 0 0 0
7679904 0.00663841268865173 -0.0014414997861115246 0.00031240788662719295 0.0005719292825772974 0 0 0 0
7712850 0.006666199199439375 -0.001456640428847337 0.0003296448941722841 0.0005861612532235943 0 0 0 0
7745796 0.006738288410283955 -0.0014979568123469837 0.00032001195877703464 0.0006054210644606361 0 0 0 0
7778742 0.006671425455051402 -0.001444164297935627 0.0003006309835392444 0.0006169353368334528 0 0 0 0
7811688 0.006772731106125036 -0.001563237029369705 0.00032238930340055914 0.0005809171958050863 0 0 0 0
7844634 0.006820103298702767 -0.001503865496852709 0.0002987458218345407 0.0006009678965891454 0 0 0 0
7877580 0.006796986579068019 -0.0015292668420678912 0.00030923781338993117 0.0006138949533463261 0 0 0 0
7910526 0.006750359789230522 -0.0014821440607854588 0.0003133331466661962 0.0006205026511988366 0 0 0 0
7943472 0.006797411471476417 -0.0015201295696679802 0.0003142397342680161 0.0005955314001853705 0 0 0 0
7976418 0.006808917590159686 -0.0014896404017566566 0.00030730545962652744 0.0005892930356703781 0 0 0 0
8009364 0.0069071195891293605 -0.001557845877709075 0.0003182601770280758 0.0006238928744194772 0 0 0 0
8042310 0.006855108355955427 -0.0015513018332358052 0.00032184363849342235 0.0006646811293379495 0 0 0 0
8075256 0.007000690196541789 -0.001566735453395474 0.0003094367683493007 0.0006484057206084501 0 0 0 0
8108202 0.0068674168190120755 -0.0014974372087335 0.00030911475901682816 0.0006428688555724339 0 0 0 0
8141148 0.00689089555892064 -0.0015680064763281697 0.00030818783605885027 0.0006106529184017895 0 0 0 0
8174094 0.006993280323262861 -0.0015895458718611897 0.000307241822414042 0.0006506527504167246 0 0 0 0
8207040 0.006925689950009993 -0.0015898104027013275 0.0003098748487004561 0.0006782651891295431 0 0 0 0
8239986 0.007053740168553366 -0.0015903641656666524 0.00029429394748904485 0.0006763622777172624 0 0 0 0
8272932 0.00703360065776719 -0.0015213283150186938 0.0002998606857701556 0.0006659790820861382 0 0 0 0
8305878 0.006888574311737885 -0.001538923436278897 0.0002999832967229097 0.0006597569666958208 0 0 0 0
8338824 0.006875664374100043 -0.0015596351877038789 0.00030464319910347536 0.0006678797563258431 0 0 0 0
8371770 0.006978822163707558 -0.0016591547068556683 0.00032735544400916585 0.0006510386301281871 0 0 0 0
8404716 0.007039996679809056 -0.0016661331054612291 0.00031092446359500653 0.0006635459072915055 0 0 0 0
8437662 0.007086230394064907 -0.0016848080362986486 0.000283736106565662 0.0006935923760952191 0 0 0 0
8470608 0.007146409275722525 -0.001640139422311702 0.0003044383348928556 0.000722991905374017 0 0 0 0
8503554 0.006983896102214935 -0.0016077388222604848 0.00029941965275338475 0.000709411243966511 0 0 0 0
8536500 0.007009414051643649 -0.0016337503950520043 0.0003224083278825978 0.0006890989709146512 0 0 0 0
8569446 0.007071879948206482 -0.001607990195614745 0.000308758308488109 0.0007038870024834202 0 0 0 0
8602392 0.007083074388677133 -0.001729764850678828 0.000303547337922864 0.0006938080347694398 0 0 0 0
8635338 0.007135614092733095 -0.0017259342422640323 0.00030936890661411665 0.0006787995451361914 0 0 0 0
8668284 0.007089150578357397 -0.0017701219965395591 0.0002807066198269873 0.0007097906646749891 0 0 0 0
8701230 0.007151582742925325 -0.001700596906565056 0.0003115261918553634 0.0007031079767686474 0 0 0 0
8734176 0.007169590930991102 -0.0016465799964218999 0.00029133885706123354 0.0007437323816302483 0 0 0 0
8767122 0.007100763233927926 -0.0016270254685764403 0.00030757341344118716 0.0007215195131496271 0 0 0 0
8800068 0.0071699945786898815 -0.0017593671601577746 0.0002802351929519464 0.0007417204170857653 0 0 0 0
8833014 0.007155002511323239 -0.0017519214372293964 0.00029884184027054286 0.0007356712382791175 0 0 0 0
8865960 0.007267372255475745 -0.0017588960750308151 0.00031860041314091286 0.0007263228218951613 0 0 0 0
8898906 0.007201265874858914 -0.0018006781993515747 0.00026616623770644624 0.0007481962718075667 0 0 0 0
8931852 0.007184759509280305 -0.0017687220306800838 0.00029654332118164744 0.0007304909739369574 0 0 0 0
8964798 0.007260143914633887 -0.0017867405012685852 0.0003063263666199111 0.000753220430165227 0 0 0 0
8997744 0.007169948029770031 -0.0018621248301879353 0.00027845751847713635 0.0007466438174094746 0 0 0 0
9030690 0.00724533075702383 -0.0018084392770214427 0.0002971852005156431 0.0007222487817342045 0 0 0 0
9063636 0.007236601002979502 -0.0017645083469092807 0.0002942050695950122 0.000774448359116813 0 0 0 0
9096582 0.007287876488263609 -0.00185081990569429 0.0002726758518421533 0.0007581274316849218 0 0 0 0
9129528 0.007279255463480029 -0.001741333553113148 0.00027842209082345733 0.0007950678700861671 0 0 0 0
9162474 0.00735908222226484 -0.001951028069395136 0.00027994146304927814 0.0007634272563217375 0 0 0 0
9195420 0.00734560567999082 -0.0019851889584847878 0.0002922681946998268 0.0007729790603760093 0 0 0 0
9228366 0.0073385672972474435 -0.001947376520225484 0.00026877638219075184 0.0007972406478845527 0 0 0 0
9261312 0.007327548405287668 -0.0019063884512256078 0.0002874611872650096 0.000784009768442851 0 0 0 0
9294258 0.007323267284891902 -0.001968847250682056 0.000276081064392608 0.0008057568396335137 0 0 0 0
9327204 0.0072903895050313 -0.0018999288457803962 0.0002993806936612745 0.0008166421068911028 0 0 0 0
9360150 0.007316749450087965 -0.0018989488627016696 0.0002931970305681393 0.0007837117200986173 0 0 0 0
9393096 0.0074153432607876445 -0.001892963790419199 0.00030514958645656246 0.0007955622445754787 0 0 0 0
9426042 0.00733265720969926 -0.0019220450046010247 0.00029849776990292386 0.000814420961828022 0 0 0 0
9458988 0.007428342039157404 -0.0019809149438128793 0.00026397662887760496 0.0008300967742129471 0 0 0 0
9491934 0.007462939558061366 -0.0019331643362957053 0.00026069146385954264 0.0008039712660364702 0 0 0 0
9524880 0.007404534679257398 -0.0019923281411803285 0.0002966935563761653 0.0007970373215537747 0 0 0 0
9557826 0.007417458047540972 -0.0019559959365431853 0.0003141852177921673 0.000819540872681264 0 0 0 0
9590772 0.007456953149161519 -0.0020206270853632595 0.00027684258011438347 0.000808412464452291 0 0 0 0
9623718 0.00738549546058657 -0.002059527990426317 0.00027864684470239507 0.000791462088501251 0 0 0 0
9656664 0.007551789158495017 -0.0020576987069609053 0.0002869455859811351 0.000803581726196124 0 0 0 0
9689610 0.0075004706501000645 -0.002097012942639686 0.00027538194516345325 0.0008400599382351462 0 0 0 0
9722556 0.007421071471781736 -0.0020164854287461433 0.00028794789569138736 0.0008506165249296265 0 0 0 0
9755502 0.007486299239310922 -0.0020549536336742663 0.0002728255516349696 0.0008351013884432624 0 0 0 0
9788448 0.0075129516180423355 -0.002042143657357921 0.00027689372608253845 0.0008259456460086088 0 0 0 0
9821394 0.0076064813380321205 -0.002160468931760964 0.00028846671528764294 0.0008427029000480907 0 0 0 0
9854340 0.007628325595840274 -0.0020986816011727516 0.0002634470175490981 0.0008559958553147234 0 0 0 0
9887286 0.0075013483457180025 -0.0021816563992522837 0.0002726676904275573 0.0008379997412266718 0 0 0 0
9920232 0.007484898670897546 -0.0020437876195164672 0.00027749268055690473 0.0008612859930154277 0 0 0 0
9953178 0.007500434504240972 -0.002106299811949798 0.0002714141138900533 0.0008575848633541939 0 0 0 0
9986124 0.007527524341099955 -0.002157577453266748 0.00026289170728720907 0.0008901242818658779 0 0 0 0
10019070 0.0077066047791917525 -0.002138557987455401 0.00024119675845529157 0.0008669169031878807 0 0 0 0
10052016 0.007679755331119884 -0.0021856771067153852 0.00025359255839821744 0.0008660008050262929 0 0 0 0
10084962 0.007460016248855689 -0.00221285264135965 0.00027101245841601587 0.0008602431399222317 0 0 0 0
10117908 0.00754851030777017 -0.002234787261948688 0.00026531744774407445 0.000879756810896403 0 0 0 0
10150854 0.0076270201500506 -0.0022270695386189462 0.00029444209343390163 0.0009093251458361366 0 0 0 0
10183800 0.007607165402249268 -0.0022244036540881255 0.00027418555228586914 0.0009163574007210262 0 0 0 0
10216746 0.007695314109730234 -0.0023016918919518186 0.000281704617541022 0.0008977195580036467 0 0 0 0
10249692 0.007775598583585529 -0.002279487704281638 0.0003065795143837656 0.0008874710548847945 0 0 0 0
10282638 0.007583940513575274 -0.0022978085156343795 0.00026336626108308176 0.0008758837383652178 0 0 0 0
10315584 0.007547500564913278 -0.0022556112721895424 0.000302923914785699 0.0008971598113235929 0 0 0 0
10348530 0.007657255257179309 -0.002354972676709335 0.00028720250161016537 0.0009062347189250042 0 0 0 0
10381476 0.007652089911852636 -0.0023593903965569924 0.0002968849727717739 0.0009276141781036617 0 0 0 0
10414422 0.007686256631177194 -0.0023852664534659675 0.00027779588951694513 0.0009061865500764809 0 0 0 0
10447368 0.007667703402908157 -0.002382093778972556 0.00027645525094482275 0.0009143241935127458 0 0 0 0
10480314 0.007615796107202228 -0.002373567917978666 0.0002412404662239111 0.0009525639426828246 0 0 0 0
10513260 0.007671630817640852 -0.0023278813401259417 0.00025594669487965247 0.0009247284446121314 0 0 0 0
10546206 0.007715814986677922 -0.002413541930842405 0.00030348821700653544 0.0009501852110979467 0 0 0 0
10579152 0.007759359308519453 -0.0023511516504218896 0.000287600860277402 0.0009072163009947723 0 0 0 0
10612098 0.00772082758401726 -0.0024251461327212723 0.0003062034321378062 0.0009576602662333378 0 0 0 0
10645044 0.007670646957760233 -0.00244124646316883 0.0003000797126097761 0.0009373462053717883 0 0 0 0
10677990 0.007662785765691796 -0.002320032760332652 0.00029421633005047065 0.0009479331230124652 0 0 0 0
10710936 0.007711508147473603 -0.0025306513092384336 0.0002744779585499196 0.000934986137681226 0 0 0 0
10743882 0.007817406150856085 -0.0024684472568358706 0.0002677422499607577 0.000969339135023353 0 0 0 0
10776828 0.007802375805710805 -0.002476714465026047 0.00026914188800716707 0.0009541823928217721 0 0 0 0
10809774 0.007704885549810703 -0.0023830063461998817 0.0002853321407584897 0.0009667450122749318 0 0 0 0
10842720 0.0076911976922391136 -0.002477151692413469 0.00029341941630882075 0.0009846191795688396 0 0 0 0
10875666 0.007750050777302008 -0.002525142743364684 0.00028016601149721506 0.000982221605593387 0 0 0 0
10908612 0.007711877841507147 -0.002523956609732813 0.00026823193049906806 0.0009712224842980123 0 0 0 0
10941558 0.007803740894176916 -0.00244592800812274 0.00029405269412080776 0.0009767838094882045 0 0 0 0
10974504 0.00776081257181409 -0.0025927388284525984 0.0002532256979113386 0.0009827553695659385 0 0 0 0
11007450 0.00770007717201613 -0.0025475078970928497 0.0002739147606352288 0.0009967957601465008 0 0 0 0
11040396 0.007810649294448051 -0.0025766776583863627 0.0002887828356057316 0.0010031719676763058 0 0 0 0
11073342 0.007881705315642062 -0.002650656850620459 0.00026646384676008516 0.0009837261788023122 0 0 0 0
11106288 0.00783185544029288 -0.0025974454828484672 0.0002745619833129307 0.0009886681469073156 0 0 0 0
11139234 0.007837858506444908 -0.0026127898914419887 0.0003075264000869665 0.0009916099099941881 0 0 0 0
11172180 0.007956942872499912 -0.002725980109246921 0.0002816055175774738 0.0009984042100604944 0 0 0 0
11205126 0.007897516335237947 -0.002675067250692101 0.0002750202325570071 0.0009905071226171973 0 0 0 0
11238072 0.007907166368361496 -0.0026423102484941334 0.00027312929176713204 0.0010323334442783898 0 0 0 0
11271018 0.007728494753437944 -0.0025903244197587314 0.0002848448658093665 0.0010257514669151373 0 0 0 0
11303964 0.007861891195522015 -0.002763104589556069 0.00032126463895627567 0.0010073787477602651 0 0 0 0
11336910 0.007913718451186255 -0.002723093480323007 0.00028384555871970225 0.001025615973451965 0 0 0 0
11369856 0.00784400724144368 -0.002693044805408536 0.0003072673833498134 0.0010443507913189326 0 0 0 0
11402802 0.007944204242320346 -0.0028246058939681413 0.00025954662044842954 0.0010438548677880598 0 0 0 0
11435748 0.00799913472103014 -0.0028638850468435833 0.00030021094903652973 0.0010497346171905522 0 0 0 0
11468694 0.00791631651562821 -0.0028178315437768927 0.00024650701961123183 0.0010477417899506084 0 0 0 0
11501640 0.007962878702287788 -0.002804979261918299 0.00027530823719136197 0.0010033383920497855 0 0 0 0
11534586 0.007825502422940635 -0.002824469980816606 0.0002622930177679016 0.0010231566806779499 0 0 0 0
11567532 0.007935302781291828 -0.002785592214464878 0.0002610929044942805 0.0010746861534258547 0 0 0 0
11600478 0.007929986760517165 -0.0027853917701591174 0.00027315543743981297 0.001042590098360432 0 0 0 0
11633424 0.008016980157934022 -0.002911668867879208 0.00026862123929744354 0.001065706264069413 0 0 0 0
11666370 0.007943463250844978 -0.0027925153268557163 0.00020147467008629016 0.0010594170119943914 0 0 0 0
11699316 0.0078391954553484 -0.0028474861675989774 0.00027015776002093636 0.0011025028720580584 0 0 0 0
11732262 0.007891074348507342 -0.002793654583714697 0.0002506525874685047 0.0010839369071054912 0 0 0 0
11765208 0.008047608118896663 -0.0028683138476435456 0.00026185011351519697 0.0010632398438953066 0 0 0 0
11798154 0.008024801659518924 -0.0028843266140908437 0.0002902332544967413 0.0010869459302090731 0 0 0 0
11831100 0.008003560000802698 -0.0029090032882683856 0.0002604721050081743 0.001089574608028727 0 0 0 0
11864046 0.00793568565442839 -0.0028891507435569487 0.0002839510627436248 0.0010982999921725946 0 0 0 0
11896992 0.007957867905346219 -0.0029686404550870755 0.0002689050601270923 0.0010978659024401744 0 0 0 0
11929938 0.007871354251454974 -0.0029881658694554353 0.00027150202969323243 0.00109827008558631 0 0 0 0
11962884 0.007981998121789347 -0.0030630276237371638 0.0002777870052291659 0.0011030619231287557 0 0 0 0
11995830 0.00806146950424003 -0.0030796537375816983 0.0002850307093878809 0.0011047692245272343 0 0 0 0
12028776 0.008071942434020027 -0.003076280581663492 0.0002756314444229383 0.0011138505433483925 0 0 0 0
12061722 0.007984688449607607 -0.0030200544050608636 0.00026399337124248637 0.0011168241916085894 0 0 0 0
12094668 0.008105730301748416 -0.003046182936870357 0.0002548886090241413 0.0011030635944538527 0 0 0 0
12127614 0.00796540541789438 -0.0029445464639169484 0.00029178200487653383 0.0011282726740299402 0 0 0 0
12160560 0.0079734507813414 -0.003001823090619702 0.00028748282536184076 0.0011338963088152849 0 0 0 0
12193506 0.008018125376515526 -0.0030912269517275586 0.00026314043149609247 0.0011251358259413322 0 0 0 0
12226452 0.008065182119563448 -0.0030208569787675546 0.0002653076175996366 0.0011034189614220712 0 0 0 0
12259398 0.008109650917474487 -0.0031484295785543124 0.00029079878662258737 0.0011463308301884068 0 0 0 0
12292344 0.008049036596124296 -0.0030054785337581868 0.00026739141322539554 0.0011004041937872338 0 0 0 0
12325290 0.008118830358049644 -0.0032694007476196272 0.00029586273311855044 0.0010960534078199096 0 0 0 0
12358236 0.008134038638276326 -0.003239581014766226 0.0002764902685016978 0.0011193606122621238 0 0 0 0
12391182 0.008060933378377752 -0.003200600811898771 0.00027267430775260783 0.0011355133883856055 0 0 0 0
12424128 0.008119345630318556 -0.003170623916633363 0.00029971596300007035 0.0011537668889316165 0 0 0 0
12457074 0.008047296493613453 -0.00321521030286228 0.00026741071908077544 0.0011460690557025745 0 0 0 0
12490020 0.007992724996574817 -0.0031804982001839605 0.0002645452241812332 0.0011486930518881048 0 0 0 0
12522966 0.008096283499896363 -0.0032658254123080752 0.0002814480242040082 0.0011388586288385912 0 0 0 0
12555912 0.00809345704942147 -0.0032093369302433404 0.00026524594031124396 0.0011294626958050053 0 0 0 0
12588858 0.008045924953759862 -0.0032370255076907706 0.00027197828072795594 0.0011543250649333832 0 0 0 0
12621804 0.008173694859878143 -0.003326911906474142 0.00026261865458126837 0.0011562786414985146 0 0 0 0
12654750 0.00815960796414137 -0.0033165822338066726 0.00028790283858421057 0.0012010738221029972 0 0 0 0
12687696 0.008125433382773122 -0.00334447664062438 0.00028342324302876913 0.0011477348865791795 0 0 0 0
12720642 0.008156344800281708 -0.0032633445882058795 0.0002763792158100433 0.0011839423671655388 0 0 0 0
12753588 0.008038964307311849 -0.0032684779185798186 0.00026385865342264483 0.0012052455396809165 0 0 0 0
12786534 0.008085001403237318 -0.003386451049845047 0.000270071532881889 0.0011789947965606302 0 0 0 0
12819480 0.008132918892572415 -0.0033334789965931973 0.0002523763156313092 0.001165944486225967 0 0 0 0
12852426 0.008201113039137203 -0.003430319365937584 0.0002740790296198428 0.001198575143493753 0 0 0 0
12885372 0.008176967658072035 -0.0034599579450584166 0.00026719194534061016 0.0011857132037142806 0 0 0 0
12918318 0.0082502057985669 -0.0033455947292194417 0.0002617560463675538 0.0012389329601301396 0 0 0 0
12951264 0.008116564853052108 -0.0033524733550658703 0.0002878413360066032 0.0012050471443159781 0 0 0 0
12984210 0.008139197009396165 -0.0034454104055013776 0.00023352333671661422 0.0012174693316977195 0 0 0 0
13017156 0.008100601878152565 -0.00346884853377851 0.00026699374874021646 0.0011960145874635765 0 0 0 0
13050102 0.008177821070773016 -0.003505063005524028 0.00027346702331656147 0.0012138062031730923 0 0 0 0
13083048 0.008275927940096038 -0.003472848083647691 0.0002925583352341623 0.0012238044378685689 0 0 0 0
13115994 0.008224030141627295 -0.003438475503524553 0.0002868095944707117 0.0012089549703862465 0 0 0 0
13148940 0.008197949547149407 -0.003513605834582631 0.0002925398682759704 0.0012114040049463386 0 0 0 0
13181886 0.008135875563087053 -0.003529517692741513 0.0002628671719869437 0.0012224648597587596 0 0 0 0
13214832 0.00824135179557545 -0.003624948969483569 0.00027429189397328057 0.0012426908426665336 0 0 0 0
13247778 0.008150063978259384 -0.0035549973565295913 0.0002848692321583934 0.0012363742773061285 0 0 0 0
13280724 0.008162682829824052 -0.0035585113681956305 0.000290473650834324 0.001231160215893125 0 0 0 0
13313670 0.008274365773971558 -0.0035228622176835286 0.0002854022395725274 0.0012582767555849538 0 0 0 0
13346616 0.008325335117040651 -0.003627455469759636 0.00025536654797328646 0.001257523062635346 0 0 0 0
13379562 0.008178682861433107 -0.003650796924337304 0.0002958128615771197 0.001250737811020574 0 0 0 0
13412508 0.008176884905276849 -0.0036041165983080087 0.0002760057237604577 0.001272336668010323 0 0 0 0
13445454 0.008177453304537953 -0.0036363951306417714 0.0002692363720917061 0.0012565312856590298 0 0 0 0
13478400 0.008205594877078585 -0.0036485945989467674 0.00028212939891483345 0.0012707008162845977 0 0 0 0
13511346 0.00817766594387767 -0.003605976862970664 0.000281934644192212 0.0012789289138141328 0 0 0 0
13544292 0.008182865371179212 -0.003700824135338805 0.0002540826793465647 0.0012805830190217662 0 0 0 0
13577238 0.008295232975493361 -0.0037000884958641434 0.000256175700825157 0.0012696874542661347 0 0 0 0
13610184 0.008233197764732957 -0.0036535151594131207 0.0002739330013705476 0.0012589240303681767 0 0 0 0
13643130 0.008263379710584344 -0.003761489293204242 0.00027044103842811725 0.001290642725116043 0 0 0 0
13676076 0.00834219197591963 -0.0037459021330612584 0.0002893044325682063 0.0012933809508694923 0 0 0 0
13709022 0.00828223309207426 -0.003808123463639915 0.00026011619577949376 0.0012935237868319355 0 0 0 0
13741968 0.00816681030839612 -0.00371133860083268 0.00026044767797104646 0.0013021274115780166 0 0 0 0
13774914 0.008225785305423115 -0.003837153385051267 0.000279817367313359 0.0012973007322733907 0 0 0 0
13807860 0.008227266742382609 -0.003789554545562435 0.0002743465747635753 0.0012983930428289183 0 0 0 0
13840806 0.008300163310985032 -0.003941922175390458 0.00025948243035175153 0.001300421849108344 0 0 0 0
13873752 0.00827871227979799 -0.0038414067634289007 0.00028020724997784266 0.0013118111546560267 0 0 0 0
13906698 0.008221723789969352 -0.0037787939576986677 0.00025775945958931033 0.0012934184110899216 0 0 0 0
13939644 0.00822449376715178 -0.003803545910206723 0.00027884055699794834 0.0013453820924357882 0 0 0 0
13972590 0.008251272852626727 -0.003874231953324697 0.00028110568810213205 0.0013015342030012211 0 0 0 0
14005536 0.008257533557788178 -0.0038867597980225474 0.0002932122695708651 0.0013320642749672915 0 0 0 0
14038482 0.008303923975893843 -0.0038852547099855307 0.0002884359746863199 0.0013396207318880585 0 0 0 0
14071428 0.00832614246309576 -0.003971899459987981 0.0002736628073683734 0.0013223364594111072 0 0 0 0
14104374 0.008252240280633321 -0.003944926035274957 0.00026336541208904295 0.0013318577196883303 0 0 0 0
14137320 0.008258328876662042 -0.003949736854324346 0.00030591116766726936 0.0013261781638493565 0 0 0 0
14170266 0.008224755489449167 -0.0039431870828218075 0.0002595396127757362 0.001341184252321967 0 0 0 0
14203212 0.008199116549866037 -0.0039053594261612024 0.0002785383947318995 0.0013381507171266274 0 0 0 0
14236158 0.008339302188231066 -0.004003822811419469 0.0002436812258160812 0.0013158085831096679 0 0 0 0
14269104 0.008322721175210603 -0.003990955410155431 0.00027182110484108086 0.0013516919478925617 0 0 0 0
14302050 0.008415985776429852 -0.0039534817025617015 0.0002953500434200254 0.0013437210265615292 0 0 0 0
14334996 0.008320671748482694 -0.003973072057748098 0.0002713939655065672 0.00135750283430346 0 0 0 0
14367942 0.00833238198670684 -0.003991491759096898 0.00027247823658521614 0.0013625630379740712 0 0 0 0
14400888 0.008326640556977117 -0.004009306859205434 0.0002746226691638105 0.0013736973437250845 0 0 0 0
14433834 0.008403146623134612 -0.004151112071411879 0.00027217309212621156 0.0013536590229866173 0 0 0 0
14466780 0.008307020199003937 -0.004081717130718766 0.0002823519571433961 0.001369795801749101 0 0 0 0
14499726 0.008349283661011557 -0.00413803734283886 0.00028956581440119447 0.0013887135451425745 0 0 0 0
14532672 0.00839554676589758 -0.004114359191955999 0.00028176739294107815 0.0014008397568581095 0 0 0 0
14565618 0.00838550552875884 -0.004162754963546357 0.00029119902529070965 0.0013983189085705777 0 0 0 0
14598564 0.008278778320145392 -0.004093793755088854 0.00028303727180419697 0.001418812594883797 0 0 0 0
14631510 0.008360678239063122 -0.004213615358081642 0.0002741348760882574 0.001382894840075983 0 0 0 0
14664456 0.00840405467670609 -0.004206389279650113 0.0002816567231675505 0.0013868449046278326 0 0 0 0
14697402 0.008333667852729213 -0.004101838506920261 0.000270217375194358 0.001386366392729268 0 0 0 0
14730348 0.008365023920550519 -0.004109121788308892 0.00026996794953828716 0.0014272513501681048 0 0 0 0
14763294 0.008347838323740947 -0.004246928271375046 0.0002773122702271454 0.001397033119607325 0 0 0 0
14796240 0.008344520466896625 -0.004254217474341114 0.00028218485356909794 0.0013995504021543437 0 0 0 0
14829186 0.008360076671997167 -0.004188458886284294 0.0002768723609495867 0.0014145945739762968 0 0 0 0
14862132 0.008373238509354635 -0.0042871223919926415 0.00026304353359693077 0.0014052598274244068 0 0 0 0
14895078 0.008371598394374742 -0.004297221331490778 0.00026859212133759 0.001425855387720219 0 0 0 0
14928024 0.008411343916099316 -0.00431201577156971 0.0002923277836931077 0.0014288274095492011 0 0 0 0
14960970 0.008424923342201632 -0.004319256629460647 0.0002831846815449132 0.0014432010711824884 0 0 0 0
14993916 0.00847076045944955 -0.0043835031101468695 0.0002843970746496682 0.0014157530863407577 0 0 0 0
15026862 0.008408743708224174 -0.00432300271671889 0.0002810219845508255 0.0014495428709323703 0 0 0 0
15059808 0.00836584157074389 -0.00436079777777965 0.0003015096786928128 0.0014325919525384108 0 0 0 0
15092754 0.008420502991656234 -0.004366431588235317 0.00026013617668516504 0.0014421403824067924 0 0 0 0
15125700 0.008406389817038232 -0.004355414157031465 0.0002819365848151527 0.0014294591234989976 0 0 0 0
15158646 0.00845448819053681 -0.004286458110523306 0.0002799517815023067 0.001437210825637903 0 0 0 0
15191592 0.008392551764798138 -0.004443474656082864 0.00027660777868396204 0.0014489109099704303 0 0 0 0
15224538 0.008316316113029739 -0.0044445831395375475 0.0002809565897284026 0.0014603620612374094 0 0 0 0
15257484 0.00843924333564025 -0.0044075364929391835 0.0002852688812736963 0.0014340548671358357 0 0 0 0
15290430 0.008386731988426623 -0.004553355004434479 0.0003154991933886973 0.0014780772175672187 0 0 0 0
15323376 0.008414138868765958 -0.004539324163230476 0.00027343585047829867 0.0014524709410297628 0 0 0 0
15356322 0.008407557342511019 -0.004426269024509222 0.00031185881896399924 0.0014816674614375352 0 0 0 0
15389268 0.008421146106354513 -0.004501215944206158 0.0002742019500717948 0.0014766483701567476 0 0 0 0
15422214 0.008453086020301565 -0.0045268825160473675 0.00029683950871563523 0.0014501407943017049 0 0 0 0
15455160 0.008407630879940953 -0.004450621274023487 0.0002500798707545971 0.00147132699875272 0 0 0 0
15488106 0.008459053072786481 -0.004487486304954992 0.00028143212244859377 0.0014827940856433348 0 0 0 0
15521052 0.008393693334012867 -0.004547860122975018 0.0003001280873506528 0.0014746727986705405 0 0 0 0
15553998 0.008441790528604196 -0.004539145356403426 0.0003027346673120589 0.0014853946393901332 0 0 0 0
15586944 0.008395859397218477 -0.004591526583947018 0.00026622394450214723 0.0014938108012528045 0 0 0 0
15619890 0.008570318471549081 -0.004630954215083874 0.0002807092506059228 0.0015375821118915201 0 0 0 0
15652836 0.008457023602449576 -0.004588582014899869 0.0002713920681974652 0.001515596325196837 0 0 0 0
15685782 0.008439032397988613 -0.0046731659611512055 0.0002596892159403858 0.0014795617400879535 0 0 0 0
15718728 0.008435869852383523 -0.0046506740445317035 0.00024649745586913653 0.0015501778218686767 0 0 0 0
15751674 0.00839340075308397 -0.004617383833881533 0.0003206218629933439 0.0014566679132132327 0 0 0 0
15784620 0.008431263351671447 -0.004649347813784664 0.00016072746747301946 0.0016011258822817103 0 0 0 0
15817566 0.008497985059963471 -0.004690868001759767 6.632910013242267e-05 0.0013631514623122238 0 0 0 0
15850512 0.008468891605485418 -0.004664695285636116 0.00034933215193605043 0.0015215237494397716 0 0 0 0
15883458 0.008440224067181456 -0.00463388339135909 0.00033706521576615576 0.0015448214349607422 0 0 0 0
15916404 0.008455005662481509 -0.004796550150123479 0.00043367419561690695 0.0016182160556043725 0 0 0 0
15949350 0.008440175940954609 -0.0047238170128543425 0.00026079398356106695 0.001563715112833856 0 0 0 0
15982296 0.008552664001102899 -0.004791914999450844 0.0002804269924868101 0.001535559775036949 0 0 0 0
16015242 0.008477176199439156 -0.004825362529415345 0.00027600576880485426 0.0015322744052137767 0 0 0 0
16048188 0.008458258111767434 -0.004730204530650046 0.00031075073783892493 0.0015121244377151756 0 0 0 0
16081134 0.008367393823332438 -0.004843731378827381 0.0002828931399074025 0.0015785260092230399 0 0 0 0
16114080 0.008450666554927532 -0.004808962474488037 0.00030676328858137065 0.0015256363637607372 0 0 0 0
16147026 0.008472118845183663 -0.0048625953611441345 0.0002833129355710163 0.0015509645386664501 0 0 0 0
16179972 0.008515899325619834 -0.004850145310553259 0.0003060052252064013 0.0015725716508662897 0 0 0 0
16212918 0.008429419406716564 -0.004897658302953892 0.00026977223097351483 0.0015345909957789298 0 0 0 0
16245864 0.008499694141567026 -0.004949381426687389 0.000277560412032379 0.0015338363957474654 0 0 0 0
16278810 0.008534895226538108 -0.004848331124836236 0.0003019510483246481 0.001538862044630731 0 0 0 0
16311756 0.008398421751453307 -0.004925852684955639 0.0002642512774760852 0.0015769252403239704 0 0 0 0
16344702 0.008485951924071027 -0.00496785958768556 0.0002841408273150604 0.0015908155458136401 0 0 0 0
16377648 0.00845132111947581 -0.004966119016129327 0.00027979559508514045 0.0016067695891553756 0 0 0 0
16410594 0.008494583352618074 -0.004880954654345699 0.0002737331910421684 0.0015609513245287195 0 0 0 0
16443540 0.00855777379417574 -0.004922795884984658 0.00029817307604056793 0.0015898783509800925 0 0 0 0
16476486 0.00845594869542683 -0.005078043459815907 0.00028216769924722853 0.0016266368844895936 0 0 0 0
16509432 0.008532197695204262 -0.004987284139650834 0.00029742862385379287 0.0015981992170383992 0 0 0 0
16542378 0.008501262141232107 -0.005044337839981697 0.0002904789882212102 0.001605573163179816 0 0 0 0
16575324 0.008510929307396177 -0.004974921503273609 0.00026849081991246526 0.0015665566238450663 0 0 0 0
16608270 0.00856666261922337 -0.004984094486372018 0.0002746233225464686 0.001604454510393372 0 0 0 0
16641216 0.008580239919165534 -0.005046436173105495 0.0002795707771053127 0.0015848701372782753 0 0 0 0
16674162 0.008616905879941763 -0.004992941181188401 0.00029796670658772 0.0016090683234153997 0 0 0 0
16707108 0.008822100567919633 -0.004965887380432067 0.00029737283277328567 0.0016197069289714961 0 0 0 0
16740054 0.008558286531165468 -0.005067601433067287 0.00034494638673371455 0.0016111639199878774 0 0 0 0
16773000 0.00839881897150903 -0.005034453003018156 0.00032235373102430174 0.00162758873602798 0 0 0 0
16805946 0.008834952197001722 -0.0049458062790386234 0.00030041625620422983 0.001610897905959538 0 0 0 0
16838892 0.00823404713208136 -0.005542331682084184 0.0003043527056878555 0.0016268559491750079 0 0 0 0
16871838 0.008378921580080282 -0.004820976932648611 0.00029161778667178656 0.0016467177236245553 0 0 0 0
16904784 0.008604437874735615 -0.005203195209989049 0.0003109880327873774 0.0016143563950132029 0 0 0 0
16937730 0.008768912786869507 -0.0049074009708251895 0.00030187005205030497 0.0016267103066151668 0 0 0 0
16970676 0.00852111753236135 -0.0051741442897618355 0.000286779751967431 0.0016301751579375291 0 0 0 0
17003622 0.00850294434662738 -0.005135022376049131 0.00030189922240522244 0.001653558264020241 0 0 0 0
17036568 0.008498698716289091 -0.005224024807224183 0.0002726053533368526 0.0016552490182096561 0 0 0 0
17069514 0.008504247304132663 -0.005229545150781528 0.0002923004495670599 0.0016843963015148523 0 0 0 0
17102460 0.008594651909716124 -0.005189594961109138 0.00029803146250371526 0.0016586822617242834 0 0 0 0
17135406 0.008412543374694407 -0.005237557242686887 0.0002865053999223811 0.0016582722812899168 0 0 0 0
17168352 0.008510535820341678 -0.0052313698620872545 0.00029103350791366827 0.0016531621830775825 0 0 0 0
17201298 0.008519729590997957 -0.005274414243935303 0.0002912686278722487 0.0016635664255243523 0 0 0 0
17234244 0.008486783817296851 -0.0053019340637600176 0.00027993058911902284 0.0016459066249381864 0 0 0 0
17267190 0.008543279581641541 -0.005288747959160295 0.00027755890501098826 0.0016876081790169106 0 0 0 0
17300136 0.00856966742775937 -0.005296387924101583 0.0003302827629054213 0.0016598434585160177 0 0 0 0
17333082 0.00857795182639016 -0.005316597240993299 0.0002921670178768812 0.001679629787403296 0 0 0 0
17366028 0.008443637255693805 -0.005357554406736397 0.00031573449077258964 0.0016863809803040484 0 0 0 0
17398974 0.008553269879164244 -0.005088511621245827 0.00034076750235765424 0.0016690670752554186 0 0 0 0
17431920 0.00847455522277614 -0.005296913782750079 0.0002533386241629716 0.0017400876845636703 0 0 0 0
17464866 0.008590653323657094 -0.005484532173772087 0.00013714812239757886 0.001813630605750129 0 0 0 0
17497812 0.008644112281502981 -0.0052879835321686264 0.00027341572768738333 0.001864297994590076 0 0 0 0
17530758 0.00887718003083285 -0.005475634852385444 0.00022167114312092288 0.0019115420623429522 0 0 0 0
17563704 0.008792601302748077 -0.005415634697028066 0.00045051577778924926 0.0017992909201737643 0 0 0 0
17596650 0.008743109559981808 -0.0053401701572769154 0.0003963436620523515 0.0016139803603601264 0 0 0 0
17629596 0.008474040456641992 -0.00550520274485941 0.0004651573344362982 0.0014451730395217347 0 0 0 0
17662542 0.008725047355563452 -0.005639027447442121 0.00037438270744546027 0.0017701043169186942 0 0 0 0
17695488 0.008566881871180983 -0.005243563174935961 0.0002990107416760097 0.0017762158020869583 0 0 0 0
17728434 0.00844923736332803 -0.005377696197036803 0.00029962399725770757 0.0017189367542273896 0 0 0 0
17761380 0.00854792200694197 -0.005584440255994354 0.0003280781223245258 0.001712310325666458 0 0 0 0
17794326 0.00856838346679968 -0.005467777132748985 0.0002977711961972861 0.0017027969803383059 0 0 0 0
17827272 0.008638377876716879 -0.005504553652839815 0.00028759585796942595 0.0017710238774643673 0 0 0 0
17860218 0.008593642950116337 -0.005553218885001345 0.0002895672499987631 0.0017240603484983466 0 0 0 0
17893164 0.008663476829635669 -0.005643336890923851 0.00032428694812481235 0.0017493597208472393 0 0 0 0
17926110 0.008508961580629724 -0.005611944941771933 0.00031914367587040243 0.0017632609941937297 0 0 0 0
17959056 0.008604270713307166 -0.005627634468562877 0.0003078167991408374 0.0017532987934872851 0 0 0 0
17992002 0.00863339122795769 -0.005605778471109112 0.00032215116897365794 0.0017479479429897507 0 0 0 0
18024948 0.00856567913154575 -0.005629148304270638 0.0003015941358826181 0.0017680622034481803 0 0 0 0
18057894 0.008614175441573068 -0.005692332098450942 0.0003105204344559488 0.0017717869303200669 0 0 0 0
18090840 0.008522035216554504 -0.005330550774782991 0.0002784100031308615 0.00173377154827882 0 0 0 0
18123786 0.008629060013771655 -0.005769164031540562 0.0003056365432723974 0.001750348447920627 0 0 0 0
18156732 0.008593023195371774 -0.005674212804663848 0.00028651852892729236 0.0017858992999965778 0 0 0 0
18189678 0.008757470603275846 -0.0057676067141473044 0.00027627851106073147 0.0017393536351585062 0 0 0 0
18222624 0.008622296016429195 -0.005831599919054429 0.0002850888071237442 0.0017703990756471229 0 0 0 0
18255570 0.008505291315072598 -0.005852871018648905 0.00029516551899908536 0.0017749144284507625 0 0 0 0
18288516 0.008695109918808471 -0.005819556920381694 0.0003014139106862082 0.0017925994382186352 0 0 0 0
18321462 0.008711985001656706 -0.005784750445147356 0.00029063523283713735 0.0018003253924779874 0 0 0 0
18354408 0.008652434861766803 -0.0056879018020435605 0.0003238423165840975 0.001796925654460508 0 0 0 0
18387354 0.008516097600006784 -0.0057115361116981496 0.00029354833913198245 0.0017872291778789863 0 0 0 0
18420300 0.008510739805264319 -0.005453155676801824 0.0002990320081678926 0.0017765253674994076 0 0 0 0
18453246 0.00862556718031207 -0.005719368518595086 0.0002860373665641461 0.0018187551986231167 0 0 0 0
18486192 0.008556222136475096 -0.0058844632337344506 0.00030112904228486937 0.0017982910348079062 0 0 0 0
18519138 0.008633303860108075 -0.005873333882965477 0.0003038583943582146 0.0018146739030253124 0 0 0 0
18552084 0.008662883584567967 -0.005848045865722349 0.000297681530390382 0.0018116712096792455 0 0 0 0
18585030 0.008631701093862614 -0.0058798402917181695 0.0002889861464823054 0.001810928591138737 0 0 0 0
18617976 0.008553883630748459 -0.005893513646784925 0.0003081567763946886 0.0018235642718028118 0 0 0 0
18650922 0.008629028580643931 -0.005894304358578305 0.0003024927158568475 0.0018080657640453372 0 0 0 0
18683868 0.008623229361380418 -0.005904343409968774 0.00032619517554756926 0.0018326521420804647 0 0 0 0
18716814 0.008696321696565493 -0.005890220137711564 0.00029179650189859114 0.0018159781566467201 0 0 0 0
18749760 0.008687057123237116 -0.005908648516816981 0.00032720212045323155 0.0018489527569112106 0 0 0 0
18782706 0.008723809472807913 -0.005946398282861754 0.00032461474201404925 0.0018558844702079636 0 0 0 0
18815652 0.008632409254378743 -0.005927888106665542 0.00031353527091939145 0.0018325501664750452 0 0 0 0
18848598 0.008659900166696191 -0.006005512889366886 0.00028164769643913623 0.0018507210107864384 0 0 0 0
18881544 0.008704778187908291 -0.006002211324389244 0.00028543457827322693 0.001857867930483016 0 0 0 0
18914490 0.008663463477150657 -0.005992581924546009 0.0002975829757321839 0.0018601024573649553 0 0 0 0
18947436 0.00867094959477586 -0.006078243990877146 0.0002924768061241149 0.0018603378543442432 0 0 0 0
18980382 0.008676560578751795 -0.006009673694250139 0.0002908563974661117 0.0018399424534458954 0 0 0 0
19013328 0.008602114259311741 -0.0060375151923593925 0.0003016729170358169 0.001865873147080658 0 0 0 0
19046274 0.008594667703658434 -0.0059931661867935705 0.0003226962196868707 0.00186752060176646 0 0 0 0
19079220 0.008623257423987838 -0.006033295477820463 0.00028105283488591426 0.0018843052403513178 0 0 0 0
19112166 0.00862147345520852 -0.00610438645832273 0.0002892009889238607 0.0018742429374434951 0 0 0 0
19145112 0.008667303246864735 -0.006130621126533938 0.00028662442075094133 0.0018696655204934818 0 0 0 0
19178058 0.008677373983090023 -0.0061199943049695385 0.0003090997661493349 0.0018706042325586807 0 0 0 0
19211004 0.00866162871240068 -0.006091665525348395 0.00029243232275031803 0.0018614520345459845 0 0 0 0
19243950 0.008718464313924467 -0.006161601405385037 0.0003161473443422235 0.001897046625156948 0 0 0 0
19276896 0.008636368205075106 -0.006151882453092686 0.0003130127635169267 0.0018717329790966313 0 0 0 0
19309842 0.008650903678750625 -0.006222605641452872 0.00032261708851184936 0.0018770084049085018 0 0 0 0
19342788 0.008737953654018553 -0.006102260704764438 0.0003170581944806187 0.001876825431777694 0 0 0 0
19375734 0.008700607502397695 -0.00614088651897287 0.0003204718348646859 0.0018773779410572293 0 0 0 0
19408680 0.008636846863840192 -0.006265483988227407 0.0002985474413512996 0.001916284740718986 0 0 0 0
19441626 0.008599964953044435 -0.006252107958909146 0.00030648551897945447 0.0019383329521561292 0 0 0 0
19474572 0.008671746330896514 -0.006235979272516212 0.0003221434476099442 0.0019119013884291505 0 0 0 0
19507518 0.008659798358743611 -0.006215531965558968 0.00030664957426712196 0.0019365199350042646 0 0 0 0
19540464 0.008611117526110183 -0.006252156400261992 0.00032926183765141396 0.00189309363065946 0 0 0 0
19573410 0.008694497466255635 -0.006267959782019891 0.0002930352638512666 0.0019244813878378834 0 0 0 0
19606356 0.008662262377780165 -0.006327056439445 0.0003135070523837622 0.0019166751640870814 0 0 0 0
19639302 0.008603467376252104 -0.00635112348317006 0.0002890562337620238 0.0019138116770308431 0 0 0 0
19672248 0.008653714186209888 -0.0062883239146583085 0.0003305400924540501 0.0019364515704925825 0 0 0 0
19705194 0.008645596231329945 -0.006360810071862354 0.0002924593961319095 0.0019308171395706795 0 0 0 0
19738140 0.008638865502522039 -0.006412077158275151 0.00030146755453222746 0.0019278096072561969 0 0 0 0
19771086 0.008748859557897504 -0.006374125199031671 0.00032211413489748 0.0019404279259661367 0 0 0 0
19804032 0.008624726850540942 -0.006289800213980494 0.0003370185144284824 0.001937064097363109 0 0 0 0
19836978 0.00860074049217773 -0.006452861370266107 0.0003140454977936462 0.0019506163028077965 0 0 0 0
19869924 0.008607630644318812 -0.006295319969540303 0.00033344866063905087 0.0019285946739113794 0 0 0 0
19902870 0.008685803286742462 -0.006376512645789238 0.0002991725476143802 0.001955170931932292 0 0 0 0
19935816 0.008706091917313578 -0.006437665334689732 0.0003105101183853735 0.0019534559313848445 0 0 0 0
19968762 0.008664318042570255 -0.006462996584069354 0.00030694604884418846 0.001968371191494516 0 0 0 0
20001708 0.008702189311017359 -0.006448269257328418 0.00031290329402940484 0.001951646739442454 0 0 0 0
20034654 0.00863245534434187 -0.006428379886534799 0.00030776740281318214 0.001948968595527478 0 0 0 0
20067600 0.008697096801220187 -0.006456201382194879 0.00032419622378152273 0.001950757747332635 0 0 0 0
20100546 0.0086883470785984 -0.0063721620328332845 0.00031006773944148864 0.001960610071396774 0 0 0 0
20133492 0.00877045358991495 -0.006511600906263024 0.000327820499592214 0.001964431549351275 0 0 0 0
20166438 0.008672642509008018 -0.0065750073445165255 0.000315394698977266 0.0019669555435104995 0 0 0 0
20199384 0.008728164575162988 -0.006555455881567977 0.0002999941650889705 0.0019967624064442203 0 0 0 0
20232330 0.008755908878628824 -0.006495079642863558 0.00030600102119980637 0.001971726227495059 0 0 0 0
20265276 0.008629568326376716 -0.00655253442255499 0.0003327999032277323 0.0020144632961304667 0 0 0 0
20298222 0.008725571055693732 -0.006618166014605092 0.0003155466363946557 0.001973782624061108 0 0 0 0
20331168 0.008676252327060083 -0.0065715558902493774 0.00033122915931655105 0.00198245495313572 0 0 0 0
20364114 0.00872945211315626 -0.006607374716504276 0.0003160694067216198 0.0020003214649816836 0 0 0 0
20397060 0.00867087386218526 -0.0065766520817655185 0.0003090172343680959 0.0019995837684676555 0 0 0 0
20430006 0.008621883089914338 -0.006598552492316583 0.0003350510943421968 0.0020101463248044155 0 0 0 0
20462952 0.008713317066116076 -0.006657606066584147 0.0003106569728130928 0.0020155847119652792 0 0 0 0
20495898 0.008649967330032506 -0.00660387166531118 0.0003076744013432425 0.002016897420169407 0 0 0 0
20528844 0.008745033658595708 -0.00665501804926758 0.00030436987028522564 0.0020244915794739933 0 0 0 0
20561790 0.008781095881637821 -0.006665396198492991 0.0003323405690184214 0.0020345681204714822 0 0 0 0
20594736 0.008596531927918146 -0.006684373163955801 0.0003171216841666226 0.0020461367395429907 0 0 0 0
20627682 0.008656196453365381 -0.006677210032095467 0.0003028571878546798 0.0020349842243450513 0 0 0 0
20660628 0.008695146623478965 -0.006734307246448383 0.0003126485902698792 0.002041325186762197 0 0 0 0
20693574 0.008780691189915375 -0.006690692699866118 0.0003170620450349033 0.0020152409993733477 0 0 0 0
20726520 0.008750249882158917 -0.0067556189227667585 0.00032728289260164627 0.0020659345012590314 0 0 0 0
20759466 0.008750151682974725 -0.0067785333305714806 0.0003085120002177658 0.0020501787251172104 0 0 0 0
20792412 0.008707147054841893 -0.006745508661374624 0.000328431710588125 0.0020278349272151957 0 0 0 0
20825358 0.008657090451032207 -0.006745214512330027 0.00030955276930946633 0.0020730820676752152 0 0 0 0
20858304 0.008732831154311744 -0.006749277087210243 0.00032327052763181895 0.002054604503664287 0 0 0 0
20891250 0.008698943622128768 -0.006845406398399848 0.00030706770142284814 0.0020571104116215537 0 0 0 0
20924196 0.008775086487191937 -0.00689963873697957 0.0003342416345412374 0.002080052801661346 0 0 0 0
20957142 0.008721393113397067 -0.00680830008276207 0.00031544529293696497 0.0020480524720546747 0 0 0 0
20990088 0.008664293810658943 -0.006783338972799532 0.00033161557084786437 0.002066303780815349 0 0 0 0
21023034 0.008770028842441336 -0.006886772559555828 0.0003390033609568121 0.002047724683852786 0 0 0 0
21055980 0.008676657280420252 -0.006886178560280997 0.00033210250323202005 0.0020687978117832875 0 0 0 0
21088926 0.008771550487361402 -0.006907848374298013 0.00034998374223291613 0.0021186185509517634 0 0 0 0
21121872 0.008729069875961353 -0.006945793465281757 0.00031126514531619004 0.00208177850787446 0 0 0 0
21154818 0.008780616561252598 -0.0068484458062905386 0.00031270849162753315 0.002065081014695265 0 0 0 0
21187764 0.008819409753744352 -0.0069001481179983655 0.00034314529141946624 0.0021081896944887633 0 0 0 0
21220710 0.008704336561315099 -0.006918979781918403 0.00031797730775245893 0.002088758678025182 0 0 0 0
21253656 0.008640665685026649 -0.006975303307602018 0.00032442588764176384 0.0020867791919379737 0 0 0 0
21286602 0.008717604800158027 -0.006931752176921091 0.00030273458874906044 0.0021223972964989454 0 0 0 0
21319548 0.008712695795474717 -0.006971604824139503 0.0003075465342857516 0.002114806659987301 0 0 0 0
21352494 0.008751729930227577 -0.006995352707153422 0.00030077221020314714 0.0021244133820631354 0 0 0 0
21385440 0.008777629073538547 -0.007013385285703258 0.00032733923090863586 0.002116803412825119 0 0 0 0
21418386 0.008718925047349044 -0.00702221665863825 0.00033342259426608767 0.002113621254592236 0 0 0 0
21451332 0.008764321509015426 -0.007059040205568644 0.00031401524285593237 0.002120957780853876 0 0 0 0
21484278 0.008701125376614055 -0.007072828499060455 0.0003152984731134977 0.0021291256013019496 0 0 0 0
21517224 0.008673065488813638 -0.00706983595721796 0.0003265386874192657 0.0021217931090702254 0 0 0 0
21550170 0.008783968366160872 -0.007119557732592877 0.0003368977625937511 0.002146273522214965 0 0 0 0
21583116 0.008798550533357511 -0.007153204072183078 0.0003312926919340679 0.0021202629300597848 0 0 0 0
21616062 0.008808210975015433 -0.007163202932484386 0.00032543872373542293 0.0021152024482849513 0 0 0 0
21649008 0.008690449748888406 -0.00715326185019592 0.0003042503675809907 0.0021284191666839504 0 0 0 0
21681954 0.008666396289609855 -0.007045258916148196 0.0003221781463635382 0.002145006066216195 0 0 0 0
21714900 0.008712686704806735 -0.007159435586021068 0.00034877751967223963 0.0021426717147932928 0 0 0 0
21747846 0.008859534080356736 -0.007145355243599671 0.00034129812690976034 0.002145609917026478 0 0 0 0
21780792 0.008773134709619655 -0.00711247819250122 0.00032810733267909614 0.002143022971805493 0 0 0 0
21813738 0.008732569334311317 -0.007103926300512314 0.0003032376523491596 0.002169017276506445 0 0 0 0
21846684 0.008670015261838535 -0.0072151762564258886 0.0003374093579807348 0.0021535642215004067 0 0 0 0
21879630 0.008728661991733245 -0.0071837641319865446 0.0003381255660101856 0.002168616720718823 0 0 0 0
21912576 0.008758001859258582 -0.007247522582367411 0.00033599538172096756 0.00214969830144234 0 0 0 0
21945522 0.008707789094920228 -0.007238912464541071 0.0003300089044699194 0.002139737223006723 0 0 0 0
21978468 0.0087491764450636 -0.007329780783310193 0.00032965395148148866 0.0021556761357796996 0 0 0 0
22011414 0.008790650848009193 -0.0072187515002777895 0.0003295482962019654 0.0021621103835206537 0 0 0 0
22044360 0.00869972686736065 -0.007322060380476371 0.0003648690810527321 0.002211272573342394 0 0 0 0
22077306 0.008672882590519067 -0.007363593392631507 0.0003320660096335412 0.0021883923252412206 0 0 0 0
22110252 0.008820754083805091 -0.007343827298639705 0.00031474383399932894 0.002180270619411178 0 0 0 0
22143198 0.008848173452680524 -0.0073570232475309175 0.00033451656292023726 0.002185709272291572 0 0 0 0
22176144 0.008794270008084047 -0.00726155519531828 0.0003288504155897602 0.0021906368751952493 0 0 0 0
22209090 0.008692808171189337 -0.007301522769882868 0.00030861416418757057 0.002186049394449558 0 0 0 0
22242036 0.008772327961982036 -0.00736627858345034 0.00037016598668963553 0.002217933355405818 0 0 0 0
22274982 0.008694090160942467 -0.00741834435272458 0.00033995634748194885 0.0021854908149510142 0 0 0 0
22307928 0.008782343924161173 -0.007488547758922024 0.00035309745985539717 0.002207006656869354 0 0 0 0
22340874 0.0086735674932128 -0.007465834052377681 0.00033544485181048175 0.0022069023224528797 0 0 0 0
22373820 0.00875421476124757 -0.007413361405781896 0.00034380150619907747 0.0022011706907150703 0 0 0 0
22406766 0.008751163803073808 -0.007400588958662402 0.0003426477296311625 0.0022209742675443904 0 0 0 0
22439712 0.008792098013397632 -0.0074776305107629604 0.00032699350967001065 0.002225390516295333 0 0 0 0
22472658 0.008736953181157654 -0.00747060883547224 0.00035878690197655046 0.0022223515210864834 0 0 0 0
22505604 0.008794457409878222 -0.007473237938163568 0.00032454499630506933 0.002234602345073768 0 0 0 0
22538550 0.008799513890928947 -0.007605804228648342 0.0003197378458562621 0.002238607552260879 0 0 0 0
22571496 0.008805779834679976 -0.007526966142444541 0.00033220199440645764 0.002245833771827463 0 0 0 0
22604442 0.00878790560042223 -0.007477055270507312 0.0003255053461306052 0.0022482989195926955 0 0 0 0
22637388 0.008673917204520341 -0.007514154337148356 0.0003482605847336204 0.002220281590465629 0 0 0 0
22670334 0.00867886813418903 -0.007496659449953767 0.0003518890991399612 0.0022323475526663237 0 0 0 0
22703280 0.008822380246176263 -0.0076102723925568425 0.0003272314464460265 0.0022509145465020378 0 0 0 0
22736226 0.008708119925916167 -0.007589314562591125 0.00033965047976631304 0.002244206784485373 0 0 0 0
22769172 0.008843327544562875 -0.007640293903038024 0.0003182476333433458 0.002271333178115538 0 0 0 0
22802118 0.008777658736207198 -0.007593772333479751 0.00034742943958624876 0.00225708694145031 0 0 0 0
22835064 0.008762711337388294 -0.007568617786809094 0.00035278548904667457 0.002236113176867815 0 0 0 0
22868010 0.008791937983357038 -0.007642591783112388 0.00033090776246955534 0.002244346021110561 0 0 0 0
22900956 0.008790009591973156 -0.0076873814181733354 0.00031161664318507466 0.0022720384703533614 0 0 0 0
22933902 0.008844999288305762 -0.007646736582204271 0.00032379786116367224 0.0022885125620902246 0 0 0 0
22966848 0.008811159732581068 -0.0076952070366577046 0.0003509872721304861 0.0022907946660561665 0 0 0 0
22999794 0.00878494149844198 -0.007693783254120639 0.00034381116216031585 0.0022877236481922535 0 0 0 0
23032740 0.008732772912741677 -0.007741206306731614 0.0003379927760918276 0.002277256741604334 0 0 0 0
23065686 0.008834903420921816 -0.00774988652623828 0.0003539737113130793 0.002291311241778757 0 0 0 0
23098632 0.008867216701885953 -0.007675534127418636 0.0003380826135835372 0.0022960056263585864 0 0 0 0
23131578 0.008888557888115168 -0.0077410357957050655 0.00034264623163866213 0.0023009527147779996 0 0 0 0
23164524 0.008798347366253031 -0.007829426284064961 0.0003517358129241368 0.002303150815107539 0 0 0 0
23197470 0.008817496433027571 -0.007777963895738333 0.00034442819506220427 0.002295720412746068 0 0 0 0
23230416 0.008808653580167719 -0.007725802407332181 0.0003114003549816399 0.0022945770876195725 0 0 0 0
23263362 0.008774555604464185 -0.007774825103820556 0.0003495985629391864 0.002309609269611394 0 0 0 0
23296308 0.008785282772697153 -0.00778395154544958 0.00034617535843448906 0.0023116187020368016 0 0 0 0
23329254 0.008770537432446235 -0.007857832985974618 0.0003248688137100596 0.002331172539435108 0 0 0 0
23362200 0.008807309745596674 -0.007840165568305349 0.00031012597484458853 0.002351579133310585 0 0 0 0
23395146 0.008853073540853485 -0.0078750941192452 0.00035379637603633984 0.002341386234340655 0 0 0 0
23428092 0.008815218448783576 -0.007867560071383558 0.0003430375697911344 0.0023047014716792973 0 0 0 0
23461038 0.008764474879735843 -0.007892467864812748 0.0003366173343620737 0.0023034068152450876 0 0 0 0
23493984 0.008768450883656558 -0.007890893779951733 0.0003749311690897438 0.002322845306902397 0 0 0 0
23526930 0.008823908302187213 -0.007868523961497622 0.0003375824222057257 0.002338370566993386 0 0 0 0
23559876 0.008879847121532527 -0.007853627392818129 0.0003219125489163536 0.00234486157158212 0 0 0 0
23592822 0.008714188763169392 -0.007873680306904387 0.00033385135003686795 0.002339045618922278 0 0 0 0
23625768 0.008763069865999472 -0.007891052387110686 0.00034340160811554703 0.0023574853044065406 0 0 0 0
23658714 0.008778040673610888 -0.007973548287415266 0.0003306853283008565 0.002358956531156384 0 0 0 0
23691660 0.008815971770388821 -0.00802975363166229 0.0003417659991146147 0.0023493684944847965 0 0 0 0
23724606 0.008890803690276512 -0.00807699120498817 0.0003499015670829281 0.002346183182208627 0 0 0 0
23757552 0.008829831048671117 -0.00798683355888303 0.00033867958437196156 0.002363040267822608 0 0 0 0
23790498 0.008776046067018475 -0.00792577078417156 0.0003552541168786452 0.0023588230937881256 0 0 0 0
23823444 0.0087372366205629 -0.007988559756129839 0.0003709797775129948 0.0023658458682764114 0 0 0 0
23856390 0.008876658111826714 -0.007948426172197192 0.0003652079937593588 0.0023846810762274398 0 0 0 0
23889336 0.00882474305788646 -0.00806527900670613 0.00033737632263917836 0.0023832264791791243 0 0 0 0
23922282 0.008796600121437936 -0.008030523603049488 0.00035824353174151725 0.002363386927720475 0 0 0 0
23955228 0.008803955992608609 -0.008054059884025999 0.0003813889950166413 0.0023898420348204066 0 0 0 0
23988174 0.008757185769139128 -0.008064743008246344 0.0003494369357204976 0.002405461587417798 0 0 0 0
24021120 0.008794339483342009 -0.008127309035432491 0.0003594968202794564 0.002360887179465905 0 0 0 0
24054066 0.008849269520431715 -0.008131338982794724 0.0003426742096866768 0.0023816554233316795 0 0 0 0
24087012 0.008862317154357644 -0.008132417794398838 0.00032554389353926214 0.0023977256797925338 0 0 0 0
24119958 0.008830847932505787 -0.00804326332698315 0.000328136172546848 0.0023558355544048733 0 0 0 0
24152904 0.008839922279825448 -0.008111944754878751 0.0003704394589203661 0.002401939791386388 0 0 0 0
24185850 0.008739766245662979 -0.008127899859895267 0.00033515215152079886 0.002413568541275018 0 0 0 0
24218796 0.008799439882268069 -0.008141344286374997 0.0003582887680340393 0.0024151356544037067 0 0 0 0
24251742 0.008882611684777634 -0.008271338227207187 0.0003828323772208945 0.0023892579297004274 0 0 0 0
24284688 0.008900538400660478 -0.0081451081215525 0.00034754927452468673 0.0024457011468811394 0 0 0 0
24317634 0.008775820773945947 -0.008338502584081081 0.00036362537302382083 0.0023936715028871013 0 0 0 0
24350580 0.00877752612077081 -0.008186133240331316 0.00037673937611019297 0.0024494738439886947 0 0 0 0
24383526 0.008782459504076483 -0.00824459842924067 0.00036180725009754306 0.0024293797945421445 0 0 0 0
24416472 0.008857853834522004 -0.008222365747122857 0.0003627128265524735 0.002422420889803869 0 0 0 0
24449418 0.008837100386865701 -0.008282786453596086 0.00037347413983571185 0.0024476162829563004 0 0 0 0
24482364 0.008896514192143675 -0.008237435586869294 0.0003681262593697799 0.002414559573003238 0 0 0 0
24515310 0.008747267314843626 -0.008251025659573013 0.0003481750292848001 0.002449430267880871 0 0 0 0
24548256 0.00878546108149322 -0.008307010484685903 0.00035759237773547186 0.002448744761235762 0 0 0 0
24581202 0.008764771299008399 -0.00838638649555709 0.00033585154274270854 0.002449439114293162 0 0 0 0
24614148 0.008819501320701756 -0.008368585869154243 0.0003478743347065894 0.0024348649992537424 0 0 0 0
24647094 0.008796892813311589 -0.008312230834917177 0.0003738434614925677 0.0024468555235442266 0 0 0 0
24680040 0.00888908250597142 -0.008408410101273649 0.0003415705907016698 0.0024286493702915055 0 0 0 0
24712986 0.008885692797920383 -0.008331135553234557 0.0003564743668954035 0.0024610742072584554 0 0 0 0
24745932 0.008866680212158373 -0.008322289118056284 0.00037781096978032014 0.0024637220849769766 0 0 0 0
24778878 0.008773551753790838 -0.008363520319693169 0.0003701902762689799 0.002476306943048149 0 0 0 0
24811824 0.008742990373395959 -0.008465352121064093 0.00039055613454551895 0.002476324773404609 0 0 0 0
24844770 0.00886691186281357 -0.008416456684396736 0.0003542952555168946 0.002456372017880397 0 0 0 0
24877716 0.00892797885545348 -0.008480598621567097 0.00036120943712974704 0.0024811324669343996 0 0 0 0
24910662 0.008920776060581555 -0.008377623122939845 0.00034422081239431714 0.002471660740239105 0 0 0 0
24943608 0.008877769611608384 -0.008403457704689787 0.00036508332746486803 0.0024627446628345895 0 0 0 0
24976554 0.008807666368394957 -0.008450183491626158 0.00037722474043193485 0.002480786752121137 0 0 0 0
25009500 0.00877648433339762 -0.008527181579103612 0.0003598677791803051 0.002497628231010243 0 0 0 0
25042446 0.008841655597383813 -0.008461116716679767 0.0003659810595937075 0.0024817245100642467 0 0 0 0
25075392 0.008818658216084942 -0.008449263391402569 0.0003781468013820752 0.002504493812144511 0 0 0 0
25108338 0.008843339230280448 -0.008544981351276648 0.0003710841494209214 0.0024971247657146725 0 0 0 0
25141284 0.008869260630578696 -0.008442849889826232 0.00037012927167762145 0.002500811939643301 0 0 0 0
25174230 0.008788122811370333 -0.008506854401433124 0.00037998283324329745 0.0024980600011251814 0 0 0 0
25207176 0.00892417626344043 -0.008533366787328994 0.0003659556178150097 0.0025176448333130096 0 0 0 0
25240122 0.00885167932503677 -0.008492129162423586 0.0003584740977679871 0.002517958693391859 0 0 0 0
25273068 0.008908733468734435 -0.008594072202811534 0.00037818068569571683 0.0025243509956994663 0 0 0 0
25306014 0.008857369631316024 -0.008677062308397796 0.0003490921697831966 0.0025335540400101587 0 0 0 0
25338960 0.008830488386613631 -0.008526942057701721 0.0003648829305649063 0.002546690520865156 0 0 0 0
25371906 0.008731585139967317 -0.008708812163432517 0.0003843710253141392 0.0025340606533947306 0 0 0 0
25404852 0.008896239046657534 -0.008661791480186053 0.00035979291121964 0.002529099493087966 0 0 0 0
25437798 0.008908070403527415 -0.008637779526563003 0.00036004743117599633 0.002521225551056148 0 0 0 0
25470744 0.008792775883788444 -0.008681766825122523 0.00037476359975908654 0.0025441924522944036 0 0 0 0
25503690 0.00886713865326423 -0.00870157210725565 0.00035633996426647955 0.0025378700362543487 0 0 0 0
25536636 0.00881628324601432 -0.008636583264494672 0.00040069942037891356 0.002548220980331375 0 0 0 0
25569582 0.008812435585957856 -0.008721097562317677 0.0003656688226271719 0.002556736036492199 0 0 0 0
25602528 0.008850707685690337 -0.008706333758450277 0.00038226428480621263 0.0025780441583716216 0 0 0 0
25635474 0.008818252912514446 -0.008779098894515424 0.0003850560746116963 0.002551064007496627 0 0 0 0
25668420 0.008861804107033383 -0.00884339358128494 0.00038004471489351343 0.0025526830052429394 0 0 0 0
25701366 0.008811643022046959 -0.008824695340851531 0.00038413517336732014 0.002569009741944524 0 0 0 0
25734312 0.008859823777291831 -0.008788258614097039 0.0003911966004985039 0.0025594346919658637 0 0 0 0
25767258 0.008807719101195143 -0.008738634981099143 0.0003709644159831669 0.0025921903619027117 0 0 0 0
25800204 0.008845821017171468 -0.008849659650968084 0.00034756129435189917 0.002563295776300518 0 0 0 0
25833150 0.008899126220702757 -0.008837387665753017 0.0003777123716481804 0.0025656930977617115 0 0 0 0
25866096 0.008821136817316885 -0.008825709972344003 0.00038924859406614624 0.0025969343317652255 0 0 0 0
25899042 0.00893797061509632 -0.008841047294284804 0.00036749537983077595 0.002575643282925392 0 0 0 0
25931988 0.00889391406258155 -0.008922617847058355 0.0003858809644156063 0.0025956715640720845 0 0 0 0
25964934 0.008844901730823956 -0.008888251801867957 0.00034688475087321126 0.002596485435200177 0 0 0 0
25997880 0.008877818177764743 -0.00883739129456449 0.0003751550301019719 0.002594955802732714 0 0 0 0
26030826 0.008839301497777946 -0.008930119278691433 0.0003775406687612149 0.0025852167335912546 0 0 0 0
26063772 0.008825514668639496 -0.008936400422361324 0.00035375835446581713 0.0025954995833990338 0 0 0 0
26096718 0.008793371274006336 -0.008993897858261527 0.0003823826990188234 0.0026052975263572923 0 0 0 0
26129664 0.008925204069992443 -0.00894773061674965 0.0003578048670612246 0.0026100140729718676 0 0 0 0
26162610 0.008875245490310565 -0.008892246494392162 0.0003996456587494526 0.0026134294276495807 0 0 0 0
26195556 0.008908347800472758 -0.008922374413605326 0.00038968508226239044 0.002597445202634651 0 0 0 0
26228502 0.00885310897767473 -0.008955180571154396 0.00038305179746393595 0.0026092115864447436 0 0 0 0
26261448 0.008937816723425761 -0.008990165068917989 0.00036439194705069545 0.0026100369865299797 0 0 0 0
26294394 0.00884139753121879 -0.009026471442145228 0.0003861214952331809 0.0026146630742862015 0 0 0 0
26327340 0.008878197737025447 -0.009005476239790271 0.00039243068700551816 0.002632491834797601 0 0 0 0
26360286 0.008803918472297787 -0.009070414109733898 0.00037885737091432906 0.002643308058629421 0 0 0 0
26393232 0.008836784106359793 -0.008987730550082779 0.0003940153814902865 0.0026351818580985535 0 0 0 0
26426178 0.008832186673020917 -0.00907350152262659 0.0003867987131586615 0.00263912484030587 0 0 0 0
26459124 0.008954170349399751 -0.009140751855131678 0.00035968395483539783 0.002639281825687054 0 0 0 0
26492070 0.00893886916706609 -0.008958075829532161 0.0003916755721085787 0.002642770203602488 0 0 0 0
26525016 0.00883516523455131 -0.009079737289436455 0.00036342774145061476 0.002654980405539141 0 0 0 0
26557962 0.008870677937229851 -0.009095799628172625 0.0004006129744141112 0.0026344706719784576 0 0 0 0
26590908 0.00877764382312184 -0.00912030726846236 0.00039310429815921766 0.002623615831076915 0 0 0 0
26623854 0.008826712692830469 -0.009150881499003142 0.00037903342105534226 0.0026512769964106395 0 0 0 0
26656800 0.008821877568545062 -0.009172316935223428 0.0003968506748998245 0.002668310809628757 0 0 0 0
26689746 0.008919590056298964 -0.009174785709571373 0.00040407335924496463 0.002650128822641353 0 0 0 0
26722692 0.008925622582058075 -0.009095014224335129 0.00039414294210624143 0.002660883470907506 0 0 0 0
26755638 0.008820592381092479 -0.009138752729026148 0.00038305101790619815 0.002651188715564713 0 0 0 0
26788584 0.008886114718390391 -0.00916082207899358 0.0003844108127156273 0.002666801762115188 0 0 0 0
26821530 0.008878796330006536 -0.009198980873401288 0.0003910036096690937 0.002687476405478932 0 0 0 0
26854476 0.008884909153184468 -0.00922643163996188 0.00039280194375279317 0.0026642598159897788 0 0 0 0
26887422 0.008892091331800755 -0.00922638329645725 0.00036695565095461776 0.0026872193177691103 0 0 0 0
26920368 0.008936176335546202 -0.009321256827151382 0.00040777767953404113 0.002682083136151574 0 0 0 0
26953314 0.008827992362404783 -0.00926792224422495 0.0003643886297663007 0.0026785079997339294 0 0 0 0
26986260 0.009009466705729264 -0.00932423245519513 0.00039624836845430567 0.002700808360835542 0 0 0 0
27019206 0.008872077114930627 -0.009248695132259706 0.0003736233721239525 0.0026870915117984556 0 0 0 0
27052152 0.0088836854194365 -0.009277409445445427 0.00039743608184681875 0.002701520583060563 0 0 0 0
27085098 0.008811345548883232 -0.009286178402538765 0.00037529201799299305 0.002677741268076987 0 0 0 0
27118044 0.008847075995333667 -0.009321649454260866 0.0004230908954237175 0.002706660570026024 0 0 0 0
27150990 0.008883556697517633 -0.00937007485746832 0.0003761315468685694 0.0027319977595325986 0 0 0 0
27183936 0.008905479911101249 -0.009386685138402384 0.00039188549320504133 0.002718461482095718 0 0 0 0
27216882 0.00892166607549421 -0.009390327490838617 0.0003899687363555408 0.002728081041148633 0 0 0 0
27249828 0.008889735974415459 -0.009306828690897346 0.0003863517788101052 0.002749499452508481 0 0 0 0
27282774 0.008944553109409814 -0.009383725782382378 0.0003808197826550944 0.0027499290538324844 0 0 0 0
27315720 0.008754699431875658 -0.009405866666918491 0.0003823051303207367 0.0027368279651232078 0 0 0 0
27348666 0.008871515333693384 -0.009374746786069416 0.000387380756984582 0.0027179607231350256 0 0 0 0
27381612 0.008801435247544214 -0.009483574827078024 0.0004001045332539918 0.0027462931684324055 0 0 0 0
27414558 0.008919678904005569 -0.00944460249877705 0.0003847058809368353 0.002708824681452955 0 0 0 0
27447504 0.008881637903817088 -0.009490342657566214 0.00040774710813965454 0.002730187211363235 0 0 0 0
27480450 0.008851453880933181 -0.009334412918077248 0.0003819970729253488 0.002747531363270005 0 0 0 0
27513396 0.008909776194316786 -0.009459556460372828 0.0003811478561469609 0.002744365147854392 0 0 0 0
27546342 0.00886034205163016 -0.009419509254478903 0.0003943168360272231 0.002735661938637038 0 0 0 0
27579288 0.008826704419787937 -0.009494697730172722 0.00041810368421277977 0.002732223578642937 0 0 0 0
27612234 0.008926904264557297 -0.009493386930793959 0.0004028340682676248 0.0027602918553608705 0 0 0 0
27645180 0.008940032265599255 -0.009448367059603115 0.0004118609795679359 0.002780274069138421 0 0 0 0
27678126 0.008887233085666623 -0.009580197732377631 0.00041119511660082627 0.002794095548041326 0 0 0 0
27711072 0.008927742938433876 -0.009466446258848116 0.0003964710843511193 0.002778050568591012 0 0 0 0
27744018 0.008930873718426144 -0.009587906010201652 0.00038038328456745183 0.0027703393393007517 0 0 0 0
27776964 0.008962877596724499 -0.00956341828868723 0.0004038118501323689 0.0027838856147070893 0 0 0 0
27809910 0.00890460226006632 -0.009622122622965136 0.00040579681481124304 0.002771238925342457 0 0 0 0
27842856 0.00881266802334654 -0.009574150085464337 0.0004032221517248787 0.0027916840448420246 0 0 0 0
27875802 0.008876568955886836 -0.00964626624993157 0.0004123450181676581 0.002774491886106272 0 0 0 0
27908748 0.008888071989344428 -0.009614796533485582 0.000397439143531599 0.0027836087850049824 0 0 0 0
27941694 0.008962166479271364 -0.009593690209945707 0.00042722559974531763 0.0028094550028433356 0 0 0 0
27974640 0.008911194055516226 -0.009609988166415293 0.0004046149194519943 0.002790432145626929 0 0 0 0
28007586 0.00884538088355616 -0.009652292948121734 0.00040797451731542066 0.00279757412311597 0 0 0 0
28040532 0.008897154715820381 -0.009736750647105998 0.00038830550332383685 0.002792680091946817 0 0 0 0
28073478 0.008919612901468452 -0.009721517064915699 0.0004147183645043702 0.002791122629449665 0 0 0 0
28106424 0.008879550703652565 -0.009562513126431324 0.00041022544247668334 0.002799721369515208 0 0 0 0
28139370 0.008928856708770062 -0.009671600318219144 0.00040579156511375567 0.002841084666526813 0 0 0 0
28172316 0.00884952902595359 -0.009706569774343443 0.0004140660253196478 0.002808364133345017 0 0 0 0
28205262 0.008844161605590125 -0.00981215665757213 0.00038381150791315144 0.0028302918386295464 0 0 0 0
28238208 0.008832789716289011 -0.009728004522812143 0.00041286396397099593 0.0028000220120425598 0 0 0 0
28271154 0.009012539045673416 -0.009737415593611527 0.00039561422758141847 0.002819122814887465 0 0 0 0
28304100 0.00888959896738231 -0.009692310667718435 0.0004043680756414534 0.002859663573814105 0 0 0 0
28337046 0.008827410708476785 -0.009829966964530132 0.0004216091043640138 0.002835083520853665 0 0 0 0
28369992 0.008864736912377439 -0.009828745185384728 0.0004267282939706647 0.002809440732044028 0 0 0 0
28402938 0.00890395349433464 -0.009757861644319042 0.00038179875244881434 0.002826311940391167 0 0 0 0
28435884 0.008809862704710568 -0.009812114512558543 0.0003978048571128966 0.002839236625407904 0 0 0 0
28468830 0.00883021898125247 -0.009857370075468122 0.0004113129604421009 0.002847057050592241 0 0 0 0
28501776 0.008945525405837587 -0.009877716155227478 0.00040135931921996335 0.0028501472195436453 0 0 0 0
28534722 0.008901259974692623 -0.009813830414292587 0.00043283695103373546 0.0028800537383757248 0 0 0 0
28567668 0.008885829943063077 -0.009840548404346453 0.0004302476291293874 0.00285932845843365 0 0 0 0
28600614 0.008945100100401575 -0.009977530654169483 0.00043468387402858806 0.0028798611507342524 0 0 0 0
28633560 0.00893998861662508 -0.01001650452208021 0.0004380149944269979 0.0028512036574082095 0 0 0 0
28666506 0.00886739225686299 -0.009844334681135087 0.00039928238132209233 0.002880941823202769 0 0 0 0
28699452 0.008912857209200552 -0.009823325230213804 0.0003921935997996066 0.002859430750344365 0 0 0 0
28732398 0.00891656098604446 -0.009991078272288722 0.00038669446182694033 0.0028851271335661364 0 0 0 0
28765344 0.008904534983879251 -0.010062455981218838 0.00044259652470558455 0.0028721833141935296 0 0 0 0
28798290 0.008927152246022167 -0.009908027659673796 0.00038641290216465433 0.0028867588172581645 0 0 0 0
28831236 0.008855453909338876 -0.01000575817792894 0.0004205245984636079 0.0028867359896608746 0 0 0 0
28864182 0.00889551431449731 -0.010043724560948096 0.00040899674486263214 0.0029007380742196863 0 0 0 0
28897128 0.008951077449594834 -0.010034776151142392 0.0004379282859285842 0.0028819435384048685 0 0 0 0
28930074 0.008933489378749057 -0.009933706059869818 0.0004165238483196962 0.002880293999009268 0 0 0 0
28963020 0.008848746554691055 -0.010051002550363182 0.00039029129400445486 0.002899884632821991 0 0 0 0
28995966 0.008946261098438664 -0.01013775853331117 0.0004138919250652246 0.0028738568377985013 0 0 0 0
29028912 0.008869788560487193 -0.01002949167043811 0.00041461259270785433 0.0028954754196294902 0 0 0 0
29061858 0.008889543818810776 -0.010132199256748744 0.0004178688579133281 0.0028998588593428074 0 0 0 0
29094804 0.00897688936381785 -0.009989560008291647 0.0004515521113321292 0.0029110382355688265 0 0 0 0
29127750 0.008949780986057136 -0.010068342483268057 0.00042127501649036656 0.0029254204271923117 0 0 0 0
29160696 0.008835518620343557 -0.01017832590087429 0.0004129150710249084 0.002932080181450391 0 0 0 0
29193642 0.008818713386649368 -0.01015138331675993 0.00043914833475864554 0.002923254244216577 0 0 0 0
29226588 0.00896022677086512 -0.010121738684275924 0.0004052957525286352 0.00292830384730333 0 0 0 0
29259534 0.008980441216735947 -0.010129627386571687 0.00042024853132176585 0.002927219996364213 0 0 0 0
29292480 0.008893361702358386 -0.01014374151108137 0.0003973796570321012 0.0029040665918550934 0 0 0 0
29325426 0.008855951251315934 -0.010228841127454445 0.00041719271474753556 0.002952368772978163 0 0 0 0
29358372 0.008879458119112381 -0.010250415121350812 0.0004272400616451102 0.0029331695391248435 0 0 0 0
29391318 0.008884002303448718 -0.01020527750709709 0.0004152673261258294 0.002929906850723672 0 0 0 0
29424264 0.009015467934928353 -0.01016761530759312 0.00044595888941720545 0.0029577745289329333 0 0 0 0
29457210 0.0088931138615392 -0.010201361538614288 0.00043035416784669524 0.002919795921126729 0 0 0 0
29490156 0.008883528379451482 -0.010120658651427536 0.0004123379660249673 0.0029415744666105885 0 0 0 0
29523102 0.008916779417322638 -0.010260061040076634 0.0004032217967275291 0.002946790289267179 0 0 0 0
29556048 0.00881472409639856 -0.01024760402704791 0.00042617664519145366 0.0029522174503140955 0 0 0 0
29588994 0.00894087537479677 -0.01021679003030689 0.0004141494860460118 0.0029495958175663963 0 0 0 0
29621940 0.008955848705916078 -0.010280123251037263 0.0004199371604021959 0.002957627834216152 0 0 0 0
29654886 0.008914998568368549 -0.010278789595973694 0.00044364497779006 0.0029669696934865215 0 0 0 0
29687832 0.00882001664652563 -0.0102679879436177 0.0004481940628666355 0.002983579439784621 0 0 0 0
29720778 0.0089050108294802 -0.010315913005713285 0.00042887772214825784 0.0029867358164683555 0 0 0 0
29753724 0.009010669553391151 -0.010233474841782669 0.00042583028005129014 0.00294822511080518 0 0 0 0
29786670 0.009020272283246011 -0.01027996909158261 0.0004283892156417284 0.0029796876026498506 0 0 0 0
29819616 0.008942545114070577 -0.010382611809222836 0.00042914525625364447 0.0029921028880599727 0 0 0 0
29852562 0.008930519412886818 -0.010408955223201049 0.0004317568738170872 0.002979215630907492 0 0 0 0
29885508 0.008948789642935606 -0.01039590397515955 0.0004199493140069554 0.0029858285020708934 0 0 0 0
29918454 0.008963431445127831 -0.010464420659395356 0.0004191371033538517 0.002974507674540593 0 0 0 0
29951400 0.009004829315297693 -0.01036390682827338 0.0004381819450508 0.0030037782537326637 0 0 0 0
29984346 0.008878027538393162 -0.010344103450008675 0.00042421401422851 0.002994722909266829 0 0 0 0
30017292 0.008917416883747607 -0.010391965275599126 0.0004311760490323753 0.0030003467298459143 0 0 0 0
30050238 0.008905327805697819 -0.010515324588747618 0.00042151224848490553 0.003017869454528441 0 0 0 0
30083184 0.008970419190801932 -0.010461629309387746 0.00043058036863455996 0.0030005928493574575 0 0 0 0
30116130 0.008896751020033903 -0.01048925440462043 0.000451861404072869 0.0030374022993430207 0 0 0 0
30149076 0.00896004819541492 -0.010501084372959713 0.0004146767937650989 0.003024872946378487 0 0 0 0
30182022 0.008905086969882108 -0.010513290257213228 0.00045669104640023577 0.003018993339058343 0 0 0 0
30214968 0.008860230739643253 -0.010494998410704011 0.00039336573076935753 0.0030492585799150942 0 0 0 0
30247914 0.00896249766173075 -0.010535169585088294 0.00043131089276399003 0.0030076938102408745 0 0 0 0
30280860 0.008911285296392247 -0.010483470678457302 0.00045958210612574 0.002993373233729821 0 0 0 0
30313806 0.008970156307304585 -0.010460028124063141 0.0004383124924486123 0.0030377227889657275 0 0 0 0
30346752 0.008959972000029813 -0.010615788961175507 0.00044960096050774005 0.003064849684203455 0 0 0 0
30379698 0.00891409261895679 -0.010560382077976103 0.000438462122827766 0.003036065223485242 0 0 0 0
30412644 0.008942302001397704 -0.010641624089621788 0.0004412103296455784 0.003051897810485083 0 0 0 0
30445590 0.008953063329095718 -0.010603078001057737 0.00043496480253074 0.003049575410436117 0 0 0 0
30478536 0.008953521092706855 -0.010602146037436883 0.00044075254762695516 0.003031964510045207 0 0 0 0
30511482 0.008961602875677214 -0.010673007163244128 0.0004487637307017514 0.003077910743557825 0 0 0 0
30544428 0.008976618273724033 -0.010666019042355089 0.00045397838799139054 0.00304126043130157 0 0 0 0
30577374 0.008963408869357477 -0.01066261898943391 0.00041065648832849046 0.0030637999020161634 0 0 0 0
30610320 0.00878107974422229 -0.010615037438449465 0.0004259757627103395 0.003069216722268233 0 0 0 0
30643266 0.00886206347388708 -0.010675185721592493 0.0004393677037351655 0.0030736977276739266 0 0 0 0
30676212 0.00890333005527338 -0.010685371843718684 0.00043728479224341293 0.00305958882867501 0 0 0 0
30709158 0.008877608400952622 -0.010689772513459974 0.0004667859786117153 0.0030553655658753995 0 0 0 0
30742104 0.008936383426262025 -0.010759323089540493 0.00044119434504568517 0.00307383661233291 0 0 0 0
30775050 0.008883022071898455 -0.010753123507716358 0.00045289685897313887 0.003098954686347003 0 0 0 0
30807996 0.008918905344514392 -0.010699166772662395 0.00043220880779605396 0.003098613698920508 0 0 0 0
30840942 0.009014358101536184 -0.010779307902651171 0.00044866828687171144 0.003088736113997076 0 0 0 0
30873888 0.009052346313586236 -0.010815792726160548 0.0004228155229094044 0.0030826186092817033 0 0 0 0
30906834 0.008908020768845596 -0.010790246867021135 0.00045151299737990354 0.003103367422297892 0 0 0 0
30939780 0.008966974698275213 -0.01086183220946665 0.0004543284833213195 0.0030821236822526337 0 0 0 0
30972726 0.008953003989611038 -0.010798889265672993 0.00044492757271466054 0.003116269109483405 0 0 0 0
31005672 0.00896119480763647 -0.010734825140754488 0.00044719926255916735 0.0031088950278596135 0 0 0 0
31038618 0.008902347698633706 -0.010863170664234496 0.00046914580955238245 0.0031189218289270062 0 0 0 0
31071564 0.008903107516961726 -0.01087974601509771 0.0004408537192595366 0.0030964295786795816 0 0 0 0
31104510 0.009004783447046425 -0.010835492238179898 0.00044721903993979003 0.003113804138158007 0 0 0 0
31137456 0.008944079371837714 -0.010800224117233786 0.0004380822329824298 0.0031324007673207087 0 0 0 0
31170402 0.008896943273508874 -0.010790654341193803 0.00045986556342457295 0.003126081457572478 0 0 0 0
31203348 0.008921717769030347 -0.010831430472794893 0.00046983896414112277 0.0031268933313355635 0 0 0 0
31236294 0.008904709547892216 -0.010926739048052296 0.0004452432153319352 0.0031080513957876827 0 0 0 0
31269240 0.009018838422164784 -0.010974841295800486 0.0004903891564470564 0.0031421697829172586 0 0 0 0
31302186 0.008900842839396237 -0.010832010168603102 0.00043085274969395103 0.0031589865909363276 0 0 0 0
31335132 0.008908876188814651 -0.010994254567952567 0.00047920841352823803 0.0031312098757156582 0 0 0 0
31368078 0.008936665383938473 -0.011031937529759856 0.00047209220149795864 0.0031761353107220614 0 0 0 0
31401024 0.008940665525207288 -0.011032027869535013 0.00044011936704417684 0.0031251885332715256 0 0 0 0
31433970 0.008909080324936276 -0.010981229471277148 0.00042070259415559344 0.003166863002567981 0 0 0 0
31466916 0.00903014336322686 -0.010968271987767076 0.0004267210547827293 0.0031260685408026926 0 0 0 0
31499862 0.008968335860368272 -0.011112721861408973 0.0005118996736503518 0.0031028843387035684 0 0 0 0
31532808 0.008916516767528956 -0.01106434330113007 0.0004255810310451584 0.0031364677534161172 0 0 0 0
31565754 0.008944439634050054 -0.01095549127465597 0.00046932197985956835 0.0031665575292519482 0 0 0 0
31598700 0.008987446167309919 -0.01106713422629868 0.0004562635788022616 0.0031633994145862654 0 0 0 0
31631646 0.008951564523720068 -0.011070033433083772 0.0004300584032860249 0.0031518342621687217 0 0 0 0
31664592 0.008968878379191657 -0.011175349803583272 0.000525866004650896 0.003173385455193197 0 0 0 0
31697538 0.009031382526445522 -0.011175662831672015 0.0004994855077550557 0.0031297641981692576 0 0 0 0
31730484 0.008948179080155515 -0.011088774498938771 0.0004345760416632729 0.0031984569541001506 0 0 0 0
31763430 0.008968363031787257 -0.011177247630874482 0.0004614977101814573 0.0032595063865917 0 0 0 0
31796376 0.008875577489187074 -0.01115836441618528 0.0004885646522014868 0.003184891489842434 0 0 0 0
31829322 0.008940081075085123 -0.011126316435866498 0.0005328576913385226 0.003214595526407064 0 0 0 0
31862268 0.008970929278370168 -0.01121205917844725 0.0004069477310559186 0.0032657880806417003 0 0 0 0
31895214 0.008954030683516606 -0.011132398168040937 0.0004479192151598473 0.003226909966344293 0 0 0 0
31928160 0.008819745408300704 -0.011116173086166333 0.0004509341614176525 0.0031828921695423898 0 0 0 0
31961106 0.008935278365945236 -0.011257524729939654 0.0004573800916267541 0.0031867345050707544 0 0 0 0
31994052 0.008988876816734747 -0.011198383811562093 0.0004639342305923631 0.0032039500761011745 0 0 0 0
32026998 0.008943845035321883 -0.011246182433052676 0.0004519983399157776 0.003213890588516694 0 0 0 0
32059944 0.008958288289551076 -0.011194917283803766 0.00045150073186427147 0.003239402942916474 0 0 0 0
32092890 0.009034138365489502 -0.011209599416661015 0.00046584319591225513 0.0032242499319627966 0 0 0 0
32125836 0.008967491588825087 -0.011249667462827712 0.00047408265588647753 0.0032303611236172746 0 0 0 0
32158782 0.008979416890645847 -0.01131892435650704 0.00047926845559964653 0.003235717211306608 0 0 0 0
32191728 0.008905985276647571 -0.011240177488553695 0.0004411976022245373 0.0032392045961943537 0 0 0 0
32224674 0.009049245244522731 -0.011284308571841492 0.00047113531751330045 0.0032243160532922756 0 0 0 0
32257620 0.009008170139090391 -0.011229737582960359 0.0004610889112723036 0.003228212806315988 0 0 0 0
32290566 0.008868019087936729 -0.011313514791695425 0.0004656100478780964 0.0032411388444563614 0 0 0 0
32323512 0.009048667379102645 -0.011383475900519255 0.00045961793534944644 0.0032522052156864403 0 0 0 0
32356458 0.008908316905835411 -0.01130769350513748 0.0004767695216284929 0.0032425466159254662 0 0 0 0
32389404 0.008992478474858474 -0.011351105862735843 0.00046163495665229085 0.0032449627282661207 0 0 0 0
32422350 0.00900566311599009 -0.011424729149735434 0.00047913534469795686 0.0032382102107543585 0 0 0 0
32455296 0.008892390703881854 -0.011410993028759442 0.0004952662881598298 0.0032838429909241734 0 0 0 0
32488242 0.008892351220394548 -0.011516374077489212 0.0004716596434842667 0.0032541000961204334 0 0 0 0
32521188 0.00895089378122775 -0.0113848091576081 0.00046302825123837937 0.0032728023428492555 0 0 0 0
32554134 0.008975864269882146 -0.011468060257462196 0.00045609179869700794 0.0032591913567540523 0 0 0 0
32587080 0.008941353110323484 -0.011494645829282855 0.00047650886438290737 0.0032509205799029195 0 0 0 0
32620026 0.008911136056921728 -0.011431277174660475 0.00045813908841420455 0.003282078009628582 0 0 0 0
32652972 0.008892331944707644 -0.01133258550656521 0.0004975158300853997 0.0032953398700143813 0 0 0 0
32685918 0.008931477131750739 -0.011493746070153616 0.00045742529749477704 0.003268405232420924 0 0 0 0
32718864 0.008924120595845724 -0.011549155943870331 0.00046014441651269576 0.00329567539082757 0 0 0 0
32751810 0.009018914812977282 -0.011547865818242227 0.00045616658702034855 0.003285337346769156 0 0 0 0
32784756 0.008925060331583943 -0.011463725291314807 0.00047352228419298656 0.003290566203548437 0 0 0 0
32817702 0.008942817895008826 -0.011487394015166259 0.0004615161702637791 0.003292783368927436 0 0 0 0
32850648 0.008999087749097067 -0.011443018029795641 0.00048001398957313367 0.0033015693972694884 0 0 0 0
32883594 0.008877044840746275 -0.01153309404606325 0.0004816196700675479 0.0033151796514602912 0 0 0 0
32916540 0.008873622410814621 -0.01159540012363128 0.0004771414637998912 0.0033014956411707287 0 0 0 0
32949486 0.00893930056371938 -0.011558858310863928 0.00047522982905629397 0.0032910679080786153 0 0 0 0
32982432 0.00891613857040174 -0.011628412093957452 0.0004837420803427203 0.003316872436936724 0 0 0 0
33015378 0.009037550565171942 -0.01159914933777155 0.0004716487566083408 0.003322188002766504 0 0 0 0
33048324 0.008995927453000135 -0.011590658734334887 0.0005048101430501354 0.0033160396581287683 0 0 0 0
33081270 0.008922932534128188 -0.011594529497733673 0.00047809307215835613 0.0033515654327010893 0 0 0 0
33114216 0.008932133957806778 -0.011667541825840032 0.0004863674472914649 0.003323607646325148 0 0 0 0
33147162 0.009015835573825407 -0.011719031398360629 0.0004667660575498483 0.003294147714435402 0 0 0 0
33180108 0.00906138106863958 -0.011677353950728223 0.0004848610577299199 0.0033270242052348014 0 0 0 0
33213054 0.008916432396052592 -0.011648604827144497 0.0004625310836603924 0.003326516463930452 0 0 0 0
33246000 0.008935723280382389 -0.011626968688359841 0.00048116261590485466 0.003323489567984326 0 0 0 0
33278946 0.008907854468923148 -0.011597938277003532 0.0004788495908739193 0.003355949784598316 0 0 0 0
33311892 0.00886542145572806 -0.011730158781438462 0.00047433190509389337 0.003312915761447159 0 0 0 0
33344838 0.00900582758353045 -0.011763952919455851 0.0004655754446076421 0.0033453657348362746 0 0 0 0
33377784 0.008963638094462387 -0.011726162128122676 0.0004825486332788686 0.0033626765607054922 0 0 0 0
33410730 0.009068845780144481 -0.011835633774657376 0.0004806517749851874 0.0033565834805013538 0 0 0 0
33443676 0.008983945728859362 -0.011693916273437924 0.0004621170199303934 0.0033858279060927855 0 0 0 0
33476622 0.008957534181613895 -0.011676383202158294 0.0004913214473249009 0.003367039382496851 0 0 0 0
33509568 0.009039407700002678 -0.011655972183480405 0.0004833799502612432 0.003380075034017666 0 0 0 0
33542514 0.009097656215678058 -0.011757711687172817 0.0004786265579410655 0.0033589823228386407 0 0 0 0
33575460 0.009009846388122765 -0.011838163096512887 0.00047812765319560336 0.003336759541153995 0 0 0 0
33608406 0.008979108004298212 -0.011855697329047826 0.0004958206645292579 0.0034089804676613543 0 0 0 0
33641352 0.009012187157438978 -0.01183079802722536 0.0005075223469792446 0.0033906827284462377 0 0 0 0
33674298 0.008946235919064618 -0.011801128311022386 0.0005096965734673694 0.0033893969027443986 0 0 0 0
33707244 0.009077680717077445 -0.011839258399847594 0.0004782783537223391 0.003351785773202329 0 0 0 0
33740190 0.008950090104984616 -0.011800208916121945 0.0004928752270979335 0.0033953354865038556 0 0 0 0
33773136 0.009058478847670921 -0.01184989000752579 0.00048477194110306266 0.003379684145362809 0 0 0 0
33806082 0.00881238164307529 -0.011878688054819946 0.000483268398841912 0.0034063196274572104 0 0 0 0
33839028 0.008826135170435883 -0.011928475365174782 0.00046474709089689055 0.003404453671627116 0 0 0 0
33871974 0.009015275919123393 -0.011863442102795685 0.0004727543909632609 0.0033978790744468995 0 0 0 0
33904920 0.008807484023722091 -0.01204656895160461 0.00048476407642368557 0.0034022913541598646 0 0 0 0
33937866 0.009074810911731152 -0.011670711927976075 0.000497800991972414 0.0034170464232237407 0 0 0 0
33970812 0.008989202653605761 -0.01190046299281293 0.0005017656132117386 0.003392308859251088 0 0 0 0
34003758 0.008909895090142055 -0.011951336191498314 0.0004960971744153805 0.0034328115466540437 0 0 0 0
34036704 0.008929503738020627 -0.011869649303279262 0.000488500037298677 0.00339078920548481 0 0 0 0
34069650 0.009010194658923715 -0.012040212028285504 0.0004857783494192746 0.0034055145384060295 0 0 0 0
34102596 0.00899500123952631 -0.012011936796854585 0.000488404525529997 0.0034142430687752845 0 0 0 0
34135542 0.008985847117178942 -0.011979148330422837 0.0004934737886017714 0.0034111583728758804 0 0 0 0
34168488 0.008937573344982816 -0.011987001318003804 0.0004949648923658437 0.0034488256682723194 0 0 0 0
34201434 0.008941486665792213 -0.012060309155629433 0.0004906116902774912 0.0034026436253086754 0 0 0 0
34234380 0.00900858378033634 -0.01206241143983672 0.0005114995504445617 0.0034403359979987623 0 0 0 0
34267326 0.008897950841759107 -0.012050019393572343 0.0004961806749871282 0.0034403132281076924 0 0 0 0
34300272 0.008948712078619511 -0.01209544579148409 0.0005262430941259599 0.0034354437793086916 0 0 0 0
34333218 0.008950261488670353 -0.01209614955856813 0.000500810284555542 0.0034403417112390065 0 0 0 0
34366164 0.009063058709976582 -0.01193877402543343 0.0005054171844807801 0.0034400731006547043 0 0 0 0
34399110 0.009009913775031802 -0.01203434192436551 0.0004918468668298629 0.003452586676020614 0 0 0 0
34432056 0.009016548092890929 -0.0121234786920174 0.0004750434408034255 0.003442789220198554 0 0 0 0
34465002 0.008914713884820019 -0.012159340593177585 0.0005008564005375283 0.003476261856525028 0 0 0 0
34497948 0.00903020071355854 -0.012067199788733479 0.0005173245445793877 0.0034645923173591883 0 0 0 0
34530894 0.008940759131654407 -0.01216893582594867 0.0005030300020038806 0.003487421835232405 0 0 0 0
34563840 0.008955076903969553 -0.012219162936387334 0.000517164110921618 0.003478424301496716 0 0 0 0
34596786 0.008981798465635979 -0.012259686912174137 0.0005093814250599251 0.0034675184650401754 0 0 0 0
34629732 0.009043538443348412 -0.012083402088339874 0.0005238638420259381 0.003476661585611539 0 0 0 0
34662678 0.008981320711047168 -0.012226402895907656 0.0005058032338150527 0.0034852443193155755 0 0 0 0
34695624 0.008964573211298477 -0.012310161254041021 0.0005148757260627074 0.00350092074354778 0 0 0 0
34728570 0.008984029797934693 -0.012270455092342786 0.0005002424233198512 0.0034816175370533443 0 0 0 0
34761516 0.009037680600629105 -0.012293567076723185 0.0005225225257078394 0.0034982578674080866 0 0 0 0
34794462 0.008985203639378884 -0.01213158446488293 0.0005111256888027026 0.0034736376324036567 0 0 0 0
34827408 0.008988400428326812 -0.012258619129209952 0.0005252942212165536 0.0034753141822257455 0 0 0 0
34860354 0.008943082390275421 -0.012215343319079145 0.0005157007012335467 0.0034938903666801744 0 0 0 0
34893300 0.008969350590982923 -0.012309957026588075 0.0005039787221147006 0.0034926598349809238 0 0 0 0
34926246 0.009017783227742061 -0.012219090371777033 0.0005217698146401979 0.003503608934662732 0 0 0 0
34959192 0.008972351878100351 -0.01245209438181051 0.0005088762883651411 0.0035461074883918016 0 0 0 0
34992138 0.0090073515039189 -0.01226429203248366 0.0004859515859873351 0.0035262241580187987 0 0 0 0
35025084 0.009042809921551943 -0.012357222785041545 0.00047689056477874937 0.0035831415271191103 0 0 0 0
35058030 0.009036045162847419 -0.01213450817656818 0.000475405505123662 0.003505572622224744 0 0 0 0
35090976 0.009069519800566037 -0.012424090854417872 0.0005202449049068685 0.003593106336890497 0 0 0 0
35123922 0.009036940150490369 -0.012320795839012846 0.0004720020477352158 0.0035553076423708832 0 0 0 0
35156868 0.008999084037936146 -0.012323233365805278 0.0004902390175249132 0.003448436638159613 0 0 0 0
35189814 0.00899942076043117 -0.012321536572306276 0.0005379956282119602 0.0035931084100333356 0 0 0 0
35222760 0.009037748129306336 -0.012524334149602709 0.000504660619422997 0.0035456514564787926 0 0 0 0
35255706 0.009148231823590014 -0.012303379534348558 0.000454368676926487 0.0035052530928185786 0 0 0 0
35288652 0.009027280109841641 -0.012348182086522951 0.0005702436241398444 0.0036186325526647418 0 0 0 0
35321598 0.008932676579641691 -0.012412834838984374 0.0004712874612435528 0.003505632686175365 0 0 0 0
35354544 0.008925029949847672 -0.012453619192053405 0.00046985704236629354 0.0035047483976547887 0 0 0 0
35387490 0.008943050704187243 -0.012465099013029335 0.0004850492126874697 0.003544732248177106 0 0 0 0
35420436 0.008994793561143983 -0.012597606262508968 0.0005113661479707659 0.003554318699058544 0 0 0 0
35453382 0.008958163578562515 -0.012484223132651202 0.0005117378016434702 0.0035483079732878025 0 0 0 0
35486328 0.009015417563890092 -0.012502462129257888 0.0005246512759782242 0.0035589745123967625 0 0 0 0
35519274 0.009045168803298954 -0.012593620094633207 0.0005081290867670206 0.0036027628689183524 0 0 0 0
35552220 0.008989937617784409 -0.01254993024259658 0.0005414527903381296 0.003558984226778741 0 0 0 0
35585166 0.009085070506629569 -0.012552927088086039 0.0005242273747516381 0.0035684376045308514 0 0 0 0
35618112 0.009008685616813788 -0.012572880929688161 0.0005325582006192505 0.003577078401373043 0 0 0 0
35651058 0.00883075908511754 -0.012605675619663638 0.000529892408276634 0.0035982457035266553 0 0 0 0
35684004 0.008941118607605008 -0.012603956402597025 0.0005206825061320247 0.003548868929304828 0 0 0 0
35716950 0.008901514183031927 -0.012611623545250873 0.0005416428864556261 0.0035673804947544147 0 0 0 0
35749896 0.009046045348764306 -0.01253678371787252 0.0005490371089275071 0.0035675095243174445 0 0 0 0
35782842 0.00899408695607506 -0.012633162958339548 0.0005169576462270858 0.00361324469570346 0 0 0 0
35815788 0.009084674566123054 -0.012639078728506531 0.0004918186223512047 0.0035983493604315776 0 0 0 0
35848734 0.008966398059793108 -0.01258152844651168 0.0005151288955229746 0.003594182482010776 0 0 0 0
35881680 0.009052466658643704 -0.012642057457167058 0.0005159421301735191 0.003589392946528928 0 0 0 0
35914626 0.009037360498096995 -0.012709598119137484 0.000501850266845036 0.0035839241714402895 0 0 0 0
35947572 0.009016704181590203 -0.01271039594009285 0.0005167433003055755 0.003586019711077837 0 0 0 0
35980518 0.008974555308266184 -0.012632017741041883 0.0005338569784164741 0.0036010812851069796 0 0 0 0
36013464 0.00899095427161417 -0.012710311599950735 0.0005651724893210722 0.0036370018720516526 0 0 0 0
36046410 0.008962797586677168 -0.012805283814636107 0.0005293369841406035 0.0036127714135103365 0 0 0 0
36079356 0.009006635987500752 -0.01274299198485837 0.0005527600164325708 0.003630170420516808 0 0 0 0
36112302 0.009031339650790086 -0.012746682949972764 0.0005202718691292412 0.003623648900208902 0 0 0 0
36145248 0.009079910051188085 -0.012745736534057198 0.0005136879927206283 0.0036166642738678398 0 0 0 0
36178194 0.00906090664363392 -0.012756997017850265 0.0005236778117732328 0.003635810190105996 0 0 0 0
36211140 0.008991243060504254 -0.01282472044092297 0.0005586252350214897 0.0036512154088152115 0 0 0 0
36244086 0.009033264419014277 -0.012913384529426815 0.0005593218792177445 0.003657475419158089 0 0 0 0
36277032 0.008876523897068072 -0.012924581915455584 0.000534220595440248 0.003616565079940869 0 0 0 0
36309978 0.009015533201417325 -0.012732984339195244 0.000518673572873923 0.0036411142345917323 0 0 0 0
36342924 0.008915219430686936 -0.01286608271919165 0.0005590173380401088 0.003627417350272398 0 0 0 0
36375870 0.009011365111912112 -0.012713897939774186 0.000521316776765355 0.003638111246350523 0 0 0 0
36408816 0.00881342875771055 -0.0127940208800927 0.0005330830841942148 0.0036504034761977527 0 0 0 0
36441762 0.009211325415202282 -0.012810965089755356 0.0005243927160536333 0.0036687212828707206 0 0 0 0
36474708 0.008967478342625242 -0.01286458272465321 0.0005371395659638158 0.0036705783645085157 0 0 0 0
36507654 0.009022432275553187 -0.012939643099950703 0.0005511474578093309 0.0036841202356771735 0 0 0 0
36540600 0.009090755350521468 -0.012923866189740032 0.0005463752420073943 0.0036564689905162822 0 0 0 0
36573546 0.008960871253214138 -0.01287487271921729 0.0005631543330387191 0.003676380612795577 0 0 0 0
36606492 0.0089876982248511 -0.012969543340286063 0.0005442787133635301 0.0036650198833105305 0 0 0 0
36639438 0.009030178968136644 -0.012962507385476123 0.0005335854208169076 0.003675833690719043 0 0 0 0
36672384 0.009170621415877732 -0.012970845386558008 0.0005602766621386551 0.0036963222430157006 0 0 0 0
36705330 0.008996933685615494 -0.013004548571902596 0.0005305326204498757 0.003704662576471227 0 0 0 0
36738276 0.009154519191031016 -0.012891860396205355 0.0005523064970051594 0.0037130504874785864 0 0 0 0
36771222 0.008976644520752253 -0.012931178018948733 0.0005274124109597894 0.0036892720847288923 0 0 0 0
36804168 0.008928689623892129 -0.012849068524206494 0.0005361641592612827 0.0037049790074158576 0 0 0 0
36837114 0.008974290028297825 -0.012977092797562092 0.0005317524679326747 0.0036922362734013382 0 0 0 0
36870060 0.00897437643741784 -0.013005003989807057 0.0005572275760026429 0.0037026365892124627 0 0 0 0
36903006 0.009011119132828793 -0.01300772614883435 0.000527427360422442 0.00371336458837321 0 0 0 0
36935952 0.008941070197741968 -0.013121266602014625 0.0005437732296700164 0.0036971986187820044 0 0 0 0
36968898 0.00888147648648836 -0.013085921134445634 0.0005285622482715959 0.0036788662279063464 0 0 0 0
37001844 0.009136777852245802 -0.013081330406105984 0.0005535928112123665 0.0037071377683368318 0 0 0 0
37034790 0.009087232427208882 -0.013066829339974228 0.0005400477043549147 0.0037201497050906598 0 0 0 0
37067736 0.008994754255756523 -0.0130887387128602 0.0005479809997325188 0.003733512060027191 0 0 0 0
37100682 0.009025764122709855 -0.013115548369299948 0.0005679322456563772 0.003708185205626256 0 0 0 0
37133628 0.009027189640025388 -0.013195306818672299 0.0005335066608383286 0.0037339859300568766 0 0 0 0
37166574 0.009039795749490293 -0.013134249816847743 0.0005267766427001378 0.0037431943717234676 0 0 0 0
37199520 0.009037952753490223 -0.013062280766736638 0.0005355173476786596 0.003725444098618573 0 0 0 0
37232466 0.0090063642014011 -0.013192756099793338 0.0005492374398264962 0.0037416572643628157 0 0 0 0
37265412 0.008956858132398602 -0.01321022148348177 0.0005526320843699409 0.0037413953723396567 0 0 0 0
37298358 0.009077735946594782 -0.013115959680722003 0.0005248265273523514 0.0037367748701951217 0 0 0 0
37331304 0.008998120099970863 -0.013114776865308365 0.0005646706012863503 0.0037368725768568423 0 0 0 0
37364250 0.009058435141180052 -0.01315776697527467 0.0005485349975253956 0.0037779586125727387 0 0 0 0
37397196 0.009086327928974952 -0.013282738556912062 0.0005667800909307969 0.0037457513503949486 0 0 0 0
37430142 0.009048993485792533 -0.013318532045671998 0.0005443780461027759 0.003785366305294756 0 0 0 0
37463088 0.009033745358670207 -0.01331288783328815 0.000543404472401685 0.0037817196469232825 0 0 0 0
37496034 0.00902044787204014 -0.013241147413318752 0.0005628808272123351 0.003783075885453076 0 0 0 0
37528980 0.009074915941478004 -0.013282273778948682 0.0005740492242861453 0.003766909076654797 0 0 0 0
37561926 0.008974044299568296 -0.013263009400071022 0.000545291867247721 0.003781788615305547 0 0 0 0
37594872 0.008988361439513084 -0.013285627410788184 0.0005568009055412703 0.003782109280082353 0 0 0 0
37627818 0.009016762479054275 -0.013341350751473127 0.0005655096474640201 0.0037827927546900254 0 0 0 0
37660764 0.009032599794569827 -0.013319124289935987 0.0005653253158921337 0.0037730952292359247 0 0 0 0
37693710 0.009076881860220255 -0.013320601168266975 0.0005496831491101651 0.0037851771564806967 0 0 0 0
37726656 0.009030006783583516 -0.013265833735998406 0.000572790258266349 0.003789736872897858 0 0 0 0
37759602 0.00901276926325803 -0.0133212508674195 0.0005445576364009543 0.0038113007812783373 0 0 0 0
37792548 0.009012073811835776 -0.013415950908116692 0.000537702565016729 0.003818149726496946 0 0 0 0
37825494 0.009116882181291176 -0.013404530766693599 0.0005522116275155997 0.003805170921642858 0 0 0 0
37858440 0.008963410511454955 -0.013442916193386467 0.0005475424039049182 0.0037955181421936777 0 0 0 0
37891386 0.009011450165562039 -0.013407086166549637 0.0005512725195462411 0.003792206292410025 0 0 0 0
37924332 0.009066588608803017 -0.013345329016496871 0.0005719160815535187 0.0038221626483861595 0 0 0 0
37957278 0.009039079150629029 -0.013440924228617531 0.0005626736718054256 0.0038211369654873933 0 0 0 0
37990224 0.009020538388538092 -0.013504877261024784 0.000576908468062665 0.0038023961931937513 0 0 0 0
38023170 0.009118338177736891 -0.013480861658271268 0.0005657446961113144 0.003833228798497495 0 0 0 0
38056116 0.00900619458000322 -0.01345699503769757 0.0005543459287393077 0.0038239237622339044 0 0 0 0
38089062 0.008968383687688613 -0.013512278812702635 0.0005608083976802968 0.0038346262774881113 0 0 0 0
38122008 0.009129733394694436 -0.0134287464641562 0.00058132676301114 0.0038343512780947137 0 0 0 0
38154954 0.00912845378111165 -0.013455101150579333 0.0005496240758037383 0.003815433779098217 0 0 0 0
38187900 0.00909725260340782 -0.013467144452268718 0.0005733284709137865 0.003847323344262452 0 0 0 0
38220846 0.009057408417456246 -0.01353974545378747 0.0005720539541408898 0.00387083232596606 0 0 0 0
38253792 0.009018632174599743 -0.013521301929971306 0.0005709901172746269 0.0038324539740825876 0 0 0 0
38286738 0.009025915188874998 -0.013548343712059036 0.0005832055013785109 0.0038314718301518825 0 0 0 0
38319684 0.009054538229151945 -0.013564831198562017 0.0005906631455731954 0.003860549701496585 0 0 0 0
38352630 0.00911264431090663 -0.01363122296243489 0.0005661036820465822 0.0038508557881605354 0 0 0 0
38385576 0.009038620593848041 -0.013717069673463622 0.000567096066430795 0.0038717423918809466 0 0 0 0
38418522 0.008988338255040482 -0.013647324473926456 0.0005707555667590832 0.0038501185474665357 0 0 0 0
38451468 0.00900794071839247 -0.013644792134808343 0.0005706609817504341 0.003861452869188091 0 0 0 0
38484414 0.009006757171776875 -0.013663090210738927 0.0005604283748218169 0.003884890086634905 0 0 0 0
38517360 0.009025503173353063 -0.013622540810212124 0.0006047231004971884 0.0038480673917328317 0 0 0 0
38550306 0.008958228819226954 -0.013606319810885411 0.0005979616389782722 0.0038473127514139283 0 0 0 0
38583252 0.008993042632663276 -0.013742596820280456 0.0005939830449384592 0.0038878361475377984 0 0 0 0
38616198 0.009076867915323245 -0.013649833520045356 0.0005714680832801084 0.0038693049472329163 0 0 0 0
38649144 0.00906749825745409 -0.013648641048925362 0.0005778268550666246 0.0038878066483904097 0 0 0 0
38682090 0.008973902640390176 -0.013755356848083747 0.000574482703684411 0.0038835332564009215 0 0 0 0
38715036 0.009078381619638167 -0.01373315019500754 0.0005592500725262875 0.003921976766239962 0 0 0 0
38747982 0.009031146108719986 -0.013753935021711787 0.0006013945697764941 0.0038981317415921544 0 0 0 0
38780928 0.009007854678371103 -0.013728295898664688 0.0005696597954561839 0.0038963048971704817 0 0 0 0
38813874 0.009142470246739882 -0.0137088921677907 0.0005793608862299986 0.0038904105068344715 0 0 0 0
38846820 0.009034701086531361 -0.01376541643037958 0.0005851040067187368 0.003926466503534155 0 0 0 0
38879766 0.009089159690668982 -0.013806614095289362 0.0005773326876782766 0.003933041166860406 0 0 0 0
38912712 0.009030916462239512 -0.013838229749720545 0.0005999942087727414 0.0038955445350341775 0 0 0 0
38945658 0.009046553779685702 -0.013761245164284933 0.0005829694767240239 0.003910396552794725 0 0 0 0
38978604 0.009048421692497097 -0.013735542440564743 0.0005882598397109082 0.0039207555688398335 0 0 0 0
39011550 0.009103085207601563 -0.013956097845136663 0.0005770008361833867 0.003913177031063244 0 0 0 0
39044496 0.009013266588133865 -0.0138466623901318 0.000568579852101738 0.003929615418868668 0 0 0 0
39077442 0.009074302833198577 -0.013811313671608438 0.0006006015746627693 0.003932110885040557 0 0 0 0
39110388 0.009119611147111819 -0.013770138110537664 0.0005768447351057654 0.003936226787270257 0 0 0 0
39143334 0.009089895354924835 -0.013944088759058901 0.0006108741065995134 0.003921136921942387 0 0 0 0
39176280 0.00907005433923727 -0.013883476200457752 0.0005743654219474358 0.003935628341182991 0 0 0 0
39209226 0.00909726309841818 -0.01389285005483505 0.0006059193587089498 0.003926431157008214 0 0 0 0
39242172 0.009013755739978625 -0.013825448993956982 0.0005581332483994928 0.003931675390780858 0 0 0 0
39275118 0.009048822973788442 -0.013954397796779875 0.0005979847273320308 0.003952487066052153 0 0 0 0
39308064 0.00899009004017594 -0.01394352408922783 0.0005908725849915468 0.0039297981435268215 0 0 0 0
39341010 0.009075152547545033 -0.013967256899828728 0.000598129013395525 0.0039587362296966775 0 0 0 0
39373956 0.009005186634268173 -0.013937300970844807 0.0005949253493692151 0.0039772039177791456 0 0 0 0
39406902 0.00902314557281935 -0.01398169116530113 0.0005972274075734349 0.00395906190388676 0 0 0 0
39439848 0.009013815069250036 -0.014004390971161967 0.0005815527538056714 0.0039755747949675735 0 0 0 0
39472794 0.009142765633118659 -0.013986933964876224 0.0005946782101972357 0.003952603187477707 0 0 0 0
39505740 0.00898698028836394 -0.014155333225930537 0.0006053399105286598 0.003972778369533244 0 0 0 0
39538686 0.008973412346568026 -0.014009706717272643 0.0005823372422727453 0.003971215774598235 0 0 0 0
39571632 0.009044671175183455 -0.014102711505539349 0.0005856608472097237 0.003984748879648919 0 0 0 0
39604578 0.009040475329443659 -0.014069318058479276 0.0005978624695950526 0.0039689347298045765 0 0 0 0
39637524 0.00915574325944336 -0.01402141024002416 0.000590991490708629 0.0039826652420878765 0 0 0 0
39670470 0.009058994609650567 -0.014103026680662916 0.0006233371728621268 0.003997694813011544 0 0 0 0
39703416 0.009017911322197664 -0.014099296165290447 0.0005830273888486425 0.0039752202161304935 0 0 0 0
39736362 0.009044809801784525 -0.014108690397517613 0.0006077112530844016 0.003993760712556987 0 0 0 0
39769308 0.00912006635974204 -0.014137261305876515 0.0005805231833492186 0.003991202407703518 0 0 0 0
39802254 0.009029590676148364 -0.014080426508467173 0.0005973624372518214 0.004022149843870725 0 0 0 0
39835200 0.0090537257392508 -0.014035791361588909 0.0005767988946965352 0.004024352006791156 0 0 0 0
39868146 0.00898370343903548 -0.014145970247516803 0.0006046500231868509 0.003998189174151978 0 0 0 0
39901092 0.00903978721113151 -0.014167519250537415 0.0005898389554506168 0.004010007723218288 0 0 0 0
39934038 0.008993213718612432 -0.014166035134950468 0.0006083356724936398 0.004013147080013051 0 0 0 0
39966984 0.009052016002318973 -0.014148283812782585 0.0005955023208378872 0.004044885370076282 0 0 0 0
39999930 0.00901293320369522 -0.0141978269688703 0.0006163978595780311 0.004015240338071894 0 0 0 0
