# HZ S RI R 50
300000 0.030165016413742675 -0.021416566765704553 3.0072169852310213e-06 -1.897267853985431e-05 0 0 0 0
332946 0.025855581343634595 -0.02388706051956393 3.527918415731012e-05 -2.4099630880399084e-05 0 0 0 0
365892 0.02176856895696704 -0.024976927880538364 6.16751565484405e-05 -4.598294703649368e-05 0 0 0 0
398838 0.01782444314077441 -0.02510373760735032 4.2808203734990894e-05 -7.967706517906319e-05 0 0 0 0
431784 0.0182185610453884 -0.020745994580276605 0.00011491670570173461 -6.16759611926792e-05 0 0 0 0
464730 0.01566173134789522 -0.020318793127379633 0.00011173871125791875 -7.432700317323337e-05 0 0 0 0
497676 0.013508139923674826 -0.019559857985737755 0.00012007049624449944 -0.00010680051397367774 0 0 0 0
530622 0.011491973084926664 -0.018539350823782615 0.0001288367906357248 -9.501790596382016e-05 0 0 0 0
563568 0.01013346532266084 -0.01710453694062898 0.00013957127184140034 -0.00012631289124907214 0 0 0 0
596514 0.009194977978620341 -0.01577591942888138 0.0001240439084869638 -0.00015148030233467244 0 0 0 0
629460 0.008381623821336247 -0.014590980188936923 0.00012259429298877505 -0.00011830759493393444 0 0 0 0
662406 0.007795221986918159 -0.013756934314148105 0.0001266946177950616 -0.0001517085614108298 0 0 0 0
695352 0.0072113474010341684 -0.012618011541829257 0.00011621733314070902 -0.00014440534633734252 0 0 0 0
728298 0.006885351176892175 -0.011863603327915884 0.00013848714037059995 -0.000167238732443162 0 0 0 0
761244 0.006901975971837312 -0.01111725244446377 0.00011355205372214009 -0.00022014554580085188 0 0 0 0
794190 0.006749567039416314 -0.010395421003540612 0.0001326842017118257 -0.00019384256365859908 0 0 0 0
827136 0.00669420293527898 -0.009750839456134532 0.00013462766023334264 -0.00020701737402633422 0 0 0 0
860082 0.006572051449356918 -0.00932583288825485 0.00011021010107314481 -0.00022419056071086604 0 0 0 0
893028 0.006541734660903568 -0.008865302511658131 0.00011484710404000726 -0.00021618754840537695 0 0 0 0
925974 0.006535845020145207 -0.008441328016686681 0.0001248180454583016 -0.00024106849697541323 0 0 0 0
958920 0.006652801175309166 -0.008365295056795868 0.00010738816507864453 -0.00025849334203830235 0 0 0 0
991866 0.006627210597008834 -0.007830211196243277 0.00012222862248965677 -0.0002454546755182089 0 0 0 0
1024812 0.0067555357140133745 -0.007509026999601829 0.00012104991517471388 -0.00025946645774806593 0 0 0 0
1057758 0.006759042984011093 -0.007316673521027361 9.923102202055411e-05 -0.0002940193343511464 0 0 0 0
1090704 0.006625604384077369 -0.007183600080874642 0.00010223732070280638 -0.00027537839384767914 0 0 0 0
1123650 0.006501985935116884 -0.006787733409837726 9.097089551740786e-05 -0.00030760605569291445 0 0 0 0
1156596 0.006771215538141318 -0.006530696645626317 0.00013312477094565249 -0.0002968871127332794 0 0 0 0
1189542 0.006896701934715831 -0.006464445051151744 0.00011781216481424888 -0.00033972439758567273 0 0 0 0
1222488 0.006874041554043451 -0.006382501253825953 0.00011966751251046596 -0.00031596808743673935 0 0 0 0
1255434 0.006770624247209881 -0.006311073059154703 0.0001301159149896302 -0.00034701756264394107 0 0 0 0
1288380 0.006721185494070728 -0.0060309723856570765 8.829149415794546e-05 -0.00034551365134670827 0 0 0 0
1321326 0.006766581483345739 -0.005987991063826543 0.00011848950175633838 -0.0003784133129961215 0 0 0 0
1354272 0.006788756659420028 -0.005809613660010258 0.00011352937749119988 -0.00038990165303744677 0 0 0 0
1387218 0.0068129417034331965 -0.00588220395811074 0.00010425474311261395 -0.0004011410750986574 0 0 0 0
1420164 0.006717540702637066 -0.005790520159136059 0.00012270131480118256 -0.00038803809316397046 0 0 0 0
1453110 0.006738429069743548 -0.005781101941327343 0.00011675596406053444 -0.00040625143043724184 0 0 0 0
1486056 0.006688901477686973 -0.005644326562837735 0.00012197350717824041 -0.0004322448723701645 0 0 0 0
1519002 0.006743695802565334 -0.0055985791057449365 8.33761907734098e-05 -0.000464661466956401 0 0 0 0
1551948 0.006644739574094868 -0.005522773415706081 8.794945525584563e-05 -0.00045541685484669266 0 0 0 0
1584894 0.006547900637478597 -0.005381339496591293 0.00010330339162836221 -0.0004649358432924487 0 0 0 0
1617840 0.006481456545493416 -0.005345940512679072 0.00010772099846459204 -0.0005132482903872119 0 0 0 0
1650786 0.006550247964375105 -0.005229723302708635 8.550705677446731e-05 -0.000514667373939995 0 0 0 0
1683732 0.006401576213562833 -0.005231999467373973 0.00010641886898741685 -0.0004866131994869308 0 0 0 0
1716678 0.006537297650215454 -0.005138803871895603 0.00010846644734010557 -0.0005195822473033285 0 0 0 0
1749624 0.006351019362752239 -0.005157970427166145 8.463939650461453e-05 -0.0005376501303202561 0 0 0 0
1782570 0.006345253874860432 -0.005066059838239995 8.726258754518429e-05 -0.0005637226982088599 0 0 0 0
1815516 0.0063531501839748684 -0.004979632864897372 8.532126670985856e-05 -0.0005711210848887212 0 0 0 0
1848462 0.006195461086830546 -0.004945363738656626 7.98349579720838e-05 -0.0005816025498526401 0 0 0 0
1881408 0.006350422328869676 -0.004964164873734727 7.473804269672809e-05 -0.000619752785560772 0 0 0 0
1914354 0.006141185943778258 -0.004858070208003977 7.738666761973769e-05 -0.0006217701138775795 0 0 0 0
1947300 0.0062231731060996874 -0.004743026825489107 5.6678395143593446e-05 -0.0006480511547716634 0 0 0 0
1980246 0.006056785186811449 -0.0046938209155446805 6.501892662928935e-05 -0.0006805301982295599 0 0 0 0
2013192 0.006035367518260425 -0.004720764589671026 4.920631536510179e-05 -0.000688279846649518 0 0 0 0
2046138 0.006021340917388382 -0.00456805236003436 6.470220020170689e-05 -0.0007094627979240435 0 0 0 0
2079084 0.005984529597423805 -0.00448151890592668 2.1628986945500894e-05 -0.0006643348526526531 0 0 0 0
2112030 0.006120959734771703 -0.004526090348653625 4.606211847281181e-05 -0.0007096788701515478 0 0 0 0
2144976 0.006103755164250016 -0.004513183872616151 1.0144372070974846e-05 -0.0007465421487296214 0 0 0 0
2177922 0.00606975261675235 -0.004222606762076469 2.4930242229689506e-05 -0.000762307132569487 0 0 0 0
2210868 0.005872186290301456 -0.004251355553706561 2.1146663478262037e-05 -0.0007695090711182071 0 0 0 0
2243814 0.005836643439883672 -0.004250026540162448 1.0474824060090538e-06 -0.000770322088036758 0 0 0 0
2276760 0.005830156020284897 -0.004219737706815394 -2.1785465049436784e-05 -0.0007958867527059112 0 0 0 0
2309706 0.005707652880239199 -0.004140313883806888 -2.84523807704354e-05 -0.000821695141288898 0 0 0 0
2342652 0.005748486443457849 -0.004192179606282471 -3.172200621369699e-05 -0.0008448141689397381 0 0 0 0
2375598 0.0059098338094852815 -0.004200687610489778 -2.7912359372294096e-05 -0.0008558694139138153 0 0 0 0
2408544 0.005820076685417988 -0.004182009324395388 -4.252516094852524e-05 -0.0008800282692822868 0 0 0 0
2441490 0.005743615713031484 -0.004046354617718204 -9.921445168118982e-05 -0.0008956223100394488 0 0 0 0
2474436 0.005597999701131626 -0.00398849935322689 -0.00010381243654922708 -0.0009237892702972886 0 0 0 0
2507382 0.005722436670334923 -0.003857427228836394 -0.00010696086157821276 -0.0009370272227676265 0 0 0 0
2540328 0.005762588520873622 -0.003840793796500212 -0.0001059423463394452 -0.000931687842088094 0 0 0 0
2573274 0.005578476966830079 -0.0037979115670800792 -0.00014793957138650135 -0.0009606317300603742 0 0 0 0
2606220 0.005582610734381236 -0.0036387308442847465 -0.00016256428989119864 -0.0009909830649504068 0 0 0 0
2639166 0.005610329835838398 -0.003589323967167892 -0.00021021908121883912 -0.0009931719597679272 0 0 0 0
2672112 0.00561563670122214 -0.003673251875193778 -0.0001907760049980649 -0.0009923671262369314 0 0 0 0
2705058 0.005750848896041101 -0.0036427508926396976 -0.00022142253563060704 -0.0010374299350678336 0 0 0 0
2738004 0.005653283817149705 -0.003507404717196765 -0.00027668245446773655 -0.0010553307294841443 0 0 0 0
2770950 0.005645540458515926 -0.003514897506328273 -0.00026179541748706277 -0.0010210716216791883 0 0 0 0
2803896 0.005509593966429878 -0.003385557705359638 -0.00031872557948388683 -0.0010821459149530646 0 0 0 0
2836842 0.005435305783472239 -0.003357064665405229 -0.00027978755117202803 -0.001085672860309227 0 0 0 0
2869788 0.005565498784638233 -0.003374486605376533 -0.0003471277670663764 -0.0010846497035571195 0 0 0 0
2902734 0.005655807496056618 -0.0033948677214850087 -0.00036697542198279725 -0.001073092212818048 0 0 0 0
2935680 0.005522584227072017 -0.003300060485497355 -0.0003723575154408715 -0.001067206515078547 0 0 0 0
2968626 0.005529662962025849 -0.0032514575204881245 -0.0004164386750635348 -0.0010768659475281926 0 0 0 0
3001572 0.005487963253007115 -0.003108209125421854 -0.0004248453354875645 -0.0011078680426326315 0 0 0 0
3034518 0.005551857606610291 -0.003162459999050045 -0.00044174368255006603 -0.001117641460851499 0 0 0 0
3067464 0.005589025119257308 -0.0030941593748908184 -0.0005117239392636554 -0.0011082398925942104 0 0 0 0
3100410 0.0054631601731772285 -0.0030585320799976883 -0.0005051360456157505 -0.0011026416979392718 0 0 0 0
3133356 0.005424954481684342 -0.0030563849406028587 -0.0005563023061765381 -0.0010475585306750526 0 0 0 0
3166302 0.005546431735495778 -0.0031019343722310435 -0.0005830309874199549 -0.001119364002110673 0 0 0 0
3199248 0.005538058574494886 -0.0029750953449005544 -0.0006197179669598018 -0.0010950465646052984 0 0 0 0
3232194 0.005402394966325315 -0.0030020710398144593 -0.0005965114457058776 -0.001092612533623856 0 0 0 0
3265140 0.005495154439437881 -0.0028866259128534923 -0.0006471546648538836 -0.0010959572517737176 0 0 0 0
3298086 0.0053594007196262105 -0.002899412603026486 -0.0006675956872685463 -0.0010789783761562081 0 0 0 0
3331032 0.0055725596258586725 -0.002997122252586039 -0.0007095907666436307 -0.001095186881392773 0 0 0 0
3363978 0.00557900791950067 -0.002879582091344797 -0.0006969640053847323 -0.001059853938932189 0 0 0 0
3396924 0.005668089293472702 -0.0028611636180362852 -0.0007439160348256163 -0.0010646134840314664 0 0 0 0
3429870 0.0054462513599138045 -0.0028629649284436245 -0.000763536677339532 -0.0010745203733491275 0 0 0 0
3462816 0.005492035015168067 -0.002754208305727982 -0.0008217351492430808 -0.001065092275564094 0 0 0 0
3495762 0.0054446413626971675 -0.002779366103477211 -0.0008238472275840074 -0.0010323652018922594 0 0 0 0
3528708 0.0054678445424259075 -0.002749583560094905 -0.0007939539650848631 -0.0010655707041249914 0 0 0 0
3561654 0.005637343531733483 -0.0027492075350076485 -0.0008078403870865485 -0.001012710277048812 0 0 0 0
3594600 0.005664049964518732 -0.002639832731076457 -0.0008439108431693741 -0.000993104354505461 0 0 0 0
3627546 0.005560731262951046 -0.002722197776060801 -0.0008735862390439512 -0.0009835602355858116 0 0 0 0
3660492 0.005528432091430555 -0.0025387290833831485 -0.000883575340925523 -0.0009670752596927972 0 0 0 0
3693438 0.005465525182349862 -0.0025566908660258608 -0.0008760930868161981 -0.0009747534277608418 0 0 0 0
3726384 0.005553276192247995 -0.0025639660857921047 -0.0009475451494718077 -0.0009580980377325453 0 0 0 0
3759330 0.005412501659734419 -0.0026402790595045785 -0.000945970725818009 -0.000953299182201098 0 0 0 0
3792276 0.00563278639552016 -0.002529777977545005 -0.000937632446073732 -0.0009277334567742827 0 0 0 0
3825222 0.005596363364535026 -0.0026182225761453193 -0.000941664955780214 -0.0008885790719622819 0 0 0 0
3858168 0.005484737026886798 -0.002326197708337319 -0.000928810552866865 -0.0009203691091598447 0 0 0 0
3891114 0.005476244384145849 -0.0025149991459422864 -0.000974397830064649 -0.0008975559735437054 0 0 0 0
3924060 0.005455186031522131 -0.0025129750017699906 -0.0009658767844267219 -0.0008969362092004209 0 0 0 0
3957006 0.005460063236207347 -0.0025077140790905348 -0.0009946959707044579 -0.0008118885921853428 0 0 0 0
3989952 0.005612222642933555 -0.0024676942453538938 -0.0009839668233945125 -0.0008308509230926748 0 0 0 0
4022898 0.005566157838962935 -0.002518536216129437 -0.0010132762595155263 -0.0008083906841780538 0 0 0 0
4055844 0.005475215568216004 -0.0023501972864056328 -0.0010129952957056321 -0.0008160374116686611 0 0 0 0
4088790 0.005567847202986077 -0.002381752448859981 -0.000996932705069951 -0.0008023870817733782 0 0 0 0
4121736 0.00544555178394886 -0.00240155407059104 -0.0010158154955775302 -0.0008001402541142961 0 0 0 0
4154682 0.005653237597476748 -0.002380858778562573 -0.0010076888216063345 -0.0008069231589906238 0 0 0 0
4187628 0.005608066355486263 -0.0023226036468935807 -0.0010273726521999222 -0.0007696726388772056 0 0 0 0
4220574 0.005551470674738792 -0.002312586407629373 -0.0010578463322574632 -0.0007313517749822103 0 0 0 0
4253520 0.005492061219267513 -0.0022679054839389854 -0.001061790101594777 -0.0007404387430462049 0 0 0 0
4286466 0.00551691262085714 -0.002281168469681774 -0.0010834089214296042 -0.0007047249591597794 0 0 0 0
4319412 0.005563910758060063 -0.0022846678610128116 -0.001031222892116296 -0.0006924249181736678 0 0 0 0
4352358 0.00554576481996234 -0.0022093850327171973 -0.0010806237293916646 -0.0006861061009467134 0 0 0 0
4385304 0.005436048599790169 -0.0022928416050951627 -0.0010273367649863891 -0.0006706436205829091 0 0 0 0
4418250 0.005658682332147744 -0.0023180089645951957 -0.0010735246864485989 -0.0006881145331751056 0 0 0 0
4451196 0.005703457238247932 -0.0022247473584500756 -0.001060152826563478 -0.0006498860973753839 0 0 0 0
4484142 0.005609609319722493 -0.00207506518790705 -0.0010540387707109664 -0.0006448147728682604 0 0 0 0
4517088 0.005624688516438908 -0.0021735966897263774 -0.001067955830046199 -0.0006400050624276288 0 0 0 0
4550034 0.005562187615162611 -0.0022192183816030584 -0.0010713858477026863 -0.0006283237170348559 0 0 0 0
4582980 0.005552362167665083 -0.0021867596678473923 -0.0010661674125317885 -0.0006320514750863515 0 0 0 0
4615926 0.005617245440684508 -0.0021314078778818914 -0.0010700258230304193 -0.0006205016918166811 0 0 0 0
4648872 0.005652560003659414 -0.0020960113371498016 -0.0010851850042909686 -0.000626853287341664 0 0 0 0
4681818 0.005724665475390088 -0.0021286533202034374 -0.001055198798444346 -0.000605821203070332 0 0 0 0
4714764 0.005686901457685364 -0.0020276545411746986 -0.0010692784230245285 -0.0006017851605499326 0 0 0 0
4747710 0.0056077310293995595 -0.002028291058450811 -0.0011093385617960791 -0.0006017466075873173 0 0 0 0
4780656 0.005607881698337266 -0.0020469845165011435 -0.0010779101123650436 -0.0005595016006780788 0 0 0 0
4813602 0.005786308182981248 -0.002068383679233076 -0.0010693662482433011 -0.0005938506128155415 0 0 0 0
4846548 0.005690738460854873 -0.0020502704339354634 -0.001072507914095798 -0.0005222095909752498 0 0 0 0
4879494 0.005585444725764314 -0.0020421455614240583 -0.001084944884825739 -0.0005261076596064969 0 0 0 0
4912440 0.00570323139457326 -0.0019389744575884047 -0.0010554795973667435 -0.0005376451488917452 0 0 0 0
4945386 0.005755892513519585 -0.0019574217054814246 -0.001075590981971281 -0.0005099110494919172 0 0 0 0
4978332 0.005760219792561809 -0.0018718624960885513 -0.0010766555030955827 -0.0005429338714090272 0 0 0 0
5011278 0.005689232742543834 -0.001953881089408592 -0.001056675083718575 -0.0005139276255546789 0 0 0 0
5044224 0.005750364409053117 -0.0019571418290900366 -0.0010686321329367338 -0.0005332593605689569 0 0 0 0
5077170 0.005641532956989774 -0.0019305896098702686 -0.0010342099196613513 -0.0005117141583116919 0 0 0 0
5110116 0.005670640052921073 -0.0018975936701800629 -0.0010529620024079156 -0.0004802822098283642 0 0 0 0
5143062 0.005738386691221135 -0.0018586497510096629 -0.0010430962101972202 -0.000502889191708327 0 0 0 0
5176008 0.005773395819873689 -0.0018831881390024893 -0.0010908240000531398 -0.0004887622628167769 0 0 0 0
5208954 0.005817352281858569 -0.0018589296089434055 -0.0010495237617148586 -0.0005139531290766798 0 0 0 0
5241900 0.005753712508711528 -0.001806188690106656 -0.0010851672525484777 -0.000483920356438754 0 0 0 0
5274846 0.005806436541524672 -0.0017696011718033706 -0.0010644941340072576 -0.0004389344785775745 0 0 0 0
5307792 0.005823131897475515 -0.0018839757245199293 -0.0010603830561862937 -0.0004577344428548003 0 0 0 0
5340738 0.00585454615432042 -0.0017500342514918984 -0.0010693278813813639 -0.00045668381098668877 0 0 0 0
5373684 0.005927184856669639 -0.0017895221882788094 -0.0010544415127125757 -0.000458712111092582 0 0 0 0
5406630 0.005897367257985226 -0.0017725371210551072 -0.0010264893059522577 -0.00044609804179994043 0 0 0 0
5439576 0.005935437510823797 -0.0018031577635441744 -0.0010536006558826594 -0.0004583274945096655 0 0 0 0
5472522 0.005907998481347216 -0.0018003344463596435 -0.0010485899098042185 -0.0004379141534267103 0 0 0 0
5505468 0.005895785498762043 -0.0017612467918738663 -0.0010380698199301463 -0.0004324811174595448 0 0 0 0
5538414 0.00592569444156356 -0.001938829292463903 -0.0010385858670219816 -0.0004389010410068889 0 0 0 0
5571360 0.005939090215003007 -0.00173511552853967 -0.0010697503906343484 -0.00043470110715022436 0 0 0 0
5604306 0.0059930597590715 -0.0016848301061946093 -0.001011527162286402 -0.00043231696692466807 0 0 0 0
5637252 0.00589972563781147 -0.0017973736076056324 -0.001063815886507342 -0.0004257435815983119 0 0 0 0
5670198 0.0059879810650146584 -0.00183227250795311 -0.0010600907522206788 -0.00043975708317805855 0 0 0 0
5703144 0.006010537943258587 -0.00180512647342149 -0.001051494077410371 -0.00040975482035024625 0 0 0 0
5736090 0.006046821743444812 -0.0017931799278542472 -0.00103106818113748 -0.0004029644956181445 0 0 0 0
5769036 0.00602415611827392 -0.001813216293895273 -0.0010102538447434007 -0.0004399035637058012 0 0 0 0
5801982 0.00620382583115729 -0.0018845876610744613 -0.001040256438838674 -0.00039337208702728914 0 0 0 0
5834928 0.0061546061873054775 -0.0017655280901507768 -0.0010532551390932776 -0.0004023614719323734 0 0 0 0
5867874 0.006059388714702201 -0.0017538411152449042 -0.0010443279592533535 -0.00038473558776212986 0 0 0 0
5900820 0.006073653947171905 -0.0016736189938732179 -0.0010314108577663293 -0.00037106405475034423 0 0 0 0
5933766 0.00613776516903073 -0.001719896912687363 -0.0010205881872270112 -0.00038581838223253594 0 0 0 0
5966712 0.0060662552872642935 -0.0016785149252709064 -0.0010213582808545106 -0.00038530704835750744 0 0 0 0
5999658 0.006071202114417692 -0.0017671639078120013 -0.0010486939912756085 -0.000366961601373405 0 0 0 0
6032604 0.00629862161447815 -0.0017726008404953815 -0.0010044620431651143 -0.0003836900853635211 0 0 0 0
6065550 0.006143298137691035 -0.0017398277211584238 -0.001006982705142545 -0.0003861892968248308 0 0 0 0
6098496 0.006052957900450161 -0.001691885415190567 -0.0010319531738304725 -0.0003768658511541172 0 0 0 0
6131442 0.006165641356156215 -0.001716436809012412 -0.0010134595526968115 -0.0003765977639059639 0 0 0 0
6164388 0.006167915030947757 -0.0017030745719279444 -0.0010195782254029007 -0.0003651045677767864 0 0 0 0
6197334 0.00618398152253872 -0.0017421726595943563 -0.0010065200344370633 -0.00035021961516078237 0 0 0 0
6230280 0.006222878108174765 -0.0016378981727645432 -0.0010019430485797669 -0.00035310499585361634 0 0 0 0
6263226 0.00631729632630379 -0.0016945148954724623 -0.0010092854930596697 -0.0003442739278607641 0 0 0 0
6296172 0.00617330164354872 -0.0016346755931778221 -0.0010053501193361758 -0.00036963663336882295 0 0 0 0
6329118 0.0062548405809768 -0.0017801232761991495 -0.0009889343213516928 -0.00036733719927451364 0 0 0 0
6362064 0.006293730216182256 -0.001679454972242576 -0.000995640726876001 -0.0003382785170328645 0 0 0 0
6395010 0.006312397378086985 -0.0017329462313613988 -0.0010317956158255907 -0.0003731468625241218 0 0 0 0
6427956 0.006224517119956114 -0.0016528667305892742 -0.0010070194171266811 -0.00035784213646263756 0 0 0 0
6460902 0.006314034544530466 -0.0017209930456336875 -0.0009818277375589694 -0.0003572935827747116 0 0 0 0
6493848 0.006277482596123982 -0.0016489966652438691 -0.0009945254083096229 -0.0003560348492475035 0 0 0 0
6526794 0.006402672042413125 -0.0018239519095522752 -0.0010074655480547452 -0.0003564082141072535 0 0 0 0
6559740 0.006325831010318418 -0.0017962128901699553 -0.0009904949724206832 -0.00032521748454684084 0 0 0 0
6592686 0.006438844747141408 -0.001699792252672045 -0.0009737595517143937 -0.0003395008320190387 0 0 0 0
6625632 0.006393247783135467 -0.0017127712234129924 -0.000997350137012585 -0.0003379199720677188 0 0 0 0
6658578 0.006313846828133242 -0.0016805853605577593 -0.0009943737856476537 -0.0003261599446858238 0 0 0 0
6691524 0.006358349914981292 -0.0016911216709648098 -0.0009710464826880862 -0.000330384348610026 0 0 0 0
6724470 0.006356535041044822 -0.0017871785941129792 -0.0010121492546087052 -0.00033318193096157583 0 0 0 0
6757416 0.0064232757538506035 -0.0016547929684214036 -0.001001750757090246 -0.0003448004723072615 0 0 0 0
6790362 0.006427663961815513 -0.0017332133039787377 -0.0009550469679825364 -0.0003360441033616732 0 0 0 0
6823308 0.006531410355490304 -0.0017161784674182459 -0.0009865081851225172 -0.0003308380357860824 0 0 0 0
6856254 0.006462509816849829 -0.0017383767262496906 -0.000996617585325559 -0.00033596486736992427 0 0 0 0
6889200 0.0065361284821325305 -0.0016823585585685743 -0.000980630753855978 -0.00031915841086891815 0 0 0 0
6922146 0.006485569093779865 -0.0016658198306037843 -0.0009691999943477761 -0.0003134665079955901 0 0 0 0
6955092 0.0065683402974298765 -0.0016706672704050237 -0.0009479696740605849 -0.0003304468026134079 0 0 0 0
6988038 0.006567629505794874 -0.0016429746810069346 -0.0009422500863774583 -0.0003072653322347715 0 0 0 0
7020984 0.006569274007613596 -0.0017977456679199937 -0.0010025929850846183 -0.000333386686252382 0 0 0 0
7053930 0.006566550378755425 -0.001652641337631355 -0.0009435690031074457 -0.0003363612551299343 0 0 0 0
7086876 0.006658025578904269 -0.0017623310195492305 -0.0009733733201568373 -0.0003347313220941272 0 0 0 0
7119822 0.006622691444829951 -0.0016657448441447596 -0.000966907810351094 -0.0003503676957519078 0 0 0 0
7152768 0.00660659847593823 -0.0017232636508599673 -0.0009562889596537567 -0.00031924575070243 0 0 0 0
7185714 0.006589831463295108 -0.0016657036333664942 -0.0009392174790840801 -0.00033638939907933233 0 0 0 0
7218660 0.006616528844431692 -0.0017984965959457928 -0.0009435716715975028 -0.0003150661284292803 0 0 0 0
7251606 0.006740786838880261 -0.0017651145988997888 -0.0009811094729365775 -0.0003578569296118725 0 0 0 0
7284552 0.006613191015924348 -0.0017527606006822105 -0.0009449770357026694 -0.00032316132439207465 0 0 0 0
7317498 0.006679026745714813 -0.001780143980106287 -0.0009476305652921687 -0.00030813431972774493 0 0 0 0
7350444 0.006680588526416746 -0.0017782724032672495 -0.0009768201439320462 -0.0003317516127671389 0 0 0 0
7383390 0.006650195254734692 -0.0017881789969853503 -0.0009721380481805997 -0.00036769066999507044 0 0 0 0
7416336 0.006743434122740309 -0.0017926353556859003 -0.0009462149290029149 -0.0003344895515902925 0 0 0 0
7449282 0.006712107143838716 -0.0017561533726373694 -0.0009719585060960764 -0.00033705371290738924 0 0 0 0
7482228 0.0067046823433001 -0.0018133912880226655 -0.0009574457187987286 -0.0003066941368023553 0 0 0 0
7515174 0.006743545125858284 -0.0018399115802064426 -0.0009572113684343961 -0.0003249211658815885 0 0 0 0
7548120 0.00678560095355724 -0.001751469978544097 -0.0009621213560699708 -0.0003390603667489667 0 0 0 0
7581066 0.006757122437820959 -0.0018094675458708474 -0.0009616638374409723 -0.0002907189963855806 0 0 0 0
7614012 0.006818928671542297 -0.001788752380320938 -0.0009648627989669022 -0.00030484196221972613 0 0 0 0
7646958 0.0067520450577938824 -0.001833167483987406 -0.0009573524531600875 -0.00029292386364691164 0 0 0 0
7679904 0.006700327691392673 -0.0018194403501643722 -0.0009447522568434467 -0.0003257883361334175 0 0 0 0
7712850 0.006797979690836889 -0.0018183730027056869 -0.0009548811084250696 -0.00032086091527481223 0 0 0 0
7745796 0.006878881665739259 -0.0018614939903534003 -0.0009554216633994443 -0.0003238993033050404 0 0 0 0
7778742 0.006774485118019196 -0.0018224777011054856 -0.0009464994984846933 -0.00032918803754499864 0 0 0 0
7811688 0.006937603019219005 -0.0018653992663291035 -0.0009525518872125317 -0.0003366197565614962 0 0 0 0
7844634 0.006883341830345441 -0.0019643324124297757 -0.0009680305051075243 -0.00032135420609303553 0 0 0 0
7877580 0.006967110854890355 -0.0019086635469270732 -0.0009285816357734605 -0.0003095843003610529 0 0 0 0
7910526 0.006865638484782555 -0.0018534475338474784 -0.0009502948877050347 -0.00031112610001866767 0 0 0 0
7943472 0.00687691067749177 -0.0019171031923814464 -0.0009490863823460546 -0.0003367086766016981 0 0 0 0
7976418 0.006891761637121938 -0.0019327589427327874 -0.0009378239361783104 -0.0003468516195845105 0 0 0 0
8009364 0.007058426786470742 -0.0019519131127009406 -0.0009164561801113898 -0.0003428528800042953 0 0 0 0
8042310 0.0069932578871972195 -0.0019575827697538555 -0.0009313767976339307 -0.00030118716061416743 0 0 0 0
8075256 0.007070853192470309 -0.0019180584271654686 -0.0009279955312307438 -0.0003195843644742934 0 0 0 0
8108202 0.007049354286747143 -0.0019148559224389 -0.0009556713114029823 -0.0003195020231273579 0 0 0 0
8141148 0.0070464680924649855 -0.0019953102713633378 -0.0009531757602404523 -0.00033141173863322055 0 0 0 0
8174094 0.007079369729602096 -0.0020070422842226473 -0.0009430811070046454 -0.00032300924950742386 0 0 0 0
8207040 0.007128961932746237 -0.001931121426635242 -0.0009589570147996408 -0.0003112875760089126 0 0 0 0
8239986 0.007190929678462835 -0.001991647311270856 -0.0009709390298570298 -0.00033381844180970654 0 0 0 0
8272932 0.007150751553480569 -0.00196764489787589 -0.0009401752482514186 -0.00029159233331848595 0 0 0 0
8305878 0.006970973574545362 -0.0019448834551128755 -0.0009440025594205456 -0.000293968880982323 0 0 0 0
8338824 0.006998445372720552 -0.0020228896560316265 -0.0009496839418646638 -0.0003425144895264219 0 0 0 0
8371770 0.007017060827670756 -0.002005429454196105 -0.0009346272360103789 -0.0003219464284334811 0 0 0 0
8404716 0.0071511325736277305 -0.002067835722093778 -0.000918539641645719 -0.00035162401945551346 0 0 0 0
8437662 0.007206479147048243 -0.0021213756028239895 -0.0009472339249226085 -0.00033064129220393656 0 0 0 0
8470608 0.007267391675507921 -0.002075439718927056 -0.0009405755761184277 -0.0002941560869697825 0 0 0 0
8503554 0.007089436977922576 -0.002032169005649827 -0.0009417940069730118 -0.00029920078376577007 0 0 0 0
8536500 0.007134907433307154 -0.002033135108376994 -0.0009174905195755033 -0.00030388696337447303 0 0 0 0
8569446 0.0071540074829706275 -0.002044379090546016 -0.0009249162919709985 -0.0003427162491048731 0 0 0 0
8602392 0.00719228376301639 -0.0021298081542182917 -0.0009262817242967884 -0.00029703077671761806 0 0 0 0
8635338 0.007279952725667803 -0.0021017601737504245 -0.0009091243294837337 -0.0003653519530811672 0 0 0 0
8668284 0.007203097404063364 -0.0021824389358237398 -0.0009310210962756412 -0.00031467810919654984 0 0 0 0
8701230 0.007215814417884873 -0.0021398996167191343 -0.0009322140399964597 -0.0003172160034124992 0 0 0 0
8734176 0.007265359057550009 -0.002180945086196909 -0.0009225013407634298 -0.00029988787138164955 0 0 0 0
8767122 0.007219584934697514 -0.0021280002405403404 -0.0009312053796831072 -0.0003197259211706518 0 0 0 0
8800068 0.007345574270123104 -0.0021442476535295284 -0.0009604758930912421 -0.00032776712090112003 0 0 0 0
8833014 0.007295231033197622 -0.0022263493888728574 -0.0009413748265686195 -0.00032319283107794234 0 0 0 0
8865960 0.00735064262481072 -0.0022401777715048664 -0.0009189142096957095 -0.00032953115897832073 0 0 0 0
8898906 0.007305515454237413 -0.002221184177049691 -0.0009495512994629683 -0.00030391276818580667 0 0 0 0
8931852 0.007334649510191871 -0.0022011757125950035 -0.0009489841888874853 -0.00032570879472847624 0 0 0 0
8964798 0.007391367225321913 -0.002223724976974735 -0.0009326047799040505 -0.0002911723576522086 0 0 0 0
8997744 0.007355552262288464 -0.00234261964019405 -0.000934976939036645 -0.0003159553209476036 0 0 0 0
9030690 0.00739371547854484 -0.002289055642800311 -0.0009269047629853383 -0.00032584301621438355 0 0 0 0
9063636 0.007355402285003699 -0.002230022011748778 -0.0009288900470993055 -0.00031986890277477394 0 0 0 0
9096582 0.007315343032074148 -0.0022781477389241375 -0.0009506346095498445 -0.00030095884721257244 0 0 0 0
9129528 0.007431398675011671 -0.0022524705274973482 -0.0009257629037261996 -0.0003148824990063535 0 0 0 0
9162474 0.007450644829600767 -0.0023615618286585076 -0.0009430302238364316 -0.000323413736100925 0 0 0 0
9195420 0.007440578086239766 -0.002391424111805846 -0.0009524525459627466 -0.00031251865855751556 0 0 0 0
9228366 0.0074171022721733135 -0.002263244131522499 -0.0009676401126952643 -0.0003167269119419785 0 0 0 0
9261312 0.007438057946804398 -0.0023399485040513715 -0.0009286089537674482 -0.00031509018978592246 0 0 0 0
9294258 0.007461880873679353 -0.002426099982737281 -0.0009149560196764631 -0.0003425493065139238 0 0 0 0
9327204 0.00749070608091625 -0.0023663381831890954 -0.0009260314038813905 -0.00029849911151057896 0 0 0 0
9360150 0.007487237489863282 -0.0023659407977657436 -0.0009381252352858072 -0.000318587302052696 0 0 0 0
9393096 0.0075044345316948305 -0.002328883404377036 -0.0009285572418554133 -0.00030167518636173664 0 0 0 0
9426042 0.007493439757788435 -0.0024496554586791435 -0.0009327482171734158 -0.0003209620003772714 0 0 0 0
9458988 0.007531483265209224 -0.0024313135103216613 -0.0009380777036259545 -0.00029997982222413613 0 0 0 0
9491934 0.007599751329384114 -0.0024074198190888675 -0.0009126720297034377 -0.0002971005124527643 0 0 0 0
9524880 0.007568288556484674 -0.0023754030132435173 -0.0009127348350897122 -0.0003401319956694158 0 0 0 0
9557826 0.00764153192653065 -0.002463938881621977 -0.0008863331148021354 -0.00030368670873661167 0 0 0 0
9590772 0.007586946503512993 -0.0025318677127311147 -0.0009165231424899824 -0.00034422569128426093 0 0 0 0
9623718 0.007570758624751022 -0.0025259814595227025 -0.0009364811218865596 -0.0003161441989683444 0 0 0 0
9656664 0.007675106804409857 -0.0024794013787992433 -0.0009207671149554942 -0.0003212045311215351 0 0 0 0
9689610 0.007623312263525581 -0.002571349535023361 -0.0009355544613402303 -0.00032943536824110134 0 0 0 0
9722556 0.007509633605316397 -0.0025352390971604467 -0.0009140803831311394 -0.00031081650008476006 0 0 0 0
9755502 0.007630090812782946 -0.0025245101544104226 -0.0009355828915443123 -0.0003246778697389962 0 0 0 0
9788448 0.0076755591911752035 -0.002506453071054551 -0.0009436248924892477 -0.0003136506878389741 0 0 0 0
9821394 0.007595243295512419 -0.0026000563845355916 -0.0009140797578248404 -0.00032574238774269175 0 0 0 0
9854340 0.0076860815164395465 -0.002594479469587249 -0.0009199070080950393 -0.000341373786760595 0 0 0 0
9887286 0.007697791642296169 -0.002661995716408427 -0.0009305408811620208 -0.0003396572357408465 0 0 0 0
9920232 0.007618671176570991 -0.00258215376582407 -0.0009198593772931522 -0.00033265474533695724 0 0 0 0
9953178 0.007646707979452887 -0.0026577427599952593 -0.0009263029317225605 -0.00031377842661142144 0 0 0 0
9986124 0.007628202244818801 -0.0026456984146682413 -0.0009441965231458095 -0.0003045664348244666 0 0 0 0
10019070 0.007759881396811944 -0.0026021957708873243 -0.000952655109533397 -0.00030033160171296996 0 0 0 0
10052016 0.007688871135713185 -0.0026888842171087176 -0.0009103501145373804 -0.0003224058903204516 0 0 0 0
10084962 0.007674367224612472 -0.0027360332715608135 -0.0009138415990006288 -0.0003180611140321913 0 0 0 0
10117908 0.007666401398629604 -0.0026783532774103565 -0.0009301638460207694 -0.0003157337120676157 0 0 0 0
10150854 0.007776881690817628 -0.002734136755882673 -0.0009291105912739513 -0.00033630759068528876 0 0 0 0
10183800 0.007738865703746158 -0.0027248972673812565 -0.0009234948453073996 -0.00031445767287811545 0 0 0 0
10216746 0.007832544680883482 -0.002682704245655257 -0.0008971238752380503 -0.0003208770820905071 0 0 0 0
10249692 0.007880117410987863 -0.002764908293591023 -0.0009146424267646084 -0.0003098939751884375 0 0 0 0
10282638 0.007698392381677577 -0.0028492930975214073 -0.0009291056392135017 -0.0003691645177503555 0 0 0 0
10315584 0.00770416247375397 -0.0027550657753875668 -0.0009153481345234252 -0.0003306503849561958 0 0 0 0
10348530 0.007822919633570614 -0.0028955078122903854 -0.0009227766663966635 -0.0002908804185657375 0 0 0 0
10381476 0.007809054120602275 -0.002855232361285459 -0.0009284755420639816 -0.0003249844223441634 0 0 0 0
10414422 0.007827191413318632 -0.002932179933987339 -0.0009429878177912412 -0.0003359429342489193 0 0 0 0
10447368 0.007742384319498937 -0.0028904881274296056 -0.0009081517248638127 -0.00031170292259820456 0 0 0 0
10480314 0.007729104432594903 -0.0028430243874179965 -0.0009289823430685028 -0.0003149285871478145 0 0 0 0
10513260 0.007772039012016824 -0.0028708731022922124 -0.0009288332710375512 -0.0003238042563712245 0 0 0 0
10546206 0.007878012648051547 -0.00293756136594015 -0.0009292533801920206 -0.0003208904292299243 0 0 0 0
10579152 0.007883177785476614 -0.002875197983783887 -0.0009254373625058409 -0.0003469169251943854 0 0 0 0
10612098 0.007877000257089367 -0.0029501001260797952 -0.0009094377212912245 -0.0003047092863594545 0 0 0 0
10645044 0.00788345181965966 -0.0029679523099539707 -0.0009146129730712905 -0.0002956507631513364 0 0 0 0
10677990 0.007790245782836568 -0.0028859434032610398 -0.0009195636143575722 -0.00031559511292575946 0 0 0 0
10710936 0.007872786510861 -0.0030233224259928475 -0.0009160890023301196 -0.00032422203431618963 0 0 0 0
10743882 0.007965230649952103 -0.0030316861824638925 -0.0009218407871826861 -0.00030785819035179015 0 0 0 0
10776828 0.007876021967242058 -0.0029194944613050596 -0.0009325930053052553 -0.000322321507360639 0 0 0 0
10809774 0.00780564197945595 -0.0030135812889211626 -0.0009242779470824937 -0.00029533207220487623 0 0 0 0
10842720 0.007832338894422206 -0.0030193910262833364 -0.0009147826645384216 -0.00032868248073624216 0 0 0 0
10875666 0.007954568488573045 -0.003084007258697457 -0.0009201230186529327 -0.0003126864952926136 0 0 0 0
10908612 0.0077568177147082865 -0.003086684410630088 -0.0009415113381339752 -0.0003297627196862069 0 0 0 0
10941558 0.007873858119442773 -0.0029869402473504066 -0.0008949918660033541 -0.0003291323264150132 0 0 0 0
10974504 0.00790719872580481 -0.0030583667804812637 -0.0009289777431128515 -0.0003148593465990185 0 0 0 0
11007450 0.00780658255010373 -0.0031234049733353418 -0.0009441210753782484 -0.00030603632204311964 0 0 0 0
11040396 0.007958893701557997 -0.0031079400971616624 -0.000897264633316106 -0.0003200487611009574 0 0 0 0
11073342 0.007982705247402685 -0.0031564343935190017 -0.000906307520947391 -0.0003465471325345843 0 0 0 0
11106288 0.008007081546123417 -0.0031148477998529673 -0.0009244790772005747 -0.00032379818102666277 0 0 0 0
11139234 0.008054861517000456 -0.003126362365471107 -0.0009138942393783728 -0.0003302876396602011 0 0 0 0
11172180 0.008112151139793782 -0.003253145686161764 -0.0009194157896194933 -0.0003348916549536741 0 0 0 0
11205126 0.007936242385030226 -0.0031683999470116992 -0.0009095662930867319 -0.0003381682763855308 0 0 0 0
11238072 0.007904736670219674 -0.003216611421401718 -0.0009287170750369548 -0.00031375479916049637 0 0 0 0
11271018 0.007878052820777156 -0.0032241540958014834 -0.0009039383523485045 -0.00034210748613412625 0 0 0 0
11303964 0.008069737894817179 -0.00331113107039611 -0.0008760501166259596 -0.0003387767284872239 0 0 0 0
11336910 0.008023973493770669 -0.003258763336456118 -0.0009114874518271996 -0.0003341275825622945 0 0 0 0
11369856 0.008058274279540804 -0.0032275306807544608 -0.0008837117938645328 -0.0003184484494519658 0 0 0 0
11402802 0.00804221210458103 -0.003347998217168172 -0.0009047595508775211 -0.0003205576783655131 0 0 0 0
11435748 0.008065367140141876 -0.0033171488421417845 -0.0009077282579474122 -0.00033799768676511844 0 0 0 0
11468694 0.00795631293344963 -0.003297448046960744 -0.00093539832469715 -0.00032695996789174097 0 0 0 0
11501640 0.008025956728254574 -0.0033718723203184026 -0.0009211585980131218 -0.0003531671782207721 0 0 0 0
11534586 0.008002289001003776 -0.0033883208945931693 -0.0009376524264532932 -0.0003346689177913107 0 0 0 0
11567532 0.008145555507107851 -0.0033615106663832605 -0.0009119642812944954 -0.0003255205060574762 0 0 0 0
11600478 0.008046895244660828 -0.003302274653716048 -0.0009228766943319945 -0.0003418759197610046 0 0 0 0
11633424 0.008131873659964286 -0.003444191969304 -0.0009191968980862616 -0.0003489284073338192 0 0 0 0
11666370 0.008070170911973354 -0.003371145664714401 -0.0009747785556161547 -0.00036273038439365636 0 0 0 0
11699316 0.008048276624629716 -0.0034533853042179874 -0.0009017865059790634 -0.0003061718339515735 0 0 0 0
11732262 0.008057659836397633 -0.003440642056654853 -0.0009172090384086524 -0.0003344915392581252 0 0 0 0
11765208 0.008181135348151021 -0.003451813683358984 -0.0009079932031450079 -0.000332329103532186 0 0 0 0
11798154 0.008104920699323634 -0.00345364089080375 -0.0009002562708150141 -0.0003417103415767544 0 0 0 0
11831100 0.008117708753698325 -0.0035588798121532665 -0.0009176663790083637 -0.0003577787138661455 0 0 0 0
11864046 0.008133032463574757 -0.003450049676020533 -0.0009067887907519064 -0.0003552917613156197 0 0 0 0
11896992 0.00805501477799976 -0.0036241898295610066 -0.0009072855288404192 -0.0003436350094754854 0 0 0 0
11929938 0.008108769744424921 -0.003539673858499821 -0.0009336493881216713 -0.00034811660246399204 0 0 0 0
11962884 0.008115506545204203 -0.003624256463254889 -0.0009193954160583815 -0.00033060363894639564 0 0 0 0
11995830 0.008147434669342172 -0.003559140937684218 -0.0009046457959490388 -0.0003656504475540016 0 0 0 0
12028776 0.008212043618736365 -0.00365867903027336 -0.0009104787041317551 -0.00032992390459762 0 0 0 0
12061722 0.008129428777123296 -0.0035598845837364686 -0.0009344814835652561 -0.0003363244320327049 0 0 0 0
12094668 0.008179729943640569 -0.003578610209630314 -0.0009229799617853356 -0.00034930105512501604 0 0 0 0
12127614 0.00811189690160684 -0.0035615852596075086 -0.000908534257562053 -0.00034617643242969526 0 0 0 0
12160560 0.008117845175082974 -0.003689199490041799 -0.0008888880476789187 -0.000340531994913153 0 0 0 0
12193506 0.008237520749705312 -0.0036277022693103353 -0.000925040691430328 -0.0003447773029852919 0 0 0 0
12226452 0.008142424176727038 -0.003673660494122914 -0.0009124531817469938 -0.0003427693108489913 0 0 0 0
12259398 0.008203697055513236 -0.0037668913832028363 -0.0009238630336343089 -0.0003394005121900327 0 0 0 0
12292344 0.008207204866421595 -0.0036347740083672027 -0.0009235542575173545 -0.00037133538954860505 0 0 0 0
12325290 0.008225325579059512 -0.003831796896894182 -0.000909092841274757 -0.00038127466483875124 0 0 0 0
12358236 0.008209041195887355 -0.0037690435387817394 -0.0009199768837437198 -0.0003590867453518963 0 0 0 0
12391182 0.008218028001954524 -0.0037572503886609977 -0.0009260927144312415 -0.0003579845753771063 0 0 0 0
12424128 0.00823579800983204 -0.0038255371291113175 -0.0008982079903968581 -0.0003470982737250941 0 0 0 0
12457074 0.008143463582622428 -0.0038692687406625187 -0.0009016457872594262 -0.0003932995375464333 0 0 0 0
12490020 0.008249667283006575 -0.0037866421990728704 -0.0009114838126228218 -0.0003537331227036342 0 0 0 0
12522966 0.008213780160249099 -0.0038773211398862445 -0.0009159679428634353 -0.00036963052741734983 0 0 0 0
12555912 0.008304309026031539 -0.0038037892996277143 -0.0009052864176375385 -0.00038882186608217914 0 0 0 0
12588858 0.008221029791622095 -0.0038921537578259753 -0.0009119312148454141 -0.00036336908255468205 0 0 0 0
12621804 0.008292503382055463 -0.003935771510046003 -0.0009343233331758759 -0.0003621637568786984 0 0 0 0
12654750 0.008272935129284316 -0.003925990248837756 -0.0009194963235730727 -0.0003622702990261017 0 0 0 0
12687696 0.00825115484186384 -0.003878319285182927 -0.0009138333948312905 -0.00037352918282800045 0 0 0 0
12720642 0.008226153367743369 -0.003922502563520316 -0.0009128375680059038 -0.000359114326210382 0 0 0 0
12753588 0.008213449098207039 -0.003913290429582301 -0.0009277452183468266 -0.00033133887591506545 0 0 0 0
12786534 0.008243380661702665 -0.0039721730898466 -0.0009308272837115786 -0.00037464195156687623 0 0 0 0
12819480 0.008385730693576602 -0.00397823524698096 -0.000929693164364414 -0.00036390295512920705 0 0 0 0
12852426 0.00835963187673 -0.004075449780719924 -0.000923581888886193 -0.0003644291969206027 0 0 0 0
12885372 0.008359727205821932 -0.0040901562025648375 -0.000907265414776525 -0.00038271088611676723 0 0 0 0
12918318 0.008242129201805653 -0.004018352890628357 -0.0009223515182051997 -0.0003364699684354934 0 0 0 0
12951264 0.008159121714952526 -0.003964129124737595 -0.0009035074419618992 -0.0003638375055360766 0 0 0 0
12984210 0.008264795163411649 -0.004070331629567981 -0.000938522242116968 -0.0003335836168444594 0 0 0 0
13017156 0.00823308246890611 -0.0040774668910801065 -0.0009251166284420244 -0.00037824034375255383 0 0 0 0
13050102 0.008401849729665388 -0.004142543774663643 -0.000883574917360747 -0.00036814266278254647 0 0 0 0
13083048 0.008374529017711635 -0.004060784983034733 -0.0009164783016577916 -0.0003632921848576406 0 0 0 0
13115994 0.008287501861057178 -0.004083672527635901 -0.000888136695711228 -0.00036684925680285604 0 0 0 0
13148940 0.008376255881713509 -0.00416520537801497 -0.0009034420302549317 -0.0003674992591943853 0 0 0 0
13181886 0.008381369885159628 -0.004128186097242236 -0.0009103501468034737 -0.00036111619951816553 0 0 0 0
13214832 0.00839507625081603 -0.004256918297203426 -0.0009308212572785372 -0.0003610243269404018 0 0 0 0
13247778 0.008242359111695012 -0.004180756219074474 -0.0009171879495068141 -0.00037511901326354866 0 0 0 0
13280724 0.008348398494183071 -0.00420801665899393 -0.0009032907464738238 -0.0003564750371303804 0 0 0 0
13313670 0.008369962834104403 -0.004145602089545552 -0.0009277835663412071 -0.0003449398114170014 0 0 0 0
13346616 0.008375598802648172 -0.0042102973898732 -0.0009067912901356098 -0.0003676704709294219 0 0 0 0
13379562 0.008225959180266296 -0.004253726480421845 -0.0009113284857192752 -0.00038392454484991573 0 0 0 0
13412508 0.008346035544310298 -0.004253192382816129 -0.0009145900306509666 -0.00035037457061416424 0 0 0 0
13445454 0.008306914556815986 -0.004276354308732154 -0.0009219788896810902 -0.00038938251878599514 0 0 0 0
13478400 0.008315828766406397 -0.004345054548360374 -0.000927821347425621 -0.00037387267977356066 0 0 0 0
13511346 0.008420348169626477 -0.004330777180883379 -0.0008955818045487844 -0.0003740332605796902 0 0 0 0
13544292 0.008311256668873978 -0.004283268176136137 -0.0009499133663629912 -0.0003607185192717664 0 0 0 0
13577238 0.008332991951239276 -0.00437504457805259 -0.0009370168903473368 -0.0004051856880258334 0 0 0 0
13610184 0.008323442269015609 -0.004263163294925318 -0.0009409562385660269 -0.00038660658686749796 0 0 0 0
13643130 0.00834081274320619 -0.004322677105781994 -0.0009367007486613662 -0.0003868110029559795 0 0 0 0
13676076 0.008499791752897282 -0.004426250204366379 -0.0008981741190304245 -0.00038433842354145106 0 0 0 0
13709022 0.008454229311533147 -0.004401424067151586 -0.0009301623123168418 -0.000372357250428498 0 0 0 0
13741968 0.008375657873457077 -0.004418720060653529 -0.0009336771401229825 -0.0003944186535422851 0 0 0 0
13774914 0.008463387295578625 -0.004468523748940144 -0.0008976358551706447 -0.0003851779513693104 0 0 0 0
13807860 0.008418405544959569 -0.004388753136937856 -0.000911843190442792 -0.00038041571806642977 0 0 0 0
13840806 0.008322342164142533 -0.004565982852968186 -0.0009290645084523441 -0.00041634358616666556 0 0 0 0
13873752 0.008473177141917306 -0.00449285300584131 -0.0009340483803044505 -0.0003711147931878702 0 0 0 0
13906698 0.008502718499313831 -0.004496246145238087 -0.0009132713204352035 -0.00037363151303349777 0 0 0 0
13939644 0.008329205584072748 -0.00444096704268895 -0.0009040789479182518 -0.00037476801362601485 0 0 0 0
13972590 0.008389585277115839 -0.004581745028189635 -0.0009084439538963861 -0.00038973942085021465 0 0 0 0
14005536 0.008344175663525492 -0.004582785999178985 -0.0009217615113154724 -0.00037486745916491624 0 0 0 0
14038482 0.008482463484965081 -0.004573364471897059 -0.0009062151719673465 -0.00036620436922046347 0 0 0 0
14071428 0.00848582042075299 -0.004568658467364034 -0.0009232526894306695 -0.0003715315001268559 0 0 0 0
14104374 0.008373712983650944 -0.0046119126739397895 -0.000885918410599055 -0.00036991933808880225 0 0 0 0
14137320 0.008406591682258692 -0.0045980898846595016 -0.0009100078671249012 -0.0003866667633581013 0 0 0 0
14170266 0.00844104028253697 -0.004614595612338024 -0.0008954524738387874 -0.0003730598512742257 0 0 0 0
14203212 0.008425787175207002 -0.004612067451735314 -0.0009189405438743195 -0.00038902811768511483 0 0 0 0
14236158 0.008470547620086902 -0.004760700955850246 -0.0009344045211253111 -0.0003893764683338178 0 0 0 0
14269104 0.008389088084130069 -0.00473169677887412 -0.000900977969838313 -0.0003806986922305359 0 0 0 0
14302050 0.008546825744032049 -0.004676943026640371 -0.000904877930093265 -0.0003869059024337334 0 0 0 0
14334996 0.008530027725220213 -0.0047239561639063335 -0.0009351841105443228 -0.00041353422084300785 0 0 0 0
14367942 0.008457175347249789 -0.004754396318874391 -0.0009248263398118494 -0.0003899401269242614 0 0 0 0
14400888 0.008461823044140677 -0.004829147416630345 -0.0009157363200766482 -0.0003857472151283141 0 0 0 0
14433834 0.008506356041032144 -0.004857087139352518 -0.000904838718217249 -0.0003806728992512319 0 0 0 0
14466780 0.008467586992584314 -0.004833308474120874 -0.0009175120094869262 -0.00037636020380501346 0 0 0 0
14499726 0.008520008020267266 -0.0048768089046046315 -0.0009165221431534911 -0.0003944519809142256 0 0 0 0
14532672 0.008568326476367107 -0.004845679614704338 -0.0009193907497732067 -0.0003891839453117554 0 0 0 0
14565618 0.008520250155780132 -0.004831882274157013 -0.0009053383437424407 -0.0003902601461038631 0 0 0 0
14598564 0.008477979419813287 -0.004824729530695237 -0.000929833499888463 -0.00035888092176397386 0 0 0 0
14631510 0.008471676635963734 -0.004898212759183606 -0.0009128256165029704 -0.00039106982613301927 0 0 0 0
14664456 0.008469362908508832 -0.004917348966275154 -0.0009239088573061203 -0.00042570509103274473 0 0 0 0
14697402 0.008577238105967904 -0.0048766319992366415 -0.0009157647821790808 -0.0003912986163677036 0 0 0 0
14730348 0.008494274627707727 -0.004832238063637924 -0.0009133397792825998 -0.00039654883981563683 0 0 0 0
14763294 0.008609589248523184 -0.004951034246729524 -0.0009346272370778577 -0.00037916873078837294 0 0 0 0
14796240 0.008512666547279842 -0.0049418083778335455 -0.0009240561061055261 -0.0004040984331823255 0 0 0 0
14829186 0.008526796419963184 -0.004961754387754476 -0.0008961041249576641 -0.00039119020851718895 0 0 0 0
14862132 0.008501124471837143 -0.005004133285150149 -0.0009110062404694775 -0.0004081669273097822 0 0 0 0
14895078 0.008605116371221183 -0.0050398101307882965 -0.0009253636230218903 -0.00039921815647611143 0 0 0 0
14928024 0.008576550332396692 -0.005060297856577289 -0.0009157240830267769 -0.00036866136091976483 0 0 0 0
14960970 0.008605213316605393 -0.005018067976211305 -0.0009163804320702502 -0.00038261039023376617 0 0 0 0
14993916 0.008607342641403695 -0.005078570498302978 -0.0009359909079854182 -0.0003855202001596995 0 0 0 0
15026862 0.008501257828094941 -0.005037394609171074 -0.0009448801083924151 -0.00038441198122604034 0 0 0 0
15059808 0.008472694037765445 -0.005047506182201696 -0.0009000784024688791 -0.0004190735603703518 0 0 0 0
15092754 0.00860576188330795 -0.005106223813339094 -0.000924892279780352 -0.00040465932026707564 0 0 0 0
15125700 0.008602956932235048 -0.005157742212088999 -0.0009379075520450682 -0.00039806574133923074 0 0 0 0
15158646 0.008588343946225908 -0.005031708259034736 -0.0009291439476960047 -0.0003934881083356576 0 0 0 0
15191592 0.008561444337271013 -0.005164138648818258 -0.0009069269984052956 -0.00043543269755030536 0 0 0 0
15224538 0.00849151381688214 -0.005164524719797721 -0.0009210495473666713 -0.00037581941777799064 0 0 0 0
15257484 0.008482870496120105 -0.005100688852238049 -0.0009282866218136795 -0.0004190133860150461 0 0 0 0
15290430 0.00860418017956431 -0.005278671392308301 -0.0009097014437190883 -0.0004206150147940144 0 0 0 0
15323376 0.008658957004314124 -0.00531603338534994 -0.0009290558837915311 -0.0004009236908789704 0 0 0 0
15356322 0.008648896657196436 -0.005200974771846003 -0.0009042060858960911 -0.00038962827997219033 0 0 0 0
15389268 0.008581633352711423 -0.005306312420628627 -0.0009387862113434039 -0.00041506628721744835 0 0 0 0
15422214 0.008577400527451245 -0.005248541495240866 -0.0009139759266208602 -0.00041744213105093754 0 0 0 0
15455160 0.008495796571338539 -0.0051845832881496174 -0.0009580012048875017 -0.0004191936223456235 0 0 0 0
15488106 0.008634231108448045 -0.005297736167493785 -0.0009118062206689251 -0.0004114304065244049 0 0 0 0
15521052 0.008627357877002651 -0.00527010934656013 -0.0009083198044890525 -0.0004110110541487582 0 0 0 0
15553998 0.008614147967949234 -0.005335912585232854 -0.0009143950192535231 -0.0004193780870553774 0 0 0 0
15586944 0.008612185254771887 -0.005319185798889334 -0.0009331180122365296 -0.00040532991908695466 0 0 0 0
15619890 0.008664732912702299 -0.005349276791455802 -0.0009234277896724254 -0.00041135665479103214 0 0 0 0
15652836 0.008646804776166635 -0.005341983244512133 -0.0009681923708852608 -0.0004068767868711243 0 0 0 0
15685782 0.008572625257701751 -0.0053413658328317 -0.0009606389657872113 -0.00045341862179550005 0 0 0 0
15718728 0.008656530141809027 -0.005436085120020491 -0.0009517487790649082 -0.00036862049831482333 0 0 0 0
15751674 0.008569416842799054 -0.005405748735531958 -0.0008872521278632979 -0.0003801812494196322 0 0 0 0
15784620 0.008550085631700725 -0.0054839871466051465 -0.0007731234307034488 -0.00038887461156321835 0 0 0 0
15817566 0.008687373006501945 -0.005489048297689689 -0.0011725827494273302 -0.0004610804400714901 0 0 0 0
15850512 0.008665130096897924 -0.005453713137407606 -0.0008992484247836827 -0.00041036653239063056 0 0 0 0
15883458 0.008611801795783193 -0.005438268227728525 -0.0009650491413681087 -0.0004050668849926187 0 0 0 0
15916404 0.008565595940518532 -0.005547207339480035 -0.0008972304548398403 -0.0005198988367248231 0 0 0 0
15949350 0.008515634752169998 -0.0055185550501093104 -0.0009279448085179345 -0.00038839803178524645 0 0 0 0
15982296 0.008682343070622132 -0.0056387134749869144 -0.0009337819088891175 -0.0004372045096301444 0 0 0 0
16015242 0.008703606190179413 -0.005510698969251666 -0.0009248031968724928 -0.00041107696027418934 0 0 0 0
16048188 0.00864410467684254 -0.005446336871885963 -0.0009252521955641683 -0.00043632318539692954 0 0 0 0
16081134 0.00862700881361718 -0.0055372509890091745 -0.0009467263783669573 -0.0003974499680894305 0 0 0 0
16114080 0.008647874535711727 -0.005566980558396606 -0.0009225342136994529 -0.00044402437056258035 0 0 0 0
16147026 0.008569678155044648 -0.005680499454036473 -0.0008997625967695524 -0.0004191955877857102 0 0 0 0
16179972 0.008596936086083681 -0.005667876445027759 -0.0009228029989554546 -0.000427426777457665 0 0 0 0
16212918 0.00869553742984885 -0.005687311607091794 -0.0009209548473975362 -0.0004207269789239886 0 0 0 0
16245864 0.008781252275763428 -0.005683606873533339 -0.0009343249177238075 -0.00044921263854494126 0 0 0 0
16278810 0.00868273572365726 -0.005649311571072933 -0.0009182082451766145 -0.0004416969285600421 0 0 0 0
16311756 0.008619460297075159 -0.005742820795414625 -0.0009460244287778486 -0.00042650127106624153 0 0 0 0
16344702 0.008656414954513598 -0.0057407101604124355 -0.000923333580333409 -0.00041101995445703613 0 0 0 0
16377648 0.008709327186398412 -0.005782583233235097 -0.000928858339136316 -0.0004214584292009719 0 0 0 0
16410594 0.008710280422382203 -0.005694596532955523 -0.0009235813591843484 -0.0004427138947709324 0 0 0 0
16443540 0.008716584827688825 -0.0057195288516309626 -0.0009183782540345783 -0.0004421402271129326 0 0 0 0
16476486 0.00862069813492282 -0.00579243199177314 -0.0009201065876068538 -0.0004053869704249641 0 0 0 0
16509432 0.008681939947810862 -0.005814934965449487 -0.0009326863275874914 -0.0004037000167049405 0 0 0 0
16542378 0.00877554230925941 -0.005823183528057744 -0.0009498762315980643 -0.0004222218362627826 0 0 0 0
16575324 0.008643601638738962 -0.0057914172136567885 -0.0009427683826192443 -0.00043054916474406096 0 0 0 0
16608270 0.008732767404365422 -0.005772527038396868 -0.0009462374210309746 -0.00042792369264447967 0 0 0 0
16641216 0.008709998416284045 -0.005877441073105677 -0.0009469840112072774 -0.00044322775477295673 0 0 0 0
16674162 0.008741592912956684 -0.005773727791494724 -0.000913728021719675 -0.0004153641318789879 0 0 0 0
16707108 0.009083358549472325 -0.005810700287114858 -0.0009359437278652445 -0.0004434273380678677 0 0 0 0
16740054 0.008785603381204253 -0.00588535439918965 -0.0009110431089371333 -0.00043111748419573083 0 0 0 0
16773000 0.008643203518742645 -0.005913455319594737 -0.0009124893276384231 -0.00043244137707084963 0 0 0 0
16805946 0.008924436285884733 -0.005878683386104161 -0.0009209593147600044 -0.0004462778838720195 0 0 0 0
16838892 0.008592796812440951 -0.005979431764966613 -0.0009106378499078928 -0.00042647094069674806 0 0 0 0
16871838 0.008634742099918755 -0.005882920553687681 -0.0009433748130650081 -0.0004070590110084476 0 0 0 0
16904784 0.00876047976041794 -0.0059793996446087586 -0.0009294809240646133 -0.0004299776966225891 0 0 0 0
16937730 0.008826700736749645 -0.005891767372678749 -0.0009167282361733541 -0.00044720759422364287 0 0 0 0
16970676 0.008625885745484785 -0.005791563724375629 -0.000940365800178894 -0.00045081723419896486 0 0 0 0
17003622 0.008780917686091258 -0.005963224748874369 -0.0009141796056859918 -0.00041798713684629843 0 0 0 0
17036568 0.008667710535931307 -0.006036979660547536 -0.0009363614354552486 -0.0004476998410863144 0 0 0 0
17069514 0.0086469954588552 -0.006038633524010745 -0.0009403735852323811 -0.00041090323835819425 0 0 0 0
17102460 0.008782776482335218 -0.005948841022784023 -0.0009176581334642198 -0.00043690536636441235 0 0 0 0
17135406 0.008713323160564524 -0.0060547402158015635 -0.0009456959864573456 -0.0004466340771665798 0 0 0 0
17168352 0.008741348337482784 -0.006081021722599506 -0.0009456053827146426 -0.0004267130148262886 0 0 0 0
17201298 0.008753634439498193 -0.006144670896185803 -0.000927123640115252 -0.0004586680547669442 0 0 0 0
17234244 0.00878753669395778 -0.0061199295628886615 -0.0009387330894142829 -0.0004761157524980551 0 0 0 0
17267190 0.008743733389316706 -0.0061330739581517855 -0.0009565600905005469 -0.00044235407025215316 0 0 0 0
17300136 0.008789708098134785 -0.006206738857126492 -0.000918889212644903 -0.000440281237094549 0 0 0 0
17333082 0.008800652662544508 -0.006237823175456264 -0.0009409619371375029 -0.0004505707209910295 0 0 0 0
17366028 0.008589516048287506 -0.0061807656147526945 -0.0009371376084187647 -0.00042494886177145755 0 0 0 0
17398974 0.008699448429245006 -0.005908049304583086 -0.0009123742820057109 -0.00047560745741190573 0 0 0 0
17431920 0.008673041241995926 -0.0061556077222532975 -0.0009690458143629094 -0.0004136086315604073 0 0 0 0
17464866 0.00884825257687185 -0.006315235412680878 -0.0011009626819998778 -0.0003591137139453447 0 0 0 0
17497812 0.008863872947166933 -0.006192498106666076 -0.000894387564298954 -0.0003138572751032174 0 0 0 0
17530758 0.009100388827367028 -0.006277769367641989 -0.0008482250340847726 -0.00036533773294194615 0 0 0 0
17563704 0.008751467321431913 -0.006446335269797485 -0.0008339832993252656 -0.00026521245061726325 0 0 0 0
17596650 0.008818372724923923 -0.006244071162811501 -0.0009312882931355476 -0.0004652799542365516 0 0 0 0
17629596 0.008985201264717094 -0.0063043165860793456 -0.0007565299444283797 -0.0004851244630352701 0 0 0 0
17662542 0.008716989334696218 -0.006116729908995197 -0.0010212426062773485 -0.0004668165978338666 0 0 0 0
17695488 0.008670705049313833 -0.006227463998815659 -0.000907285190172871 -0.00041769816325473664 0 0 0 0
17728434 0.008759148540904075 -0.0063066501827532765 -0.000949941531493479 -0.0004542978469618421 0 0 0 0
17761380 0.00871708792941748 -0.00635419436105011 -0.0009381408078525421 -0.00047145331751888823 0 0 0 0
17794326 0.008746907125485533 -0.006312279231753262 -0.0009705675035854699 -0.0004790747591330463 0 0 0 0
17827272 0.00883026695622531 -0.006440098561577179 -0.0009596838525816778 -0.0004289018589524253 0 0 0 0
17860218 0.008733332535831148 -0.006404384007166891 -0.0009299712829076857 -0.00045757444455043545 0 0 0 0
17893164 0.008915655662077736 -0.006463663021718376 -0.0009276853693876651 -0.000438438595588536 0 0 0 0
17926110 0.008716099959402875 -0.006439848168981503 -0.0009346520856143418 -0.0004285981012033058 0 0 0 0
17959056 0.008824132383427804 -0.006439016454277535 -0.0009318647603558277 -0.00046433568552381585 0 0 0 0
17992002 0.00881666825656445 -0.0065149869693373755 -0.0009053665833914317 -0.0004639587887077377 0 0 0 0
18024948 0.008807812354355285 -0.006516933520938895 -0.0009365830022357459 -0.0004703330773885901 0 0 0 0
18057894 0.008846863706147992 -0.006589435016945295 -0.0009417944456144483 -0.00045748655228734927 0 0 0 0
18090840 0.008729069530925636 -0.006210700876404902 -0.0009524783678253047 -0.0004706859784844718 0 0 0 0
18123786 0.008745094432911443 -0.006609474258902305 -0.0009358950909458134 -0.00048099842378409983 0 0 0 0
18156732 0.00881063703392386 -0.006461993600550833 -0.0009619286260826045 -0.000458291182292453 0 0 0 0
18189678 0.009063950521026012 -0.006636902666667905 -0.0009576096161409409 -0.0004986914833001753 0 0 0 0
18222624 0.008975071010965585 -0.0067828683459806825 -0.0009638790483899134 -0.0004818539798077763 0 0 0 0
18255570 0.008674497011928356 -0.00639073676821051 -0.0009438847962764421 -0.0004704379719589816 0 0 0 0
18288516 0.008988970688233391 -0.006773263697235795 -0.0009628078766809773 -0.0004348711292805448 0 0 0 0
18321462 0.008699244171848352 -0.006616140216026275 -0.0009581902414197937 -0.00045356871672527175 0 0 0 0
18354408 0.008842956853678703 -0.0065679595505149495 -0.0009231518788760223 -0.0004632597132661141 0 0 0 0
18387354 0.008986425419701875 -0.006702220436762602 -0.0009313673853494329 -0.00047533853878455723 0 0 0 0
18420300 0.00911199218294072 -0.006816412915056011 -0.0009367469167017525 -0.000506200529237578 0 0 0 0
18453246 0.008812438124510547 -0.006631662211449117 -0.0009463138974180236 -0.00045716138122186477 0 0 0 0
18486192 0.008753305518095104 -0.006724041372704475 -0.0009543989646652845 -0.0004501270911492373 0 0 0 0
18519138 0.008841450084137453 -0.006731726567797342 -0.0009389109140342251 -0.0004770747186555538 0 0 0 0
18552084 0.008893905472861471 -0.006724162125827801 -0.0009574769735225189 -0.00047331079528430137 0 0 0 0
18585030 0.00883848352917416 -0.006709837958652571 -0.0009554324507429986 -0.00045802453886304643 0 0 0 0
18617976 0.008814932335085105 -0.006703259419933668 -0.0009227195721400939 -0.00047657139022493994 0 0 0 0
18650922 0.008893161686878377 -0.006776927312529227 -0.0009395064442758909 -0.0004857432013318611 0 0 0 0
18683868 0.008828061126716986 -0.006813559380322845 -0.000920992801710956 -0.00048541157899010135 0 0 0 0
18716814 0.00891788798632665 -0.006818402839914011 -0.0009410650888061131 -0.0004795310330055562 0 0 0 0
18749760 0.008805686233137527 -0.006838325007200492 -0.0009389588956026287 -0.00044542151342157846 0 0 0 0
18782706 0.008861829845614358 -0.006920784691644447 -0.0009233486812667393 -0.00046635530152877493 0 0 0 0
18815652 0.008882762807089961 -0.006802702608754688 -0.0009504652212281687 -0.0004861644611797247 0 0 0 0
18848598 0.008912980693777382 -0.006952044955714326 -0.0009823207035247405 -0.00048474913292979746 0 0 0 0
18881544 0.008997334372287086 -0.006885391570206083 -0.0009439364535523873 -0.0004914647111652684 0 0 0 0
18914490 0.008893813964975142 -0.00697920681823598 -0.0009553540934472455 -0.00047460168264429315 0 0 0 0
18947436 0.008844582554237547 -0.007020336103977328 -0.0009599668799855767 -0.00047818404380969474 0 0 0 0
18980382 0.008910771320369102 -0.006969858621050618 -0.0009619477547439884 -0.0004955830799194151 0 0 0 0
19013328 0.008835770574212625 -0.006930884693251544 -0.0009700091218872004 -0.0004620073106716746 0 0 0 0
19046274 0.008881179731486248 -0.006910307932754317 -0.00094586850664997 -0.00047952739442671047 0 0 0 0
19079220 0.0088699461674199 -0.006948583925876229 -0.0009834536302590724 -0.00046080447421987375 0 0 0 0
19112166 0.008775319640217523 -0.007121282930598834 -0.000951903635280521 -0.0004681262632049538 0 0 0 0
19145112 0.00886649743060397 -0.007123797997651145 -0.0009645603325986669 -0.00046357757114198116 0 0 0 0
19178058 0.008869203084062874 -0.007052871529173434 -0.0009348778542586099 -0.00048216765844674557 0 0 0 0
19211004 0.008863490422896202 -0.007017542275113129 -0.0009630079049714044 -0.00048746997575974837 0 0 0 0
19243950 0.008929886099865716 -0.007033873202511895 -0.0009613457125891442 -0.0004892172300074466 0 0 0 0
19276896 0.008884363584417904 -0.007054339540151658 -0.0009418597995337044 -0.0005056734965489631 0 0 0 0
19309842 0.008820757853796572 -0.007084213916575069 -0.0009733830988868037 -0.0005016550921569219 0 0 0 0
19342788 0.008989008245207165 -0.007111502762826302 -0.000958882565892075 -0.0005109752957896831 0 0 0 0
19375734 0.008811012417765683 -0.007114629619048676 -0.0009624665423083426 -0.0004886636124198349 0 0 0 0
19408680 0.00891707411066345 -0.007159548850147014 -0.0009713982123696394 -0.0004986802428156925 0 0 0 0
19441626 0.008830660324413684 -0.007146653305756348 -0.0009524624964751125 -0.00048012205166512924 0 0 0 0
19474572 0.00888884169504514 -0.007172826711295694 -0.000977323879134344 -0.0004944387806562369 0 0 0 0
19507518 0.008912617700759427 -0.0071693133104477865 -0.0009586896707669123 -0.0004865785082561911 0 0 0 0
19540464 0.008884523465340327 -0.00724502795315691 -0.0009491618561492087 -0.0005067288199004366 0 0 0 0
19573410 0.008931694373970027 -0.007227970495729793 -0.0009558423660772765 -0.0004888933145691998 0 0 0 0
19606356 0.008805292850069259 -0.007259337631496992 -0.0009666412188210578 -0.0004883422902019867 0 0 0 0
19639302 0.00888797576490494 -0.0073219670595243555 -0.0009482982592811584 -0.00048576504715530346 0 0 0 0
19672248 0.008801602770926996 -0.0072756759438482674 -0.000946412370905479 -0.0004885811131540594 0 0 0 0
19705194 0.008862150954351503 -0.007264955731749077 -0.000957307692826863 -0.0004961668604538148 0 0 0 0
19738140 0.008919649091799948 -0.0073777277938214215 -0.0009777312771657581 -0.0005292342865058678 0 0 0 0
19771086 0.008967243208101642 -0.007309120248627257 -0.0009453957213346107 -0.000513180982890763 0 0 0 0
19804032 0.008894040812784557 -0.007276904631541415 -0.0009430738894206592 -0.0005202508918296124 0 0 0 0
19836978 0.00883174683517874 -0.007436304846737986 -0.0009593911376195231 -0.0004983427347920748 0 0 0 0
19869924 0.008892452061801994 -0.007254789422023618 -0.0009563765315041332 -0.0005295236427068762 0 0 0 0
19902870 0.008942390014599455 -0.0073615959281599554 -0.0009812151000288616 -0.000482348019161271 0 0 0 0
19935816 0.008905744603098537 -0.007310738700635085 -0.0009686356620926124 -0.0004961355659082937 0 0 0 0
19968762 0.008954613558459232 -0.007399522008319147 -0.0009689906649526015 -0.00047650130615068455 0 0 0 0
20001708 0.008920541658308256 -0.007442758823792563 -0.0009636823280423714 -0.000503976891297645 0 0 0 0
20034654 0.008892973747974221 -0.007455276188196163 -0.0009790083344241127 -0.000530230198876344 0 0 0 0
20067600 0.008960480812774008 -0.007384847558804708 -0.0009565631742326783 -0.0005223011010340679 0 0 0 0
20100546 0.008950883186028451 -0.007375244128436447 -0.0009561635533736183 -0.0005216494519609828 0 0 0 0
20133492 0.009039718758167283 -0.007439647785837189 -0.0009515274377493348 -0.0005159783200284145 0 0 0 0
20166438 0.0090107621954671 -0.0075450587999576916 -0.0009455202441254871 -0.0005072060017556275 0 0 0 0
20199384 0.00897231607490057 -0.007496233476032095 -0.0009557900200477562 -0.0005210604711842374 0 0 0 0
20232330 0.008945815371487144 -0.007517391214780732 -0.0009677649901571126 -0.0005008012378512815 0 0 0 0
20265276 0.008806440665787828 -0.007584387095358892 -0.0009741664436260411 -0.000495090546517498 0 0 0 0
20298222 0.008986678116039676 -0.007605315725712121 -0.0009662610939331142 -0.0005339114592070388 0 0 0 0
20331168 0.008973416347125096 -0.007599986618466034 -0.0009599713471301099 -0.0005273837611851434 0 0 0 0
20364114 0.00905492660234463 -0.007567088721360912 -0.0009617789781314461 -0.0005166369356116403 0 0 0 0
20397060 0.00894298446135817 -0.007604843034654771 -0.000980149856134554 -0.0005059415619178273 0 0 0 0
20430006 0.008849913978466687 -0.007664795404845058 -0.000972277187766655 -0.0005097790078621276 0 0 0 0
20462952 0.008964389555076764 -0.007669208651018167 -0.0009692468987664935 -0.000524712872969372 0 0 0 0
20495898 0.00895013249641143 -0.007650052385534587 -0.000988117302195859 -0.0005129844354697826 0 0 0 0
20528844 0.009063313122332268 -0.007571863185905418 -0.0009788506968190923 -0.0005147418527604819 0 0 0 0
20561790 0.00896798690958791 -0.0076160863255914195 -0.0009684181287251634 -0.0005228407342452009 0 0 0 0
20594736 0.008892107759534537 -0.0077257306814256755 -0.0009486817770065136 -0.0005017440922268533 0 0 0 0
20627682 0.008900360353041542 -0.007668372650943096 -0.0010041389957860336 -0.0005257029272524854 0 0 0 0
20660628 0.00902800653103672 -0.00780295780717882 -0.0009647807156928441 -0.0005115216820026014 0 0 0 0
20693574 0.00901136288067129 -0.007748586822003149 -0.00095682571029806 -0.0005567152474299081 0 0 0 0
20726520 0.009015665851186733 -0.007761405103596991 -0.0009735678059376508 -0.0005125964323120945 0 0 0 0
20759466 0.009048176716318903 -0.007742743254324159 -0.0009807530348697883 -0.0005159898265702226 0 0 0 0
20792412 0.008938072225593969 -0.00778958634263119 -0.0009780152949674106 -0.0005315243616443468 0 0 0 0
20825358 0.008940674408702122 -0.007824159670714422 -0.0009755898299827448 -0.0004904035389421591 0 0 0 0
20858304 0.008921044591926932 -0.007811813119531793 -0.000956083613452426 -0.0005380107273326879 0 0 0 0
20891250 0.008903925428645347 -0.0077525281408153774 -0.0009781043167096644 -0.0005314851189246979 0 0 0 0
20924196 0.009055062351904307 -0.00784996851229382 -0.000964351618674456 -0.0005087568844414269 0 0 0 0
20957142 0.008968790981361736 -0.007780573712861796 -0.000978788797519782 -0.0005712607006820086 0 0 0 0
20990088 0.008921049797651206 -0.007828316753003906 -0.0009743383404106034 -0.0005315175284672516 0 0 0 0
21023034 0.008956310158396081 -0.007937288539583358 -0.000938721400381059 -0.0005528872248750531 0 0 0 0
21055980 0.008957601626000938 -0.007934653485202559 -0.0009887304654162294 -0.0005397715728883058 0 0 0 0
21088926 0.008982675860902675 -0.008031756014858893 -0.0009466039490680894 -0.0005070041081875814 0 0 0 0
21121872 0.008999410510909312 -0.00798297670370274 -0.0009771694901732173 -0.0005162075486040745 0 0 0 0
21154818 0.009052367716456554 -0.007902070723432549 -0.0009658758769522835 -0.0005445391267945936 0 0 0 0
21187764 0.009103416282597131 -0.007917126266600405 -0.0009452744740586853 -0.0005233771056996975 0 0 0 0
21220710 0.008890643137744179 -0.00792964768304463 -0.0009870076269716985 -0.0005217874871894946 0 0 0 0
21253656 0.008888243989476158 -0.008048047032074053 -0.000988205661431413 -0.0005137780758933219 0 0 0 0
21286602 0.008883407838857866 -0.008021013497532165 -0.0009813123044067325 -0.0005090633518755273 0 0 0 0
21319548 0.009003373333347765 -0.008028846733617069 -0.0009889126305773106 -0.0005317226933906525 0 0 0 0
21352494 0.009049303369825377 -0.008039224291590343 -0.0009776321357872497 -0.0005246514146836104 0 0 0 0
21385440 0.009101603708552718 -0.007997684623798032 -0.0009930272904946312 -0.0005237235408619781 0 0 0 0
21418386 0.00896626575716396 -0.008110171309078389 -0.0009821210072584042 -0.0005411064413881393 0 0 0 0
21451332 0.008948531786046212 -0.008127087839204203 -0.0009778659626338995 -0.0005332965090223908 0 0 0 0
21484278 0.008933435502577063 -0.008117093749868354 -0.0009904092418593056 -0.0005337432571520145 0 0 0 0
21517224 0.008973194088519957 -0.00810321220729235 -0.0009943976940572107 -0.0005572522841813579 0 0 0 0
21550170 0.009121447966976505 -0.008169029595353093 -0.0009722637851925236 -0.0005153097011626912 0 0 0 0
21583116 0.00911014749907426 -0.00816912446035504 -0.000965804123871177 -0.0005392376127970889 0 0 0 0
21616062 0.00905952460483034 -0.00818112816116632 -0.0009892723081333396 -0.0005650107025697641 0 0 0 0
21649008 0.00896082889717896 -0.008227677859276921 -0.0009887286009503027 -0.0005645276353171401 0 0 0 0
21681954 0.00894025418916712 -0.008148139385246696 -0.0009838323621198634 -0.0005278064512832472 0 0 0 0
21714900 0.008955628129130618 -0.00819517860638225 -0.000974254956106345 -0.0005453472666767389 0 0 0 0
21747846 0.009077775683231478 -0.00827517874064199 -0.0009799441329965968 -0.0005302692575312321 0 0 0 0
21780792 0.009061267370332313 -0.008201896821340725 -0.0009684381956303401 -0.0005521265276014411 0 0 0 0
21813738 0.00894048674639087 -0.008221370255415429 -0.0009728530402390554 -0.0005663297470487667 0 0 0 0
21846684 0.00890052179238667 -0.008269061380872742 -0.0009798940652687134 -0.0005372687660026016 0 0 0 0
21879630 0.008946669589784738 -0.008201257194814987 -0.0009683456747114547 -0.0005518689440695048 0 0 0 0
21912576 0.009027778535568437 -0.008299775509959488 -0.0009906977973438821 -0.0005401442178030426 0 0 0 0
21945522 0.009082264677706533 -0.008272185943650017 -0.0009662754133214654 -0.000556216315388922 0 0 0 0
21978468 0.00907027746756233 -0.008324288326176873 -0.0009835371528313678 -0.0005567548761950149 0 0 0 0
22011414 0.009026067577006915 -0.00831174399637587 -0.000977986532235176 -0.0005506018854893112 0 0 0 0
22044360 0.008971509834358573 -0.008435500131358195 -0.0009616404896449033 -0.000526065349263779 0 0 0 0
22077306 0.008979831047569335 -0.008413204504169049 -0.0010100471952428545 -0.000549744849397616 0 0 0 0
22110252 0.009072900321752987 -0.008468445139393998 -0.0009848326479460622 -0.0005116327875309479 0 0 0 0
22143198 0.00909160442608218 -0.008430584160325563 -0.000988659970022899 -0.0005652795865327236 0 0 0 0
22176144 0.00907633642148358 -0.0083869224591289 -0.000989590109749813 -0.000561190274090719 0 0 0 0
22209090 0.00891659137665004 -0.008471124226801735 -0.0010088814872077471 -0.0005483969727091705 0 0 0 0
22242036 0.00899763117480978 -0.008436052711484421 -0.000971040755127502 -0.0005391508123784665 0 0 0 0
22274982 0.009020320033494142 -0.008485747225068977 -0.0009872522514099422 -0.0005521978581054044 0 0 0 0
22307928 0.008971730147904389 -0.008583572172330916 -0.000977803947079339 -0.0005660451190423302 0 0 0 0
22340874 0.009033174892827314 -0.0084630404023287 -0.0009939563684070458 -0.0005326673054244772 0 0 0 0
22373820 0.009040404400409223 -0.00848929695208988 -0.0009592182888194765 -0.0005563750538997761 0 0 0 0
22406766 0.0089784787027317 -0.008441850324934424 -0.000996944915249057 -0.0005476358283800403 0 0 0 0
22439712 0.009075788637486785 -0.00856082631133856 -0.000989192844296306 -0.0005501063348565333 0 0 0 0
22472658 0.009052160978516004 -0.008524634995919034 -0.0009841730197791456 -0.0005692230349201329 0 0 0 0
22505604 0.009011857734654733 -0.008576018151168893 -0.000979719358949302 -0.0005716729490097975 0 0 0 0
22538550 0.0090783941805789 -0.008641740288584426 -0.00100379326152279 -0.0005232716457568616 0 0 0 0
22571496 0.009104854729137657 -0.008530048079088278 -0.0009785729449955064 -0.0005498394682055659 0 0 0 0
22604442 0.00908235486541899 -0.008516309049499512 -0.0010035508781607368 -0.00055845983039973 0 0 0 0
22637388 0.008998486135779022 -0.008527642186528721 -0.000950443419512081 -0.0005855096241369247 0 0 0 0
22670334 0.009009534686434397 -0.00867283947550368 -0.000991379440146591 -0.0005673992101919573 0 0 0 0
22703280 0.009082352362067453 -0.008698342904388662 -0.0010236532673608995 -0.0005660380021477813 0 0 0 0
22736226 0.009091598752702853 -0.008696883919007498 -0.0009822980653517882 -0.0005737036589300094 0 0 0 0
22769172 0.009149959715050369 -0.008654937807671272 -0.0009891610278132536 -0.0005492619070591709 0 0 0 0
22802118 0.009038357411743544 -0.008660339547869562 -0.0009968671160506136 -0.00059521396999651 0 0 0 0
22835064 0.008967231467034978 -0.008713532957486331 -0.000983716712416222 -0.0005898969411141138 0 0 0 0
22868010 0.009146810005520324 -0.00873101650905811 -0.0009825081218778145 -0.0005757804467579109 0 0 0 0
22900956 0.009111123102325001 -0.00872212446521788 -0.0010178346961838554 -0.0005667544950754517 0 0 0 0
22933902 0.009212333436685574 -0.008759764277189776 -0.000993964131704764 -0.0005377926506254373 0 0 0 0
22966848 0.009051027944592149 -0.00878816120652601 -0.0010015839079227978 -0.0005509167397676648 0 0 0 0
22999794 0.00904580639811914 -0.008827521934801455 -0.0009909442749892444 -0.0005667998128712566 0 0 0 0
23032740 0.008911245956006146 -0.008875537882762054 -0.000993143860198095 -0.0005504327134072554 0 0 0 0
23065686 0.009091750524683993 -0.00886771509031812 -0.000983589547636634 -0.0005757869005941393 0 0 0 0
23098632 0.00916368822464837 -0.008863646605525561 -0.0010044679163600924 -0.0005831131243155785 0 0 0 0
23131578 0.009091172970601382 -0.008874995703273278 -0.001011078390358887 -0.0005906503488898326 0 0 0 0
23164524 0.009060884210042409 -0.008847764464724215 -0.0009887117096914605 -0.0005645870597410074 0 0 0 0
23197470 0.009125125204057099 -0.008828004609729184 -0.0009965439966915489 -0.0005673977450274462 0 0 0 0
23230416 0.009132251471760519 -0.008877472959465244 -0.0010349821817292157 -0.0005622141430503307 0 0 0 0
23263362 0.009066103095811512 -0.008863665264961273 -0.0009939275897150792 -0.0006081121473011613 0 0 0 0
23296308 0.009004626476341265 -0.008876700031113889 -0.0010009543157218073 -0.0005760020045642536 0 0 0 0
23329254 0.009118200264405222 -0.008978642906303265 -0.0010430865700557562 -0.0005746873054378536 0 0 0 0
23362200 0.009138845725265092 -0.008985422492598958 -0.001026510611939277 -0.0005564337271250313 0 0 0 0
23395146 0.009182097980527255 -0.008973616161113694 -0.001011341488648714 -0.0005648369358437814 0 0 0 0
23428092 0.009111008180645854 -0.00899025159945636 -0.0010229084544109395 -0.0005735407611828895 0 0 0 0
23461038 0.009071361581568474 -0.009007407385192241 -0.0010113729557653741 -0.0005921161588986185 0 0 0 0
23493984 0.009168922639705429 -0.009048317100690467 -0.0010075489882319585 -0.0005904859832898262 0 0 0 0
23526930 0.009153307000049326 -0.009012844819397627 -0.0010222561803315624 -0.0005802251793460226 0 0 0 0
23559876 0.009183997086003839 -0.008982043899425068 -0.001012887313968079 -0.0005640160340653742 0 0 0 0
23592822 0.009018042567158083 -0.009068887183615724 -0.001004342522808443 -0.0005797804152214275 0 0 0 0
23625768 0.009055697537697287 -0.008984428220017559 -0.0009975686452079685 -0.0005751362452416195 0 0 0 0
23658714 0.009133430290903974 -0.009102992441569193 -0.001016175836980918 -0.0005696588008527784 0 0 0 0
23691660 0.009119662896491607 -0.009128416293659429 -0.0010170946168286334 -0.0005703962446726955 0 0 0 0
23724606 0.009191701926062305 -0.009192160310697818 -0.0010238568424566282 -0.0005909304512525629 0 0 0 0
23757552 0.009157482156417892 -0.00911900785914009 -0.0010252444290699168 -0.000590838606194751 0 0 0 0
23790498 0.009088366455741726 -0.009086024157663606 -0.0010143404024057416 -0.0006089592268641635 0 0 0 0
23823444 0.009137042567165505 -0.009118031989677415 -0.0010368906294233907 -0.0005950667483966696 0 0 0 0
23856390 0.009171344637655137 -0.009141750966745434 -0.0009923649040326648 -0.000562269455466593 0 0 0 0
23889336 0.009167674283743618 -0.009214611294420211 -0.0009960892942170387 -0.0005878610242070587 0 0 0 0
23922282 0.009093925901424648 -0.009211408082895962 -0.001007983878766716 -0.0005801286725436757 0 0 0 0
23955228 0.009072091972365776 -0.009218106313190541 -0.0009792185262221741 -0.0005965190421172177 0 0 0 0
23988174 0.009086294007560385 -0.009259666514567224 -0.00102611755214676 -0.0005803332752145938 0 0 0 0
24021120 0.009172520223401499 -0.009268314860137331 -0.0009992097141444509 -0.0006181612698571345 0 0 0 0
24054066 0.00919509874284471 -0.009230111578806715 -0.0009911659859645069 -0.0006167071272625013 0 0 0 0
24087012 0.009261288360677416 -0.009351896982988725 -0.0010145761548285657 -0.0005776217996040033 0 0 0 0
24119958 0.00912264298303221 -0.00922196122989197 -0.0010494084008400755 -0.0006056746655898707 0 0 0 0
24152904 0.009166780995628298 -0.009265174501301586 -0.0009914752014003284 -0.0005997708589442334 0 0 0 0
24185850 0.009012579296022189 -0.009364161296779477 -0.0010412968926462134 -0.0006095117342393246 0 0 0 0
24218796 0.009111469377337311 -0.0094110181920854 -0.0010364488026325734 -0.0006065896427314976 0 0 0 0
24251742 0.009200476567385256 -0.00934385937925403 -0.0009929758334019975 -0.0006012941894866188 0 0 0 0
24284688 0.009221643183877134 -0.009353705250587312 -0.0010095822482553765 -0.0005961780416389044 0 0 0 0
24317634 0.009086461494452637 -0.009407767463515519 -0.0010115408345746815 -0.0006042159996474597 0 0 0 0
24350580 0.009125075094542773 -0.009398509973927398 -0.0009955802614652414 -0.0005984166969709024 0 0 0 0
24383526 0.009048704390145323 -0.009375780526746957 -0.001014911699338428 -0.0006018725561091178 0 0 0 0
24416472 0.009211570519418224 -0.009416662294009724 -0.0010014922500263684 -0.0005981636611923987 0 0 0 0
24449418 0.00920933241021467 -0.009456221288853973 -0.0010116963391550717 -0.0005893710966446818 0 0 0 0
24482364 0.009229283758455158 -0.009459663901297126 -0.0010294984830856741 -0.0006315832966663085 0 0 0 0
24515310 0.009011259504693215 -0.009484572310542927 -0.001016285581303301 -0.0005794186579293997 0 0 0 0
24548256 0.009083909320491246 -0.009567212167892938 -0.0010079365758793302 -0.0006029243244553774 0 0 0 0
24581202 0.009125075099617793 -0.009554928208237468 -0.0010277523226072654 -0.000615031717112223 0 0 0 0
24614148 0.009169498189823478 -0.009549349402470595 -0.0010329207206243101 -0.0006130887775496491 0 0 0 0
24647094 0.009205175663320875 -0.00951925076374315 -0.001013988656663778 -0.0005928351946737914 0 0 0 0
24680040 0.009286264442702894 -0.009568722784331931 -0.0010441484479338885 -0.0006285285615333878 0 0 0 0
24712986 0.009225398085347955 -0.009413514211032445 -0.0010014482915394083 -0.0005979596152356683 0 0 0 0
24745932 0.009213368729577974 -0.009559684249619537 -0.0010195299077718036 -0.0006164776495970924 0 0 0 0
24778878 0.009144809714016334 -0.009622007417435022 -0.000995917577460026 -0.0005990984489792303 0 0 0 0
24811824 0.009117239378819846 -0.009639198181091197 -0.001005408517277821 -0.0006020318464821909 0 0 0 0
24844770 0.009131843264498158 -0.009630256895258099 -0.0010211795145548415 -0.0006286533656269407 0 0 0 0
24877716 0.009272556752798686 -0.009646011660993055 -0.0010151466777006328 -0.0006044572906240093 0 0 0 0
24910662 0.009289800865718933 -0.009549424710171412 -0.0010269086176095043 -0.0006193373640955758 0 0 0 0
24943608 0.009218856763042781 -0.00959657760263401 -0.001030279312656917 -0.0006419039295388199 0 0 0 0
24976554 0.009148742960333852 -0.009713064992491858 -0.0010358297649580783 -0.0006133176119705454 0 0 0 0
25009500 0.009097263721868323 -0.009653183808245393 -0.001049113166680255 -0.0005959077311097309 0 0 0 0
25042446 0.009126693249928031 -0.0097097881817369 -0.0010429011211643495 -0.0006353534866207748 0 0 0 0
25075392 0.0091584100557977 -0.009695164086309882 -0.0010179926753015008 -0.0006051461979444395 0 0 0 0
25108338 0.00925145489168429 -0.009701684339024309 -0.0010248782320767145 -0.0006162052426840573 0 0 0 0
25141284 0.00915885705550408 -0.009742604527299916 -0.0010086378047247761 -0.0006115064819327891 0 0 0 0
25174230 0.009159356192828512 -0.009746497643099922 -0.001031443163823173 -0.0006325732564572569 0 0 0 0
25207176 0.009245305556382286 -0.009774172522059145 -0.0010329868047523672 -0.0006233665441807886 0 0 0 0
25240122 0.009214008129481551 -0.00973912138445779 -0.0010372830529964518 -0.0006042338538153842 0 0 0 0
25273068 0.009209222794911055 -0.009817520593657415 -0.0010394312711341361 -0.0006145051315036991 0 0 0 0
25306014 0.009223646221841589 -0.009823066524358865 -0.001047111610965152 -0.0006097898483220592 0 0 0 0
25338960 0.009219826971037974 -0.009787882281503225 -0.0010206336594519871 -0.0006023742934844612 0 0 0 0
25371906 0.009183810701267643 -0.009934221917581455 -0.0010218371877211614 -0.0006240461731849134 0 0 0 0
25404852 0.009199924943200715 -0.009903187277632775 -0.0010232550279544923 -0.0006304941451085149 0 0 0 0
25437798 0.009315214911259964 -0.009937920900296077 -0.0010341294958170124 -0.0006391188909424857 0 0 0 0
25470744 0.009221143433161839 -0.00998239359185116 -0.001037297734675156 -0.0006498576447814755 0 0 0 0
25503690 0.009123323231896248 -0.009912099049277472 -0.001042506565846298 -0.0006003298523994423 0 0 0 0
25536636 0.009179418141397585 -0.009918916370584016 -0.0010169552589784643 -0.0006310592380876888 0 0 0 0
25569582 0.009103252931593041 -0.009922135074971545 -0.0010256774164708752 -0.0006199952908774804 0 0 0 0
25602528 0.009255007645731207 -0.009997362673279588 -0.0010296167464710453 -0.0006213407037322593 0 0 0 0
25635474 0.009186877534993816 -0.010018949208684397 -0.001021970905790966 -0.0006437320403547379 0 0 0 0
25668420 0.009251313313539773 -0.010039371295773595 -0.0010289892719090824 -0.0006458132547004644 0 0 0 0
25701366 0.009230123017498138 -0.010009957475652915 -0.001018160563978753 -0.000617260525818297 0 0 0 0
25734312 0.009214212856383096 -0.010055155989865346 -0.0010125438895217669 -0.0006251743118779177 0 0 0 0
25767258 0.009157419874520786 -0.009999161591052725 -0.0010322012141445237 -0.0006323117416979176 0 0 0 0
25800204 0.009205289268977073 -0.010062460165149958 -0.0010379059282252662 -0.0006337720810550956 0 0 0 0
25833150 0.009285938817688397 -0.010027778360684077 -0.0010272760758437338 -0.0006436670030772634 0 0 0 0
25866096 0.009211522409213323 -0.010076177721108897 -0.0010224743355017243 -0.0006298659170010697 0 0 0 0
25899042 0.009346886138725701 -0.01013264929947607 -0.001040376932341136 -0.0006522834919863533 0 0 0 0
25931988 0.009204486097847993 -0.010136542054134407 -0.0010293308497953985 -0.0006144358390200248 0 0 0 0
25964934 0.00920969123382012 -0.010047419259984503 -0.0010502446547657807 -0.0006287491384266584 0 0 0 0
25997880 0.009161438762716917 -0.010004768821705135 -0.0010399017462824308 -0.0006152644545062932 0 0 0 0
26030826 0.009269493996517554 -0.01017907079165135 -0.001048488296648604 -0.0006408522944823185 0 0 0 0
26063772 0.009212185380929515 -0.01017753627029889 -0.001047008657540938 -0.0006568205259080146 0 0 0 0
26096718 0.009202687435445014 -0.01027846926653005 -0.0010409029311522569 -0.0006513569859163477 0 0 0 0
26129664 0.009260156243780567 -0.010196346367108672 -0.0010448877783831984 -0.0006345793924405159 0 0 0 0
26162610 0.009276454160581978 -0.010182774904051216 -0.0010454749684435537 -0.0006576526246159012 0 0 0 0
26195556 0.009306856596781671 -0.010227393107336847 -0.0010301871157296718 -0.000663352308499202 0 0 0 0
26228502 0.009294738857628364 -0.010198331825484078 -0.0010626420996722081 -0.0006611225402828148 0 0 0 0
26261448 0.009301791924270272 -0.010215323661586832 -0.001042506298591985 -0.0006465728462068728 0 0 0 0
26294394 0.009130352632460132 -0.010276396590161342 -0.0010356426574730608 -0.0006409663748760027 0 0 0 0
26327340 0.009184730102859818 -0.010203506054091949 -0.001046960559206032 -0.0006426486176738574 0 0 0 0
26360286 0.00911959574282072 -0.010315620061708204 -0.0010506819137063965 -0.0006398863924839025 0 0 0 0
26393232 0.00920568787533041 -0.010347695219468562 -0.0010409682426058844 -0.0006467299199711309 0 0 0 0
26426178 0.009154891996289894 -0.010356154730693585 -0.0010300010922422486 -0.0006253465183869286 0 0 0 0
26459124 0.009288298236811985 -0.010372224311254454 -0.0010664886018276576 -0.0006594357825739442 0 0 0 0
26492070 0.009339836382842673 -0.01016987083668142 -0.0010372127242645505 -0.0006424896214044588 0 0 0 0
26525016 0.009214623939159203 -0.010351171156930081 -0.0010631216896313735 -0.0006399919581516121 0 0 0 0
26557962 0.009275890252649934 -0.010410374281512971 -0.0010361230008032417 -0.0006592938486679238 0 0 0 0
26590908 0.009189721913470155 -0.010413643318880408 -0.0010521704856888325 -0.0006562971978785701 0 0 0 0
26623854 0.00919116167528598 -0.010437850520711821 -0.0010535088257828964 -0.0006475306097134285 0 0 0 0
26656800 0.009201622956772706 -0.01048066086286998 -0.0010403053259513836 -0.0006523778777366423 0 0 0 0
26689746 0.009335486138751577 -0.010452751838130062 -0.0010435581583383327 -0.000675753245569109 0 0 0 0
26722692 0.009317632072044993 -0.010364866980045961 -0.001031673546588151 -0.0006733465424057402 0 0 0 0
26755638 0.009248912800674308 -0.010408517865508428 -0.0010564281635980963 -0.0006750920371731319 0 0 0 0
26788584 0.009265179018252113 -0.010493460916445365 -0.0010762768388225474 -0.0006654433435151213 0 0 0 0
26821530 0.009182102050513098 -0.010505249613297499 -0.0010607209125436062 -0.0006570022546558494 0 0 0 0
26854476 0.0092290056904255 -0.010593503640924951 -0.0010468389083640862 -0.0006462385320139531 0 0 0 0
26887422 0.009222327220564328 -0.010464607000710155 -0.0010696492949982396 -0.0006731517415438788 0 0 0 0
26920368 0.009343639406735606 -0.010556124020418854 -0.0010535173539383926 -0.0006610900108558348 0 0 0 0
26953314 0.009262935449470957 -0.010552627317984122 -0.001065342929705054 -0.0006661591423783838 0 0 0 0
26986260 0.009386940296076377 -0.010609123214115317 -0.001057192943180599 -0.0006541621604639776 0 0 0 0
27019206 0.009302198695390701 -0.010601898115358067 -0.001068040455818007 -0.0006788741071726421 0 0 0 0
27052152 0.009197190050302917 -0.010639431463549811 -0.0010679535284152514 -0.000685447015475013 0 0 0 0
27085098 0.009223736522387347 -0.010597002902370097 -0.0010572350812522492 -0.0006608069800709525 0 0 0 0
27118044 0.009313902418004266 -0.010650102647103482 -0.001042021636978995 -0.0006732714362779518 0 0 0 0
27150990 0.009319603465706943 -0.010664655838957328 -0.0010689341464389921 -0.0006676621146418874 0 0 0 0
27183936 0.00927413047722596 -0.01065965530611795 -0.0010299066973629993 -0.0006706249647596264 0 0 0 0
27216882 0.009322158936123441 -0.01067902912391116 -0.001058528117561858 -0.0006557981574698616 0 0 0 0
27249828 0.00924055383214893 -0.010699035844847781 -0.0010727574356835046 -0.0006401582872087807 0 0 0 0
27282774 0.00929035456769529 -0.010718537214943341 -0.0010981022377499602 -0.0006799050406578114 0 0 0 0
27315720 0.00918645540511191 -0.01071450168781572 -0.0010695345136314842 -0.0006566716879196517 0 0 0 0
27348666 0.009235918008684061 -0.010693057767222533 -0.0010712677337290958 -0.000685789580484556 0 0 0 0
27381612 0.009230677878184433 -0.010836963684148614 -0.001054411450869574 -0.000664162325107761 0 0 0 0
27414558 0.009302012654410973 -0.010749883270788217 -0.0010672329689714773 -0.0006822254545064147 0 0 0 0
27447504 0.009256079400334105 -0.010826341488592987 -0.0010561069516968344 -0.000688282698313146 0 0 0 0
27480450 0.009255098719036087 -0.010746708062710088 -0.001065335854574684 -0.0006613217767455629 0 0 0 0
27513396 0.009259951835330852 -0.010851344614772766 -0.0010740531468028164 -0.000670803370704163 0 0 0 0
27546342 0.009276670631557349 -0.01081445900430091 -0.0010547229458040647 -0.0006619399603128145 0 0 0 0
27579288 0.009252043459152353 -0.010803921467254653 -0.0010613905542931027 -0.00067676019578072 0 0 0 0
27612234 0.009280514732719332 -0.010824199996834774 -0.0010616998728492993 -0.0006642066587423123 0 0 0 0
27645180 0.009336219638415444 -0.010846890893283518 -0.0010474401079273736 -0.0006500067351670687 0 0 0 0
27678126 0.009326727493192346 -0.01095395124559433 -0.0010590896689211858 -0.0006634423897013334 0 0 0 0
27711072 0.0092430442320315 -0.010837541155329868 -0.0010667716361797822 -0.0006646611374579282 0 0 0 0
27744018 0.009318816267891494 -0.010965587831124175 -0.001061035280755331 -0.0006576438604996632 0 0 0 0
27776964 0.009362491252798887 -0.010958690335774367 -0.0010735476491437986 -0.0006713193732934021 0 0 0 0
27809910 0.009359085812763327 -0.010957292102905447 -0.0010570024063006518 -0.0006552435726754603 0 0 0 0
27842856 0.009297690860216753 -0.010905057446899685 -0.0010734450186907184 -0.0006634734394853389 0 0 0 0
27875802 0.0093274262494542 -0.01095880066385585 -0.0010531147625721946 -0.000685130269567232 0 0 0 0
27908748 0.009272135897698637 -0.01090565957636702 -0.0010680836637021608 -0.0006575385995436925 0 0 0 0
27941694 0.009383616846685905 -0.010941675066673198 -0.0010699423048715086 -0.0006746185815049416 0 0 0 0
27974640 0.009260659849642331 -0.011013619186969047 -0.0010819281800072786 -0.0006856518300065714 0 0 0 0
28007586 0.009274763117059668 -0.010982408814284151 -0.0010713045867068653 -0.0006844253650407162 0 0 0 0
28040532 0.009320196810016263 -0.01102386806102498 -0.0010941824091708313 -0.0006643416228977759 0 0 0 0
28073478 0.009312517630864332 -0.01104760128822742 -0.001062856725122792 -0.0006911399803148137 0 0 0 0
28106424 0.009317519318419825 -0.01100801579458796 -0.0010591725136229416 -0.0007129021752283828 0 0 0 0
28139370 0.009366253190827288 -0.011106363327676439 -0.0010802587486790048 -0.0006487463813889565 0 0 0 0
28172316 0.009342981365440043 -0.01105539308291052 -0.0010795742655236465 -0.0006887722428726989 0 0 0 0
28205262 0.009367498057311404 -0.011101589536253849 -0.0010822801882513116 -0.0006535227534619209 0 0 0 0
28238208 0.009269423437827363 -0.011100196637968835 -0.0010730086368263697 -0.0007069211385444691 0 0 0 0
28271154 0.009354032890475105 -0.011112155017697358 -0.001103166843611762 -0.000680102721721394 0 0 0 0
28304100 0.009357198389508735 -0.011164441273486508 -0.001080268813645538 -0.0006910846697390678 0 0 0 0
28337046 0.009280306844152202 -0.011227895195034674 -0.0010704435900839098 -0.000692461954968936 0 0 0 0
28369992 0.009265283082247387 -0.011295454114300458 -0.0010498800501006003 -0.0006993246162675892 0 0 0 0
28402938 0.009356588386564944 -0.011112509062046553 -0.0010923798877776115 -0.0007001936350875331 0 0 0 0
28435884 0.009274198497202329 -0.011171982261532966 -0.001100645220102253 -0.0006723916667148865 0 0 0 0
28468830 0.009319568512055077 -0.011174725170759774 -0.0010919999073664643 -0.0006876854339635263 0 0 0 0
28501776 0.009386823227686372 -0.011200911962051618 -0.0010880356313477705 -0.0007074607666995011 0 0 0 0
28534722 0.00934941555025425 -0.01117680094735583 -0.0010442054687451892 -0.000659042159315534 0 0 0 0
28567668 0.009314046395716973 -0.011222491363545462 -0.001088505984597619 -0.0006802538598403643 0 0 0 0
28600614 0.009424543733573851 -0.011260860956401782 -0.0010525673258627096 -0.0006784097034716483 0 0 0 0
28633560 0.009318239979517381 -0.011367362705599756 -0.00107014102076244 -0.0006826249923709087 0 0 0 0
28666506 0.009260781075298673 -0.011284925477711623 -0.0011030026293657482 -0.0006806386532872346 0 0 0 0
28699452 0.00940280168273384 -0.0112920597217494 -0.0010894182219251226 -0.0007207927765684782 0 0 0 0
28732398 0.009357933333330607 -0.01139720120994303 -0.0010900072641297604 -0.000697630639822242 0 0 0 0
28765344 0.009331353670458621 -0.011376067266884667 -0.0010762593411242074 -0.000705104542481771 0 0 0 0
28798290 0.009293104421669994 -0.011286308175823675 -0.0010879525507966096 -0.0007167392237755911 0 0 0 0
28831236 0.009260382599831838 -0.011374331083119357 -0.0010618188183521883 -0.0007027998079782677 0 0 0 0
28864182 0.009340091307971877 -0.011419852079832732 -0.001103499070869501 -0.0006770710245776069 0 0 0 0
28897128 0.009365599384302653 -0.011428129004798882 -0.0010690334428129862 -0.0006973318036351506 0 0 0 0
28930074 0.00936534022961915 -0.01139830105220376 -0.0010971834082028828 -0.0007125590487142755 0 0 0 0
28963020 0.009300624875999794 -0.011420470155022391 -0.0011127537275180408 -0.0006948991992199126 0 0 0 0
28995966 0.009342531341546277 -0.01146324331491376 -0.00111269663632615 -0.0007193403868348114 0 0 0 0
29028912 0.00933219138541074 -0.011431493862356654 -0.0011024558564028375 -0.0007012760324446136 0 0 0 0
29061858 0.00930317145527315 -0.011536586774242654 -0.0011020537779794066 -0.0007057009835337772 0 0 0 0
29094804 0.009348954883822778 -0.011424786071492261 -0.0010528569157908653 -0.0007040585194816706 0 0 0 0
29127750 0.009306672940361013 -0.011522098420626308 -0.0010896304428423315 -0.0007096028228546573 0 0 0 0
29160696 0.00931440371138399 -0.011593982341054106 -0.0010895135510897167 -0.0007040951352172367 0 0 0 0
29193642 0.009354730189261798 -0.01150896764893521 -0.0010818854989584224 -0.0007159125335446686 0 0 0 0
29226588 0.009346262284671007 -0.011523684481034035 -0.0011133228857702383 -0.0007080610072991443 0 0 0 0
29259534 0.009408417780373638 -0.01152349154453105 -0.0010952108334693325 -0.0007149332210201979 0 0 0 0
29292480 0.009287186053423732 -0.011629810632323268 -0.0011010170363492163 -0.0006924558780392782 0 0 0 0
29325426 0.009293148169131774 -0.011539119306824275 -0.0010752179035804386 -0.0007141729863957378 0 0 0 0
29358372 0.009336218151082279 -0.011623989265784543 -0.0011084756070754774 -0.0007188582171660558 0 0 0 0
29391318 0.009441699134551772 -0.011702861342059603 -0.001103850024545709 -0.0007009081451312526 0 0 0 0
29424264 0.009404087997677307 -0.011622180393963863 -0.0010942112827953818 -0.0007018100488160971 0 0 0 0
29457210 0.009349732633010395 -0.011645026163672594 -0.0011010242719756188 -0.0007266705910329034 0 0 0 0
29490156 0.009345802426405871 -0.011598719900356129 -0.0010941475016739914 -0.0007188782110497706 0 0 0 0
29523102 0.009332759565641294 -0.011719642942311306 -0.001126737695067905 -0.0007098647386448442 0 0 0 0
29556048 0.009302718822652007 -0.011673902487054605 -0.0010924291194613822 -0.0007287983936562902 0 0 0 0
29588994 0.009412611686715715 -0.011663978153207813 -0.0011088055270596882 -0.0007437713120023105 0 0 0 0
29621940 0.009456224410876688 -0.011710176921002083 -0.001098886670711762 -0.0007327390206890086 0 0 0 0
29654886 0.009396997162420201 -0.011682334316019642 -0.0011039090798359676 -0.0007254364977747613 0 0 0 0
29687832 0.009271566049529084 -0.011695869949091098 -0.0011011879369578431 -0.0007030406831873515 0 0 0 0
29720778 0.009384621540802864 -0.011761183765589956 -0.0011206285450110118 -0.000710607161517673 0 0 0 0
29753724 0.009494613865127408 -0.011763548908066135 -0.0011155130630483177 -0.0007332792797057868 0 0 0 0
29786670 0.009392983016575197 -0.011775086701719463 -0.00107254337753121 -0.0006895874961049872 0 0 0 0
29819616 0.009361265927467909 -0.011870491590652916 -0.0011333319335244663 -0.0007237582276920534 0 0 0 0
29852562 0.009412033002168387 -0.011850601212765228 -0.0011159535093659477 -0.0007342791886943422 0 0 0 0
29885508 0.009445137515844363 -0.011827719700397893 -0.0011009692807880038 -0.0007310325817727261 0 0 0 0
29918454 0.009467550072165595 -0.011868301254636535 -0.0011237555572280542 -0.0007513298872738893 0 0 0 0
29951400 0.009392243417987266 -0.01177597633953862 -0.0011266716811106018 -0.0007130720455216339 0 0 0 0
29984346 0.00930799174981739 -0.01184131108910259 -0.0011062229139381429 -0.0007227118047975267 0 0 0 0
30017292 0.009382494635174453 -0.011893637187165067 -0.0011270687306055799 -0.0007411514555278371 0 0 0 0
30050238 0.009421903372489084 -0.011959102368009506 -0.001121884623494771 -0.0007116302854716508 0 0 0 0
30083184 0.009495171010792567 -0.01189586838807728 -0.0011066780379342133 -0.0007113726361464831 0 0 0 0
30116130 0.009404857508486558 -0.011947162385287872 -0.0011051856857046468 -0.0007196438304458657 0 0 0 0
30149076 0.009382867987978516 -0.011948371465069349 -0.001112946015917879 -0.0007213095100631403 0 0 0 0
30182022 0.009378896135389558 -0.011920341479211453 -0.0010867280831302541 -0.0007600456048482995 0 0 0 0
30214968 0.009302780374868461 -0.011919492072900746 -0.0011487118448763412 -0.0007169441490496079 0 0 0 0
30247914 0.009544981415642449 -0.011988326258856962 -0.0011241423272252125 -0.0007461891120657601 0 0 0 0
30280860 0.009465358781380714 -0.01198126860114019 -0.0011093306086836525 -0.0007755960608567796 0 0 0 0
30313806 0.009370968472447193 -0.011910696265200254 -0.0011168517118982724 -0.0007379259584360076 0 0 0 0
30346752 0.009396522090922108 -0.011981886035575212 -0.0010980871454863085 -0.0007477608679745175 0 0 0 0
30379698 0.009417954896246314 -0.012045730307245442 -0.0011147761135690414 -0.0007269416453888545 0 0 0 0
30412644 0.00937551907816357 -0.012084201171225136 -0.0011363666787834964 -0.000744712660255777 0 0 0 0
30445590 0.009470930449046223 -0.012047750648866512 -0.0011305429633648762 -0.000725754464271067 0 0 0 0
30478536 0.009463259258369678 -0.01205777763673082 -0.0011188485225546794 -0.0007689236581151696 0 0 0 0
30511482 0.009466248749593356 -0.012061178682566969 -0.001124711739429031 -0.0007125371961638334 0 0 0 0
30544428 0.009452248744225001 -0.012055436540304642 -0.0011140247296885849 -0.0007631166192672305 0 0 0 0
30577374 0.00939138163299214 -0.012174728295791255 -0.0011438150613656331 -0.0007232356203638207 0 0 0 0
30610320 0.009284163086796514 -0.012116460284556508 -0.0011270816704608635 -0.000733597907575605 0 0 0 0
30643266 0.009347686186492862 -0.012170853842281183 -0.0011041992763754474 -0.0007628641379520613 0 0 0 0
30676212 0.009445835085415076 -0.012183772065316938 -0.0011088309309692827 -0.0007623766786069842 0 0 0 0
30709158 0.009410330825466539 -0.012207211830476714 -0.001112412148062575 -0.0007410519796457465 0 0 0 0
30742104 0.009453043789656258 -0.012235120513204283 -0.0011123038494476698 -0.0007499405957399264 0 0 0 0
30775050 0.009422847283552787 -0.012254071821159075 -0.001121585200044457 -0.0007479384190644897 0 0 0 0
30807996 0.009367225552625884 -0.012232098958688535 -0.001113531297156566 -0.0007456229077692921 0 0 0 0
30840942 0.009462155143827528 -0.012280801670990146 -0.0011004056726542479 -0.0007616910703488934 0 0 0 0
30873888 0.009417995257531316 -0.012316339382834763 -0.001152934824311497 -0.0007403355593537665 0 0 0 0
30906834 0.009403486552448471 -0.012234867137117257 -0.0011210159616584637 -0.0007455564161017816 0 0 0 0
30939780 0.00949206424252921 -0.012276418886387315 -0.001115038300610471 -0.0007678911605079529 0 0 0 0
30972726 0.009432319936896577 -0.012245251563731727 -0.0011317512067939254 -0.0007465056363121213 0 0 0 0
31005672 0.009450488195016482 -0.012258337484671379 -0.0011409531133286764 -0.0007623226074000415 0 0 0 0
31038618 0.009330993492573552 -0.012385018106876452 -0.001146404738747198 -0.0007585145832416853 0 0 0 0
31071564 0.009479732240502574 -0.01233681728231748 -0.0011283415998508675 -0.0007938995641511582 0 0 0 0
31104510 0.009489234523702806 -0.012349435749452901 -0.0011232155630315017 -0.0007489194080440598 0 0 0 0
31137456 0.009393442337497032 -0.012319867419387754 -0.0011335360849339582 -0.0007449577763244211 0 0 0 0
31170402 0.009328326826816703 -0.012374914240667183 -0.0011249486234083614 -0.0007860751777546427 0 0 0 0
31203348 0.00936668932403626 -0.012347118469970476 -0.0011214072470702018 -0.0007585004913815394 0 0 0 0
31236294 0.009385406910195137 -0.012405488577606 -0.0011494739827371443 -0.000764762928138569 0 0 0 0
31269240 0.00946292061892732 -0.012390438145647623 -0.001123291616120715 -0.0007664812051967703 0 0 0 0
31302186 0.009367166167151563 -0.012431673292761115 -0.0011566136108096135 -0.0007352917781104149 0 0 0 0
31335132 0.009411331388640233 -0.012383506264758403 -0.0011210037654535887 -0.0007427362191526548 0 0 0 0
31368078 0.009508809564492985 -0.012539761116329469 -0.001137884820383134 -0.0007274823633613745 0 0 0 0
31401024 0.009419834085779177 -0.012522597240030558 -0.0011349608848181185 -0.0007532650388527358 0 0 0 0
31433970 0.009415855645243418 -0.012476987348838328 -0.0011526659605130415 -0.000764279160583567 0 0 0 0
31466916 0.009504861889947301 -0.012539031851255317 -0.0011716257467287603 -0.0007867959622753794 0 0 0 0
31499862 0.009530806078369244 -0.012559910529101598 -0.0010790181159636442 -0.0007999511896403336 0 0 0 0
31532808 0.00943224252628224 -0.01256362665966056 -0.0011629855376029538 -0.0007982357411463406 0 0 0 0
31565754 0.009428560214418867 -0.01260952074241679 -0.0011155457161272128 -0.0007703062219794288 0 0 0 0
31598700 0.009431250816555613 -0.012563531786470137 -0.0011456510419194047 -0.0008058791436046667 0 0 0 0
31631646 0.009534909968201031 -0.012605438619644515 -0.0011902281522140291 -0.0007613534440666897 0 0 0 0
31664592 0.009543311976929114 -0.012654406548287053 -0.0011193582230851762 -0.0007677575677239234 0 0 0 0
31697538 0.009514275514158819 -0.012599243987448366 -0.0010710676779649162 -0.0007446337445098352 0 0 0 0
31730484 0.009477604354526053 -0.012672106582695441 -0.0012241267377147349 -0.0007953667709041862 0 0 0 0
31763430 0.009406322717808144 -0.012767708300645518 -0.0011599127127355725 -0.0007904754221229455 0 0 0 0
31796376 0.009505758710795084 -0.012601722011652458 -0.0011523644521786447 -0.0007254939693847371 0 0 0 0
31829322 0.009457937530289038 -0.01263715006293867 -0.0011627099120577011 -0.0007908480174849252 0 0 0 0
31862268 0.009469518794240376 -0.012716575057879459 -0.0012317500309746152 -0.0007840210475755305 0 0 0 0
31895214 0.009402771373243303 -0.012696004621085683 -0.001174556752955645 -0.000763028731043749 0 0 0 0
31928160 0.00939041731933952 -0.01270459923727938 -0.0011500072856262498 -0.0007508918538102127 0 0 0 0
31961106 0.009458749247449329 -0.012785498573681846 -0.001167789510260543 -0.0008002791615811282 0 0 0 0
31994052 0.009486924908554822 -0.012780370437097635 -0.0011681047251132918 -0.0007817431850494079 0 0 0 0
32026998 0.009466768092792135 -0.012752345968774642 -0.00117370820823786 -0.0007705805996297785 0 0 0 0
32059944 0.00950759607497504 -0.01277229602263272 -0.001163396085497246 -0.0007488664609902963 0 0 0 0
32092890 0.009475703012095013 -0.012695157924837776 -0.0011398481027904623 -0.0007317640432505293 0 0 0 0
32125836 0.009510889372535608 -0.012791915503831717 -0.0011597001484394262 -0.0007726753567029648 0 0 0 0
32158782 0.009486321427542126 -0.012823723949065438 -0.0011294705190936262 -0.0007626513089433393 0 0 0 0
32191728 0.009569246616874989 -0.012745711938597425 -0.0011661805900412578 -0.0007668083291079786 0 0 0 0
32224674 0.009528439639025795 -0.012831246253021953 -0.0011635046292401304 -0.0007949008353459449 0 0 0 0
32257620 0.009475324130649623 -0.012730667064220328 -0.00114412438730038 -0.0007825894106379902 0 0 0 0
32290566 0.009446846828943858 -0.012876283125444286 -0.0011576778805806474 -0.0007783860924166394 0 0 0 0
32323512 0.009532650630697076 -0.012890662911615402 -0.0011684877792073546 -0.0007985110003049067 0 0 0 0
32356458 0.009481846488093967 -0.01283312428330387 -0.001144521079556407 -0.0007756459079542567 0 0 0 0
32389404 0.009507086818377449 -0.012940305567388127 -0.0011692750653259593 -0.0007928474678700037 0 0 0 0
32422350 0.009473412500445606 -0.012965590564730534 -0.001180313570914697 -0.0007809438765128116 0 0 0 0
32455296 0.009436196559169281 -0.012929431617285205 -0.001154775800708364 -0.0007709373410809107 0 0 0 0
32488242 0.009477118439636875 -0.012958960975284173 -0.0011424279202731059 -0.0008042298136994782 0 0 0 0
32521188 0.009633748088551374 -0.012950684363041025 -0.001159758971010214 -0.0007765469419410081 0 0 0 0
32554134 0.00955123800580135 -0.012960264089598633 -0.0011745802173284375 -0.0007882322276181866 0 0 0 0
32587080 0.009508953386839698 -0.012973646158297596 -0.0011472911414280994 -0.0008097711678199097 0 0 0 0
32620026 0.009484862236374873 -0.01302882909007043 -0.001177064090558905 -0.0007723230033912532 0 0 0 0
32652972 0.009412779235973319 -0.012925555298664213 -0.001148151031091522 -0.0007792238153301589 0 0 0 0
32685918 0.009443625093488485 -0.013113151657440281 -0.0011669021841108182 -0.0008044137843978787 0 0 0 0
32718864 0.009510456927375071 -0.013044329835959748 -0.001177164149608186 -0.000767332357763807 0 0 0 0
32751810 0.009614287845624275 -0.013049805367989508 -0.0011846356258595268 -0.0007713626998016678 0 0 0 0
32784756 0.009495554047037499 -0.013002817752631663 -0.0011811487838250241 -0.0007997098900672857 0 0 0 0
32817702 0.009464657571843102 -0.013108908960586746 -0.0011800263743410387 -0.0007757069696583058 0 0 0 0
32850648 0.009565314476173344 -0.013045711725946069 -0.0011598440347553604 -0.0007917350583426248 0 0 0 0
32883594 0.009455731270903624 -0.013066635986073829 -0.0011644366008620145 -0.0007918333659697311 0 0 0 0
32916540 0.009531698001059978 -0.013148786845289327 -0.001177532547155229 -0.0007896512662154885 0 0 0 0
32949486 0.009559781165738258 -0.01307057955348086 -0.0011752600945137467 -0.0007969763917688149 0 0 0 0
32982432 0.009577086435724906 -0.013184029264858847 -0.0011763953025674576 -0.0007838131681584158 0 0 0 0
33015378 0.009501511899431008 -0.013210941527114625 -0.0011890749524462415 -0.0007806971008179686 0 0 0 0
33048324 0.009528376681787082 -0.013249761427322124 -0.0011514735140855832 -0.0007907781754497125 0 0 0 0
33081270 0.009544202166632643 -0.013126075011377785 -0.0011562853304843575 -0.0007647535734009482 0 0 0 0
33114216 0.009583728660645106 -0.013239499901123962 -0.0011723380652358488 -0.0007872982569102565 0 0 0 0
33147162 0.009584266102279767 -0.013316136614607944 -0.0011808136763422493 -0.0008184996157299872 0 0 0 0
33180108 0.009592807416889174 -0.013319337338195689 -0.0011756330221973788 -0.000801480317944281 0 0 0 0
33213054 0.009437526676870707 -0.01332342989129456 -0.0011837511824161146 -0.0007965954874658639 0 0 0 0
33246000 0.009509240939111267 -0.013354223611220106 -0.0011854448084744717 -0.0008160388497254796 0 0 0 0
33278946 0.00948107118043267 -0.01318733252291866 -0.001176090119547354 -0.0007834813071398934 0 0 0 0
33311892 0.009556545426801516 -0.013241834960368444 -0.0011721771921853505 -0.0008231351720328979 0 0 0 0
33344838 0.009544274887222056 -0.013309027806225587 -0.0011885304291524637 -0.0007929309974397768 0 0 0 0
33377784 0.009517216211162362 -0.013333979513191107 -0.0011705087576267584 -0.0007881676033813626 0 0 0 0
33410730 0.009666724647037625 -0.013462814571074044 -0.0011841268235752858 -0.0008130810997061784 0 0 0 0
33443676 0.009494578101310238 -0.013376421869708784 -0.0011639971995370411 -0.0008003599230277365 0 0 0 0
33476622 0.009551213927095521 -0.013370762763561523 -0.0011491753531519349 -0.0007826834013609341 0 0 0 0
33509568 0.009590626540554986 -0.01327874621095764 -0.0011937282317050154 -0.0007939848163354886 0 0 0 0
33542514 0.009701510963116496 -0.01337694583606827 -0.0011892594784413092 -0.0008121200901456305 0 0 0 0
33575460 0.009534366179619103 -0.013481787801784103 -0.001189063051127105 -0.0008071001579785088 0 0 0 0
33608406 0.009587995525422936 -0.013465421519115759 -0.0011818439307728905 -0.0007912312160558418 0 0 0 0
33641352 0.009614796875422226 -0.01345654768678839 -0.0011875447605169459 -0.000787685281299596 0 0 0 0
33674298 0.009551497180376204 -0.013382794774709121 -0.001191320013668523 -0.0008077255633402629 0 0 0 0
33707244 0.009580679820470873 -0.01346778331100251 -0.0011845847909882179 -0.0008353066991423283 0 0 0 0
33740190 0.009544204393812261 -0.013463919959020564 -0.0011919831934343388 -0.0008073640919219969 0 0 0 0
33773136 0.009556512994798134 -0.013470142504123823 -0.0011971522511548135 -0.0008372210376461858 0 0 0 0
33806082 0.009640037015795523 -0.013332709703593173 -0.0011939466141031 -0.0007949636343428118 0 0 0 0
33839028 0.009416881624868593 -0.013360799941911496 -0.0012063280791641913 -0.0008185568830992539 0 0 0 0
33871974 0.009404215928013323 -0.01347648139593144 -0.0012016249858445873 -0.000820881084997667 0 0 0 0
33904920 0.009461170248138506 -0.013633380361015832 -0.001195026172753202 -0.0008065918473892824 0 0 0 0
33937866 0.00972752819554536 -0.013616621523525791 -0.001176446065553284 -0.0008061951392688043 0 0 0 0
33970812 0.009646790186576645 -0.013443548993100166 -0.0011816675381021143 -0.0008391526896084819 0 0 0 0
34003758 0.009589590462510773 -0.013624133695146971 -0.001189886102455664 -0.0008154001398477934 0 0 0 0
34036704 0.00950015997124193 -0.013600849540507444 -0.0011824281631109697 -0.0008505217041251385 0 0 0 0
34069650 0.009539629183592555 -0.013640174323256435 -0.0012180116094641553 -0.0008076670741310557 0 0 0 0
34102596 0.009602083528021155 -0.013635026477301712 -0.001217645879742777 -0.0008421681943497322 0 0 0 0
34135542 0.009581744778455054 -0.013564701368839393 -0.001212739865191197 -0.0008211317776036344 0 0 0 0
34168488 0.009599729367093976 -0.013583374779154885 -0.001185025607573383 -0.0008107670329913354 0 0 0 0
34201434 0.009503954980592736 -0.013738074918376503 -0.0012159581826771528 -0.0008608358842756109 0 0 0 0
34234380 0.009566773406844796 -0.013682007622514663 -0.0011928336004523384 -0.0008351694150170392 0 0 0 0
34267326 0.00957049034276112 -0.013667292093859742 -0.0012051016136548278 -0.0008326422438482163 0 0 0 0
34300272 0.009604611394647536 -0.01368367968080719 -0.0011831126595323888 -0.0008450351478649653 0 0 0 0
34333218 0.009553284799711988 -0.013663930247230779 -0.0012039451592741402 -0.0008412575700632079 0 0 0 0
34366164 0.009599827394131677 -0.013656814641566586 -0.0012171607369181236 -0.0008333734088137016 0 0 0 0
34399110 0.009490575627698875 -0.013798470588440317 -0.001216762884308602 -0.0008432222705351203 0 0 0 0
34432056 0.00957024527353204 -0.013764541380519427 -0.0012299809145291094 -0.0008291292290072116 0 0 0 0
34465002 0.009557517598079978 -0.013834600696720108 -0.001209038531322979 -0.0008224057689960392 0 0 0 0
34497948 0.0096487075239345 -0.013716809832234876 -0.0011919635418446213 -0.0008407520190234307 0 0 0 0
34530894 0.00965962167838546 -0.013773079654634214 -0.0011869377051872462 -0.0008055015867714705 0 0 0 0
34563840 0.009644508759117631 -0.01384849738987301 -0.001199895921936317 -0.0008395722196190169 0 0 0 0
34596786 0.00963760357996299 -0.013970010691705384 -0.0012225738612909787 -0.0008552487558314018 0 0 0 0
34629732 0.009579388839505308 -0.013789564890426745 -0.0012334361232310533 -0.0008524075129696678 0 0 0 0
34662678 0.009539442627842471 -0.013894447442695492 -0.0012109891204170307 -0.0008366735720814368 0 0 0 0
34695624 0.009586812171508433 -0.01393232137994239 -0.001198233588096067 -0.0008344394527055492 0 0 0 0
34728570 0.009648287187453359 -0.013911425122219186 -0.001222004730054491 -0.0008454780876399942 0 0 0 0
34761516 0.009669480040847814 -0.01391668642435424 -0.0012128262448230533 -0.0008468025164271545 0 0 0 0
34794462 0.009571306499029052 -0.013788826014745176 -0.0012133588205013777 -0.0008511281744682007 0 0 0 0
34827408 0.009532328097973783 -0.014001089289557504 -0.0012127933282212778 -0.0008557515914477664 0 0 0 0
34860354 0.009552262990485323 -0.013858770676471606 -0.001206047871271207 -0.0008549170066380973 0 0 0 0
34893300 0.009550946345978216 -0.013947148131495718 -0.0011852994700466894 -0.0008743459050787142 0 0 0 0
34926246 0.009648487170945635 -0.01390830581400283 -0.0012273328173184562 -0.0008513396345872381 0 0 0 0
34959192 0.009621761059695899 -0.014060542078442142 -0.0012275121998029008 -0.0008012636073766405 0 0 0 0
34992138 0.009612171784997868 -0.013951826343920965 -0.0012332114421807164 -0.0008263356432821268 0 0 0 0
35025084 0.009580354366786196 -0.013996835034602651 -0.0012464047568354203 -0.0007525719013384669 0 0 0 0
35058030 0.009616458344570169 -0.01379415777096379 -0.0012505102940869707 -0.0008592149122040368 0 0 0 0
35090976 0.009694035422938903 -0.014073197612074873 -0.0012281562802817815 -0.0007685690133080243 0 0 0 0
35123922 0.009605652593012732 -0.014084649718456977 -0.0012359206126011408 -0.000844063079667204 0 0 0 0
35156868 0.009585555446157948 -0.013969483691262191 -0.0011826081218513943 -0.000896346900006671 0 0 0 0
35189814 0.0094617495232359 -0.014000174973269117 -0.0012547096262857545 -0.0008475630695478552 0 0 0 0
35222760 0.009554730102514614 -0.01421669930973009 -0.0012093483855649572 -0.0008350843045171101 0 0 0 0
35255706 0.009641966947424849 -0.01413774259035099 -0.0013127129218356562 -0.0008257584273951826 0 0 0 0
35288652 0.009665352416874273 -0.01406765681178576 -0.0012219502913592844 -0.0008857456461843949 0 0 0 0
35321598 0.009431522448349244 -0.014211603373386077 -0.0012321390654954102 -0.0009369642178619616 0 0 0 0
35354544 0.009731908775920489 -0.014181794576894275 -0.0012077496770289537 -0.0009119647230728225 0 0 0 0
35387490 0.009553249256360153 -0.014199022465735303 -0.0012486853135016864 -0.0008640002926817161 0 0 0 0
35420436 0.009612637968270008 -0.014173135870255697 -0.0012373845103233723 -0.0008444008664665924 0 0 0 0
35453382 0.009661882428249472 -0.014182942985352255 -0.0012299789839401957 -0.0008754618163363778 0 0 0 0
35486328 0.009567111754005958 -0.014242263687257934 -0.001226684393186044 -0.0008417379346224678 0 0 0 0
35519274 0.009644797239460113 -0.014305477201967514 -0.0012458838496754716 -0.0008274014656125685 0 0 0 0
35552220 0.009670306637145557 -0.014120201089614804 -0.0012049411224679017 -0.0008493620198026467 0 0 0 0
35585166 0.009619561994232743 -0.014257666131252464 -0.0012163399172701495 -0.0008723298294663691 0 0 0 0
35618112 0.009579249893455816 -0.01427075781375662 -0.001223066758790214 -0.0008356288832656365 0 0 0 0
35651058 0.009620841390650442 -0.014280288836816101 -0.0012288375474195934 -0.0008613765997919107 0 0 0 0
35684004 0.009651913230213057 -0.014318104005668023 -0.0012526895584995925 -0.0008765874983633447 0 0 0 0
35716950 0.009607473901756182 -0.014327011477713621 -0.00124326613120832 -0.000866566573515449 0 0 0 0
35749896 0.009624637209785975 -0.014270931479442762 -0.00122458229850911 -0.0008850159696329793 0 0 0 0
35782842 0.009579871392786769 -0.014368064488014783 -0.0012662902453739792 -0.0008458389221123704 0 0 0 0
35815788 0.009592285125230483 -0.0144198694389484 -0.0012636201961524357 -0.0008575242136404449 0 0 0 0
35848734 0.009604905445087273 -0.014260594351333093 -0.0012372210770212667 -0.0008688086447822392 0 0 0 0
35881680 0.009714441152010376 -0.014402489935772367 -0.0012378380104679215 -0.0008728645416233056 0 0 0 0
35914626 0.009695516599034368 -0.0143265318036945 -0.0012392321034479274 -0.0008648009647455071 0 0 0 0
35947572 0.009633392748404294 -0.014412063621584661 -0.0012481501909305992 -0.0008688706198073545 0 0 0 0
35980518 0.009577005948921875 -0.014400214341191785 -0.0012423247426521149 -0.0008733943194126377 0 0 0 0
36013464 0.0095849702294777 -0.014415156539578318 -0.0012267437907434037 -0.0008524962640442821 0 0 0 0
36046410 0.009603648950249594 -0.01451900345746196 -0.0012492139591619544 -0.0008609152869026481 0 0 0 0
36079356 0.009679765669224316 -0.01443317103709817 -0.001230091027756923 -0.0008928163013903464 0 0 0 0
36112302 0.0097345990614094 -0.014476693246473061 -0.0012388878055986333 -0.0008871186809217658 0 0 0 0
36145248 0.009757191148307453 -0.01442644308065467 -0.001252860318545146 -0.0008551078703104661 0 0 0 0
36178194 0.009610412961645835 -0.014486082851379641 -0.001264677620767293 -0.0008591201649855354 0 0 0 0
36211140 0.009649540442610474 -0.01449935925441581 -0.0012360952673007204 -0.0008621122324733456 0 0 0 0
36244086 0.009701412001949954 -0.014587649168561884 -0.0012397504668411258 -0.0008422731067474746 0 0 0 0
36277032 0.009612548291782505 -0.014551611750421184 -0.0012476224813242746 -0.0008743322488895079 0 0 0 0
36309978 0.00973501461927181 -0.014410507767690263 -0.0012576581405296721 -0.000866507813815833 0 0 0 0
36342924 0.009540938971124121 -0.014579658859509577 -0.0012346314948278446 -0.000896438160146447 0 0 0 0
36375870 0.009650089052253733 -0.01449626001857426 -0.0012727952779956228 -0.0009049811942576231 0 0 0 0
36408816 0.009537548498345745 -0.014486523436546928 -0.0012535084857873055 -0.0008785976915384338 0 0 0 0
36441762 0.009928066368525196 -0.014548944075252408 -0.0012512756250731246 -0.0008599739875563957 0 0 0 0
36474708 0.009640610953698942 -0.014514924161839981 -0.0012617865907980337 -0.000879123448800026 0 0 0 0
36507654 0.00965622766009033 -0.01471243183161952 -0.0012519241743244678 -0.0008684029241365149 0 0 0 0
36540600 0.009702249197846307 -0.01470632746507149 -0.0012566313909848548 -0.0008749976067818776 0 0 0 0
36573546 0.00964621712896506 -0.014645847109223108 -0.0012569760904671088 -0.0008932368191830761 0 0 0 0
36606492 0.009675522547320658 -0.014587642185445837 -0.0012426665553466694 -0.0008892190482589314 0 0 0 0
36639438 0.00972505276189089 -0.01470340877196549 -0.0012808718781789304 -0.0008924979792507987 0 0 0 0
36672384 0.00980132425543379 -0.01475275081203137 -0.0012690641843425814 -0.0008771163167436134 0 0 0 0
36705330 0.00982524688268238 -0.014682821236711793 -0.0012855439010976276 -0.0008510970023982678 0 0 0 0
36738276 0.009838410818174523 -0.014753303995381791 -0.0012779916005592937 -0.0008832295812937293 0 0 0 0
36771222 0.009475228784712176 -0.014955266257937243 -0.0012844363008553887 -0.0009003887258095323 0 0 0 0
36804168 0.009572853017460333 -0.014804534396798208 -0.0012677689489239239 -0.0008643963747298951 0 0 0 0
36837114 0.009662208265410407 -0.01466738648506841 -0.0012681865366322507 -0.0008757414931072414 0 0 0 0
36870060 0.009730183959277048 -0.014827052385227794 -0.001267268561381319 -0.0008779578094925123 0 0 0 0
36903006 0.00967269730413983 -0.014738647274884279 -0.0012682520358578875 -0.000882850913051843 0 0 0 0
36935952 0.009671676005605619 -0.014867535396591513 -0.0012631180695756375 -0.0008870368149209536 0 0 0 0
36968898 0.009679203387966245 -0.0147837127432437 -0.0012745005502620183 -0.0009163117474255111 0 0 0 0
37001844 0.009751288063653201 -0.014791201148374398 -0.0012682342749667534 -0.0008990467551599303 0 0 0 0
37034790 0.009683260791725849 -0.014869168947856996 -0.0012871076295989784 -0.0008987008929579099 0 0 0 0
37067736 0.009685141120683848 -0.014814284441014314 -0.0012824979381113333 -0.0008862323632469995 0 0 0 0
37100682 0.009705097628587496 -0.01490335021637963 -0.0012704602850517569 -0.0009046289512168137 0 0 0 0
37133628 0.009765144851639896 -0.014881513982750108 -0.001274336167296941 -0.0008984979026458777 0 0 0 0
37166574 0.009691803789890374 -0.014934151318390924 -0.0012872528122532358 -0.00089760504431691 0 0 0 0
37199520 0.009672233693393992 -0.014865429680330373 -0.0012682529928257419 -0.0009011592074508627 0 0 0 0
37232466 0.009766524398970274 -0.014906187846054134 -0.0012868295398485408 -0.0009001241590780762 0 0 0 0
37265412 0.009708619402591956 -0.014875984641689877 -0.001286221463786251 -0.0009131411136999938 0 0 0 0
37298358 0.00961599074192435 -0.014944265448709627 -0.0013026432935890162 -0.0008818844735345047 0 0 0 0
37331304 0.009733567298634607 -0.014959810522516036 -0.0012837936558548987 -0.0009033443863301132 0 0 0 0
37364250 0.00974148997854321 -0.014949022755814396 -0.0012875040478839298 -0.0008824499893547531 0 0 0 0
37397196 0.009803742670933306 -0.015061369569511929 -0.0012714768617501366 -0.0009187890424014828 0 0 0 0
37430142 0.009756523121054279 -0.015016749496341793 -0.0012779539135240184 -0.000884505895512804 0 0 0 0
37463088 0.009706370559358945 -0.014965568624731588 -0.0012882305678868773 -0.000887783727798423 0 0 0 0
37496034 0.009721714836750583 -0.015000450423357218 -0.0012721339159567592 -0.0008860674360019361 0 0 0 0
37528980 0.009670967373432432 -0.015074360480094275 -0.0012652620967623734 -0.000884050648793037 0 0 0 0
37561926 0.00964742267024393 -0.015029839848712149 -0.0012926699033702254 -0.0009040662862932355 0 0 0 0
37594872 0.009762809108775935 -0.015062079525846154 -0.001294933147473144 -0.0008915184060706731 0 0 0 0
37627818 0.009704691148732103 -0.015116537297943185 -0.001296058388864502 -0.0009239964772023307 0 0 0 0
37660764 0.009739200682552112 -0.015099061434442973 -0.001287118500281822 -0.000912943808416106 0 0 0 0
37693710 0.009709080414047298 -0.015124400865393784 -0.0013086779066046564 -0.0009087930702151323 0 0 0 0
37726656 0.009703756656880693 -0.015147388392979097 -0.001286256568931683 -0.0008966053393471995 0 0 0 0
37759602 0.009700497016105413 -0.015098512414093164 -0.0012915400855538863 -0.0009187043232546635 0 0 0 0
37792548 0.009738754229945908 -0.015199571339873387 -0.0013275474581978257 -0.0008921278270892286 0 0 0 0
37825494 0.009819341194079876 -0.015158932464462482 -0.0012968403288605948 -0.0008929185093500704 0 0 0 0
37858440 0.009790474102802616 -0.015238172508234032 -0.0013009931609349234 -0.0009377275292803225 0 0 0 0
37891386 0.009749281099635508 -0.015132942924743844 -0.0013003274786142945 -0.0009168757668157872 0 0 0 0
37924332 0.009740744310077407 -0.01519476329442649 -0.001290882729161499 -0.0009044079412889579 0 0 0 0
37957278 0.009666917611577813 -0.015289671655972996 -0.0012935354544559472 -0.0008914995261509767 0 0 0 0
37990224 0.009815906942149316 -0.015266955586522624 -0.001288121318421663 -0.0009091760510154353 0 0 0 0
38023170 0.009764899087749699 -0.015296435080878919 -0.0013023525040455877 -0.0009050738766543694 0 0 0 0
38056116 0.009846245398113842 -0.015268549405565776 -0.0012895455476191631 -0.0008881040736933845 0 0 0 0
38089062 0.009680165679385665 -0.015286419332020613 -0.0013173390475684037 -0.0009182443660372757 0 0 0 0
38122008 0.009881792603591464 -0.015237612089392553 -0.0013144164449833756 -0.0008842785193466887 0 0 0 0
38154954 0.009765458292827595 -0.015308621960733253 -0.001292410794731549 -0.0009098536329726668 0 0 0 0
38187900 0.0097275933992783 -0.015234806686944371 -0.0012934052300996655 -0.0009219899743123658 0 0 0 0
38220846 0.009743651669451353 -0.015287983460785661 -0.0012894469941857948 -0.0009173740044934346 0 0 0 0
38253792 0.009694628374816437 -0.015433279636972 -0.001320263712889364 -0.0009377073616907437 0 0 0 0
38286738 0.009719952201889806 -0.01542419425746718 -0.001298871465895188 -0.0009323641593792266 0 0 0 0
38319684 0.009764528708971204 -0.01538808791774813 -0.0012789294053610282 -0.0009129035351377125 0 0 0 0
38352630 0.009756052944347926 -0.015391560622040758 -0.0013128030626506904 -0.000902725823747195 0 0 0 0
38385576 0.009674856673902332 -0.015456777463493493 -0.0013239560845589805 -0.000911382337048667 0 0 0 0
38418522 0.009826041896346362 -0.015439538669906733 -0.0013190934705902687 -0.0009471415445521801 0 0 0 0
38451468 0.00978191304155308 -0.015509711526747405 -0.0013056916802981701 -0.0009107862609285923 0 0 0 0
38484414 0.009725046487003145 -0.01540901156817239 -0.0013312645700730272 -0.0008979664597066146 0 0 0 0
38517360 0.009738466330209647 -0.015457926866718612 -0.0012769892066669618 -0.0009398678017180961 0 0 0 0
38550306 0.009728336605597724 -0.015471117925997153 -0.0013023865586944997 -0.0009533038531438632 0 0 0 0
38583252 0.009735160489169862 -0.015490857252399058 -0.0013121281803879497 -0.0009204351515789201 0 0 0 0
38616198 0.009790161482935 -0.015460897000067864 -0.0013111558609824438 -0.0009317295936766194 0 0 0 0
38649144 0.009708566478560771 -0.01548607872037293 -0.0013234103019886614 -0.0009290223291495628 0 0 0 0
38682090 0.009722351799028896 -0.01554441024442144 -0.0013220278498004313 -0.0009242918561358914 0 0 0 0
38715036 0.009776580731816125 -0.015582336454330842 -0.001334521623089832 -0.0009144321419667843 0 0 0 0
38747982 0.009824019388078198 -0.015570281499047179 -0.001297951550772478 -0.0009272209365119441 0 0 0 0
38780928 0.009814019113592184 -0.015589394955924998 -0.0013271602824973974 -0.0009194931093394373 0 0 0 0
38813874 0.009822089046970392 -0.015488220083659838 -0.001304197333658559 -0.0009316959628106922 0 0 0 0
38846820 0.009748577197326098 -0.015553077533258984 -0.001321006032576165 -0.0009243396657816465 0 0 0 0
38879766 0.009771202929149092 -0.01563097395316662 -0.0013345525460000483 -0.0009087466010919739 0 0 0 0
38912712 0.009738444618328375 -0.015573590333404476 -0.001316950016842511 -0.0009350728440726174 0 0 0 0
38945658 0.009829220760559938 -0.015615977596139806 -0.0013319980873612756 -0.0009414217407659378 0 0 0 0
38978604 0.009741789039472462 -0.015616291085089357 -0.0013192502183929772 -0.0009418104304701034 0 0 0 0
39011550 0.00980729881775752 -0.015723059059059328 -0.0013301198601639499 -0.00093070337363757 0 0 0 0
39044496 0.009819284365774896 -0.015630850915256834 -0.0013216120759453256 -0.0009247469232413928 0 0 0 0
39077442 0.009805040969140035 -0.01564384041156134 -0.0013271774055158372 -0.0009339351794076352 0 0 0 0
39110388 0.009842496514412975 -0.01570854259563588 -0.0013124101452752363 -0.0009176007947693074 0 0 0 0
39143334 0.009746838550945837 -0.01582287113841365 -0.0013220569066721773 -0.0009258188824730251 0 0 0 0
39176280 0.009828020035570728 -0.015771755168316772 -0.0013388723360619678 -0.0009438537741482443 0 0 0 0
39209226 0.009849494705046606 -0.01573444159260891 -0.0013262350226771846 -0.0009271078135340516 0 0 0 0
39242172 0.009706267630283065 -0.01568951514890244 -0.0013608013490065017 -0.0009539709278342968 0 0 0 0
39275118 0.009752477768247704 -0.015752770141904692 -0.0013530458204642222 -0.0009067194572121727 0 0 0 0
39308064 0.009824218222525978 -0.01577316453906874 -0.0013321495248120412 -0.0009263674685472641 0 0 0 0
39341010 0.00985357393121653 -0.015758507133164255 -0.001336955306808024 -0.0009133524023640088 0 0 0 0
39373956 0.009835964170307446 -0.01580280343542352 -0.0013420914776320337 -0.000924205393899543 0 0 0 0
39406902 0.009811863056734677 -0.01586003261667191 -0.0013378989700009755 -0.000928606078389292 0 0 0 0
39439848 0.009764194091648713 -0.015826059963481368 -0.0013402059535363344 -0.0009397450427055688 0 0 0 0
39472794 0.009797278742553116 -0.01585001509569744 -0.0013406897154133012 -0.000928052687001376 0 0 0 0
39505740 0.009741056828962343 -0.015888014453134237 -0.0013363108016865802 -0.0009484757745525586 0 0 0 0
39538686 0.00976881072715494 -0.015873880690849544 -0.0013427265565387962 -0.0009352198678249916 0 0 0 0
39571632 0.009814100486170547 -0.015849824163179815 -0.001340530588346976 -0.0009403181599270261 0 0 0 0
39604578 0.009707389546754647 -0.01598695963847077 -0.00135290694780241 -0.00093006679031238 0 0 0 0
39637524 0.009862072215180004 -0.015847645102635127 -0.0013250392515487108 -0.0009503054634767414 0 0 0 0
39670470 0.009915146596324866 -0.01593174360433918 -0.0013331411445937056 -0.0009490129662768164 0 0 0 0
39703416 0.0099068739238016 -0.015916657554725717 -0.0013631871555702013 -0.0009340919786132998 0 0 0 0
39736362 0.00988069695432076 -0.015963068007976974 -0.0013308933730479743 -0.0009525150802025285 0 0 0 0
39769308 0.009817084449549348 -0.016011323691155873 -0.0013493364277172553 -0.0009498884364772825 0 0 0 0
39802254 0.009837159505359327 -0.0159338532766515 -0.0013564920293560531 -0.0009362717811888556 0 0 0 0
39835200 0.00984890617091856 -0.015917666472968516 -0.0013541562896251537 -0.0009318651829156278 0 0 0 0
39868146 0.009763810326106116 -0.015961076432823636 -0.0013382507476536894 -0.0009555704396100629 0 0 0 0
39901092 0.009835551978443994 -0.01604252383149168 -0.0013692806591188097 -0.0009501783641555694 0 0 0 0
39934038 0.009720947641505988 -0.01606632064509701 -0.0013503880128656286 -0.0009593211497890923 0 0 0 0
39966984 0.009843288463226163 -0.016060167107434384 -0.0013510694780148045 -0.0009239757515402967 0 0 0 0
39999930 0.009773374916240161 -0.016109988709451514 -0.001356776684747679 -0.0009510275659975805 0 0 0 0
