# HZ S RI R 50
300000 -0.562326768995999 -0.010569859720609379 0.005092111318850818 -0.05016957452378463 0 0 0 0
332946 -0.5444708177522868 0.056059730247040584 0.053614547705827575 -0.010567636448895617 0 0 0 0
365892 -0.5058917321207239 0.08274616347311498 0.09866048490316524 -0.0072025400728817895 0 0 0 0
398838 -0.47547318563014845 0.08633346271689775 0.1267015155762109 -0.017682399633162087 0 0 0 0
431784 -0.47390601660210724 0.06388400649902318 0.16664928013215397 0.07459711308055203 0 0 0 0
464730 -0.45721234182309795 0.06066597342628874 0.1838665033826562 0.07016458364722947 0 0 0 0
497676 -0.45136421057291326 0.05436511630059558 0.19595635750110113 0.06521382770415368 0 0 0 0
530622 -0.4450824640883878 0.0500211025445795 0.20441726879441055 0.060373183117047924 0 0 0 0
563568 -0.44077780050706644 0.0470299920787298 0.21082048359200609 0.05586370935606036 0 0 0 0
596514 -0.43698215763006615 0.04428790398872077 0.21570623030544514 0.051991248174387154 0 0 0 0
629460 -0.43408873217504235 0.04163451787475895 0.21927580751431774 0.048549857891069546 0 0 0 0
662406 -0.43170692069832595 0.03938079443744927 0.22237468562395066 0.045705893040451404 0 0 0 0
695352 -0.429533241611237 0.03755904278225059 0.22469027092520402 0.04305027387194277 0 0 0 0
728298 -0.42807473914629157 0.03588059903502804 0.22665887514820626 0.04069351460716738 0 0 0 0
761244 -0.42614285880773406 0.034360151146199135 0.22805881086661214 0.03856173376051675 0 0 0 0
794190 -0.4245726948949619 0.03305749377152591 0.2291956909649167 0.03652410558378537 0 0 0 0
827136 -0.42343377189296477 0.031625024927575254 0.23071278601926212 0.03488502040784389 0 0 0 0
860082 -0.4223076209560096 0.03041363010848191 0.2315749515248336 0.03328399470377787 0 0 0 0
893028 -0.421347696465488 0.029205927099772676 0.2324006769215794 0.031895924090694146 0 0 0 0
925974 -0.42050346725730336 0.028316989955923924 0.23315933507093184 0.03047381890047319 0 0 0 0
958920 -0.41974338986695864 0.027270575976705812 0.23387659677771644 0.02916111152481758 0 0 0 0
991866 -0.4190338029148306 0.02643972386246705 0.23444697597130248 0.02798286384650271 0 0 0 0
1024812 -0.4183148007377481 0.02513060384781678 0.23484909455711064 0.027213218682059042 0 0 0 0
1057758 -0.4178426727022959 0.024527745201293735 0.2354919045182973 0.02609675118989563 0 0 0 0
1090704 -0.4174897181795046 0.02343094986688689 0.23591540252566115 0.025123096676386934 0 0 0 0
1123650 -0.41695161007060755 0.022962665559511153 0.2362517356362634 0.024350776983906385 0 0 0 0
1156596 -0.4163774469646244 0.02239829362748741 0.23669253969956142 0.02347735203567231 0 0 0 0
1189542 -0.4155492766954082 0.021579020545884963 0.2368378591906878 0.022686828282405758 0 0 0 0
1222488 -0.4156552193153475 0.020670340039481153 0.23738757190168863 0.02221495261828351 0 0 0 0
1255434 -0.41572066792670054 0.020196307371719322 0.23756335880355686 0.021354780256102136 0 0 0 0
1288380 -0.415437250410477 0.01947846634420757 0.23771487558964283 0.020645135926430042 0 0 0 0
1321326 -0.4148627836506606 0.019329115623579713 0.23804352718122604 0.0201015112256131 0 0 0 0
1354272 -0.4143923437393353 0.019139942366207904 0.2381877027298255 0.019404605846651445 0 0 0 0
1387218 -0.4142538484335032 0.017966899999050125 0.23838370958568228 0.018822065552213066 0 0 0 0
1420164 -0.4142390888778329 0.017496785835529462 0.2386267403637847 0.018411174024669096 0 0 0 0
1453110 -0.4141005801329397 0.016983728178053947 0.23875597423773628 0.017694716571325247 0 0 0 0
1486056 -0.4144000708175349 0.01643257172524349 0.23892861443626792 0.017327254032865762 0 0 0 0
1519002 -0.4144055900766638 0.016441303873889555 0.23921353908755283 0.01676695978870793 0 0 0 0
1551948 -0.41405579063728576 0.01617332794729729 0.23921384406437962 0.016278720171190364 0 0 0 0
1584894 -0.413610263221136 0.01559468492808957 0.23917528680162758 0.015883171302327928 0 0 0 0
1617840 -0.4138055789957007 0.01508304660585527 0.2395332067655116 0.015474489452862564 0 0 0 0
1650786 -0.41390200942497246 0.014941364527872703 0.23953921531360936 0.014830046982818182 0 0 0 0
1683732 -0.41403327588937283 0.014375900914972144 0.23977836676261513 0.014540039465396285 0 0 0 0
1716678 -0.41374824130092525 0.01446929176420573 0.2397535783933518 0.014114782648356954 0 0 0 0
1749624 -0.41354180605878366 0.014533502879168053 0.23983393496712616 0.013553357653808048 0 0 0 0
1782570 -0.41367084237361035 0.01418846082845584 0.23996729440382905 0.013214717667555265 0 0 0 0
1815516 -0.4135286508593064 0.013703715085965509 0.23995583556981714 0.012980954280478199 0 0 0 0
1848462 -0.4136600318634487 0.013319358845514648 0.24022198995137217 0.012601696895054987 0 0 0 0
1881408 -0.4135983628972859 0.012908842180059957 0.2402340755252967 0.012244477317647677 0 0 0 0
1914354 -0.4136791420054169 0.01295208314659544 0.24025943215407752 0.01177341972894393 0 0 0 0
1947300 -0.4136298588552762 0.01298746056780416 0.24032693241734823 0.011602940018123377 0 0 0 0
1980246 -0.41382421944384573 0.012673677100009124 0.24021491608323262 0.011204885662630849 0 0 0 0
2013192 -0.4135142468812174 0.012659529883014907 0.24038696324201325 0.01079937347134632 0 0 0 0
2046138 -0.41387942293337304 0.012469997071467884 0.2405768031592865 0.010479065403298371 0 0 0 0
2079084 -0.41374224021747635 0.012409280173540553 0.24068296016583648 0.010154144815567685 0 0 0 0
2112030 -0.41378845684573784 0.012016500219824346 0.24067281632427762 0.009909348153300402 0 0 0 0
2144976 -0.4141967240231914 0.01217207204904591 0.24087184728351912 0.009531210221574774 0 0 0 0
2177922 -0.4139966375034631 0.012111908560467026 0.24083264156573264 0.0094278318858202 0 0 0 0
2210868 -0.4138889942522505 0.011781852311264229 0.24084081649523378 0.009110224785380733 0 0 0 0
2243814 -0.4139667615605054 0.011991335206858642 0.2408254493024483 0.008698073340118729 0 0 0 0
2276760 -0.4139468988050458 0.01176535614477451 0.24092365399591628 0.008294207529008705 0 0 0 0
2309706 -0.41391308775985813 0.011804349290043805 0.24101258407700205 0.008165454264768255 0 0 0 0
2342652 -0.41402559182888016 0.011603973303111068 0.24088454587254732 0.007958889643478111 0 0 0 0
2375598 -0.4140594868838125 0.01144485332363478 0.2411133643420225 0.007534919607429439 0 0 0 0
2408544 -0.4143635688850844 0.011457193439168673 0.24125208417339553 0.007274022489370698 0 0 0 0
2441490 -0.41426470969654694 0.01155118045275575 0.2411857116179775 0.0069732306802365454 0 0 0 0
2474436 -0.4140791714938906 0.011325135978206977 0.2409661439047404 0.006820687305651011 0 0 0 0
2507382 -0.4139851026553168 0.011340062447901715 0.24108429464429032 0.006593408207155055 0 0 0 0
2540328 -0.41389623028238387 0.011421316718851156 0.24121650539728193 0.006360275896333801 0 0 0 0
2573274 -0.41443227729270893 0.011456222261472708 0.24132784820753447 0.006134401988427406 0 0 0 0
2606220 -0.4144162121244821 0.011349786700402289 0.24129014785161906 0.0057860243402924495 0 0 0 0
2639166 -0.4143965974309018 0.011339861814615368 0.24124993875259218 0.005520400468792535 0 0 0 0
2672112 -0.41395162213167375 0.011402651933403883 0.24132151204848212 0.0052410659022041626 0 0 0 0
2705058 -0.4139967874507725 0.011613456112695715 0.24124235968650373 0.004974002229346766 0 0 0 0
2738004 -0.414102886959333 0.011443296848052379 0.24137271390065396 0.004826097024088814 0 0 0 0
2770950 -0.41419484943883966 0.011629522510590866 0.2414912075274452 0.0045975902304234775 0 0 0 0
2803896 -0.4143073071909372 0.011468111534413399 0.24133556798901096 0.004348827292444906 0 0 0 0
2836842 -0.4139047511372928 0.011199568461734772 0.2412717532231774 0.004184320684847455 0 0 0 0
2869788 -0.4142533411981413 0.011496492325011586 0.24147694817064969 0.0038692502525391826 0 0 0 0
2902734 -0.414014105622836 0.011798377396795082 0.24134281647254713 0.0036403087483424567 0 0 0 0
2935680 -0.4142959162570007 0.011436254508397229 0.24149683804102548 0.003483706240344463 0 0 0 0
2968626 -0.41458235937850163 0.0117160253896566 0.24143401928465683 0.0033121510019461283 0 0 0 0
3001572 -0.4140636135809065 0.01149954754545471 0.2414578141116601 0.0029824038037659074 0 0 0 0
3034518 -0.41411939238957474 0.011607245318987774 0.24156650705777397 0.0027491288956862855 0 0 0 0
3067464 -0.4144814578602636 0.011856954909210755 0.24158474193036922 0.002659898329928907 0 0 0 0
3100410 -0.4142915781190525 0.011961488411587074 0.2413924346871536 0.0024109505011061065 0 0 0 0
3133356 -0.4142444637028967 0.011532380449030736 0.24157608399940392 0.002177206182838035 0 0 0 0
3166302 -0.4140337253759328 0.011673257531384174 0.24142781466060806 0.0019443049481596242 0 0 0 0
3199248 -0.41411014088997444 0.011835043877266466 0.2414617516112449 0.0018766256859105964 0 0 0 0
3232194 -0.41442031325231043 0.012059563820913796 0.24153029462781447 0.0015373433006072863 0 0 0 0
3265140 -0.4142588081842177 0.012115009001921327 0.24151363509226517 0.0013499865915263564 0 0 0 0
3298086 -0.4146991368959089 0.012151188734725801 0.24162849801609335 0.0012438038434388705 0 0 0 0
3331032 -0.41416835500074634 0.011995424283418965 0.24153611081572166 0.0010481718761965694 0 0 0 0
3363978 -0.4140428604795857 0.012109692952254609 0.24143302735559247 0.0008507742624456572 0 0 0 0
3396924 -0.414293056036912 0.012254453138178441 0.2415849890796309 0.0006517754019631516 0 0 0 0
3429870 -0.4142590387522285 0.012416745060914879 0.2416408774391514 0.00029125076054792266 0 0 0 0
3462816 -0.4142856546791828 0.01244236739563731 0.24144953245740816 0.00018632073631090994 0 0 0 0
3495762 -0.41419385410075066 0.012378086607231008 0.24160955062223474 7.712672340017489e-05 0 0 0 0
3528708 -0.4140991860290513 0.012323497644616096 0.24153249847403463 -0.00027985133902409354 0 0 0 0
3561654 -0.41399862247118974 0.012652288762566244 0.24148045061513038 -0.0003665560582175201 0 0 0 0
3594600 -0.41409720998127725 0.012826405426840014 0.24147977264165754 -0.0004885604408058316 0 0 0 0
3627546 -0.41386524993279966 0.012471656991008254 0.2416327154294927 -0.0007469420558132837 0 0 0 0
3660492 -0.41453356683969256 0.013184548028467774 0.24161529947353122 -0.0009973904932871014 0 0 0 0
3693438 -0.4141603399626126 0.012731322647223547 0.24161113529827943 -0.0011983092419097423 0 0 0 0
3726384 -0.413786469643356 0.012773602926573096 0.2415766954769812 -0.0012220613535977184 0 0 0 0
3759330 -0.4145054310051599 0.013046036503572172 0.24179358292112946 -0.001539718229182824 0 0 0 0
3792276 -0.4137806339216062 0.012918003687062902 0.24158370517664507 -0.001692424767753401 0 0 0 0
3825222 -0.4137009767366661 0.012893359652989716 0.2416580139316344 -0.0017982204573217687 0 0 0 0
3858168 -0.41450814142920533 0.013293414032808778 0.24174026710422825 -0.002057664179340617 0 0 0 0
3891114 -0.4137423043029396 0.013107819340153747 0.241584303679279 -0.0022414072717973667 0 0 0 0
3924060 -0.4139476151061016 0.01324794951412656 0.24157862044849332 -0.0023467459952258977 0 0 0 0
3957006 -0.413529430475939 0.013243081527519395 0.24142876316071346 -0.0025436445140390616 0 0 0 0
3989952 -0.41338980967375605 0.013261371027973642 0.2413796007905467 -0.002650270661617873 0 0 0 0
4022898 -0.4137431229541012 0.013348021499227173 0.2415785422837683 -0.0029414437418974187 0 0 0 0
4055844 -0.413527703749553 0.013764241954589198 0.24138196590918867 -0.0030676835155649413 0 0 0 0
4088790 -0.4137919895672938 0.013521707355501294 0.2417007859763474 -0.0033121161377948362 0 0 0 0
4121736 -0.4138382396795671 0.01353042095590619 0.24165688358758305 -0.0033679103818319415 0 0 0 0
4154682 -0.41344447746441587 0.013669682111557504 0.2415060454947806 -0.0036093670512121136 0 0 0 0
4187628 -0.41384108570893396 0.01358148265489598 0.2416442450969781 -0.003695109621258145 0 0 0 0
4220574 -0.4133837537373106 0.013928087602135158 0.2414357987450712 -0.0038985526027409236 0 0 0 0
4253520 -0.4136341824017829 0.013906206293395132 0.2415275011881228 -0.004090253256767301 0 0 0 0
4286466 -0.4136405972231917 0.013859224187241236 0.24159342307223922 -0.004281201439918423 0 0 0 0
4319412 -0.413803265913009 0.014069762853767485 0.24158519986625407 -0.004374287844546062 0 0 0 0
4352358 -0.413253466934339 0.014235706879104814 0.24142306132140354 -0.0046014648602231275 0 0 0 0
4385304 -0.41334957884860063 0.014153078329846809 0.24153859037376285 -0.004692639891300613 0 0 0 0
4418250 -0.4135059616321471 0.014320581365771846 0.24150974116318907 -0.004977401243359943 0 0 0 0
4451196 -0.4131737284662477 0.014146419153200918 0.24161052299195582 -0.0049307869514073005 0 0 0 0
4484142 -0.4134133530766645 0.01465407542948938 0.24162221904434428 -0.0053000459060404854 0 0 0 0
4517088 -0.41352784539560766 0.01463319539422377 0.2415965474165953 -0.005542372029081497 0 0 0 0
4550034 -0.4133904140284883 0.014310173875340953 0.2414227025987611 -0.005453393872225682 0 0 0 0
4582980 -0.4136122585634101 0.014665363209303967 0.24164359190168413 -0.005668502519126937 0 0 0 0
4615926 -0.4129068513020873 0.014417033659329795 0.24149359536629827 -0.005816126022750058 0 0 0 0
4648872 -0.4135456342963988 0.01466734206490204 0.2415391881277098 -0.006070222017104626 0 0 0 0
4681818 -0.4132328578428185 0.01486372317215837 0.24154665267716038 -0.006334017801658058 0 0 0 0
4714764 -0.41297902898247935 0.014600044933816201 0.24147872958443198 -0.006330566038456029 0 0 0 0
4747710 -0.4131070524525452 0.014882194486627979 0.24144858849875397 -0.00644446886891008 0 0 0 0
4780656 -0.41303909503315067 0.014780843554029794 0.24149534865910405 -0.006679589188804133 0 0 0 0
4813602 -0.41297098722060926 0.015013021428950784 0.2414832667825942 -0.006796441211950135 0 0 0 0
4846548 -0.41316128473522595 0.015058631149368716 0.2414479135155811 -0.006993330567760622 0 0 0 0
4879494 -0.41285950049077585 0.015040022632781804 0.2415188092335884 -0.007102052327267688 0 0 0 0
4912440 -0.4131440893008613 0.015324396748987527 0.24146541362939558 -0.007299434637418863 0 0 0 0
4945386 -0.4128234923841552 0.014974921955762936 0.24144525928555116 -0.007441594557206809 0 0 0 0
4978332 -0.41277566028315277 0.015196895957028684 0.24155648633848795 -0.00762541866729461 0 0 0 0
5011278 -0.4131631597918971 0.015362480303611478 0.24157688453865633 -0.007843101537605372 0 0 0 0
5044224 -0.4129368566398482 0.015358245974790635 0.24145908087733625 -0.00799177152491745 0 0 0 0
5077170 -0.41275447230898876 0.015322793973346632 0.24147858225184454 -0.00803801364150834 0 0 0 0
5110116 -0.4131221986910999 0.015547593647848681 0.24136679803686562 -0.008134534329103953 0 0 0 0
5143062 -0.4125900874687932 0.015535761104058677 0.24143114548804315 -0.008387970976605699 0 0 0 0
5176008 -0.4125034625768173 0.01562606119341993 0.24141336316969317 -0.008498165634043035 0 0 0 0
5208954 -0.4126623899694706 0.015548189214980974 0.2414781569563867 -0.008614800937684885 0 0 0 0
5241900 -0.4127301505823669 0.01545447350511392 0.2413945151946931 -0.008775109001732713 0 0 0 0
5274846 -0.4124779561195012 0.015692498413589266 0.24131188059856157 -0.009004914956647311 0 0 0 0
5307792 -0.41261308205882813 0.015546546993864157 0.241407193230139 -0.009062022704739145 0 0 0 0
5340738 -0.41278410642255203 0.01582847792042658 0.24139357496383723 -0.00925678144207771 0 0 0 0
5373684 -0.4124325423831376 0.01582914389670645 0.24144357066608696 -0.009408691481040106 0 0 0 0
5406630 -0.4124999795922311 0.015967985745981742 0.24142568730056901 -0.009599457918438602 0 0 0 0
5439576 -0.4123922465006052 0.016140007485382964 0.24138397126279748 -0.009779249874092621 0 0 0 0
5472522 -0.4122252305391447 0.015687328059803055 0.2411763855971738 -0.009734134013791805 0 0 0 0
5505468 -0.4124603419835276 0.016000434008257073 0.24133144296348608 -0.010083405428749378 0 0 0 0
5538414 -0.4122855356103024 0.015885897901116115 0.24133935614401927 -0.0101983801302333 0 0 0 0
5571360 -0.4122499497101409 0.0162046772816507 0.2412478003728897 -0.010123981967502053 0 0 0 0
5604306 -0.41233949580689555 0.016040982311456606 0.24121303034855837 -0.010349395279763456 0 0 0 0
5637252 -0.41236173227401873 0.016089408076726926 0.24129164206316805 -0.010583663170234592 0 0 0 0
5670198 -0.4120357370193181 0.016158007807486392 0.24124786495728137 -0.010649523197629573 0 0 0 0
5703144 -0.41227085452624573 0.01631216700017607 0.24141818420932856 -0.01089816139743361 0 0 0 0
5736090 -0.41223890444094996 0.01625284195015367 0.24131297110787314 -0.011009677494280506 0 0 0 0
5769036 -0.4119813463655453 0.01613188884488664 0.24120403174929303 -0.011198303476596765 0 0 0 0
5801982 -0.41177395688463636 0.01619956013120876 0.24115999318663123 -0.011212728947470108 0 0 0 0
5834928 -0.4121931138889567 0.016310764325333883 0.2412520938355142 -0.011528828725491764 0 0 0 0
5867874 -0.4123109192339669 0.016366928669495566 0.24124332485955016 -0.011597760621197918 0 0 0 0
5900820 -0.41215443186906564 0.016376349185316143 0.24130981867934642 -0.011724673160238938 0 0 0 0
5933766 -0.4117739066137012 0.016214779742760668 0.2410581306873254 -0.01185600269709402 0 0 0 0
5966712 -0.41169248186787977 0.016241171861066536 0.24092035628252348 -0.011989135954781044 0 0 0 0
5999658 -0.4121323144748414 0.016363940091227092 0.24130129201381903 -0.012186506928602401 0 0 0 0
6032604 -0.41189983473972275 0.016283552578054337 0.2411165054628565 -0.012233996747043315 0 0 0 0
6065550 -0.4119860552092013 0.016403280821042327 0.24110825024201357 -0.012575114994977859 0 0 0 0
6098496 -0.4122176061431451 0.01644076187008638 0.24118187053569548 -0.0126438160926873 0 0 0 0
6131442 -0.411940037849204 0.016328104352504407 0.2411434861673011 -0.012691493225246651 0 0 0 0
6164388 -0.4117829165493439 0.016313699607031606 0.2409128364111103 -0.012906790834133429 0 0 0 0
6197334 -0.4120220691962079 0.016328685822558017 0.24105120637318897 -0.012974198895160596 0 0 0 0
6230280 -0.4117344996729491 0.016433531637031356 0.24100482761449163 -0.013064280869578001 0 0 0 0
6263226 -0.4119841445281816 0.016331229343388865 0.24107600643359817 -0.01335543667930001 0 0 0 0
6296172 -0.4120244558483882 0.016260090445190323 0.24106897406249972 -0.01337381202692591 0 0 0 0
6329118 -0.4118607124285796 0.016091571231235103 0.24089557069790266 -0.013559046098784338 0 0 0 0
6362064 -0.4119672982461789 0.016111180108108088 0.24104204213276373 -0.013723257829732355 0 0 0 0
6395010 -0.4121398503594679 0.01598190976096332 0.2409539829700092 -0.013763624213447961 0 0 0 0
6427956 -0.4123219473355541 0.01603572426782398 0.24101625557934767 -0.013976139854168249 0 0 0 0
6460902 -0.41258672281089265 0.015906219961845422 0.24092089348573523 -0.014133990364970175 0 0 0 0
6493848 -0.412391865358327 0.01572350349543791 0.24106387841079122 -0.014225088061302026 0 0 0 0
6526794 -0.41258028291902343 0.01576818674657406 0.24094770999917065 -0.014471562900413166 0 0 0 0
6559740 -0.41247155354247506 0.015583087111372436 0.24084340216134084 -0.014464201750236202 0 0 0 0
6592686 -0.41274758995739363 0.015562707127905417 0.24099672009912043 -0.014766392977309209 0 0 0 0
6625632 -0.4127630012708603 0.015314931818487048 0.24090623157301413 -0.014745625054354193 0 0 0 0
6658578 -0.4131095636723951 0.014879321542896978 0.24079685476988677 -0.014895387000833748 0 0 0 0
6691524 -0.4133905632594268 0.014897884626589959 0.24084908556496093 -0.015050221169132015 0 0 0 0
6724470 -0.4140012902916069 0.014707605091619577 0.2407671945177667 -0.015416542096009084 0 0 0 0
6757416 -0.41439025470199337 0.014409357115643418 0.24085933153556968 -0.015383577926067484 0 0 0 0
6790362 -0.4147016831957785 0.014100748398780664 0.24064982695872184 -0.015511653707139474 0 0 0 0
6823308 -0.41551192843803786 0.014069301856912138 0.24077238766655518 -0.015777823998050545 0 0 0 0
6856254 -0.41653317655061656 0.013716579147514903 0.2406745847739567 -0.01583835333627916 0 0 0 0
6889200 -0.41773258599543317 0.013766725719660318 0.2407745123252604 -0.015984305064747305 0 0 0 0
6922146 -0.417824044410928 0.011287489675703331 0.24155376194020403 -0.019503617095134856 0 0 0 0
6955092 -0.41879653753734913 0.011849382300904212 0.2413561517911753 -0.019542929317922415 0 0 0 0
6988038 -0.42080080662910774 0.012600021003608164 0.24130002203042042 -0.019548722213570208 0 0 0 0
7020984 -0.4222355372730647 0.014526432625853916 0.24126831025794837 -0.019767003436114053 0 0 0 0
7053930 -0.42335640638704025 0.01674614452336936 0.24111674539796174 -0.01972638993297483 0 0 0 0
7086876 -0.42351939264550387 0.019907522020422022 0.24123156733373138 -0.019892295522302268 0 0 0 0
7119822 -0.42272236537344776 0.0226566349356344 0.24119225551579365 -0.02000029721038941 0 0 0 0
7152768 -0.42094685175573204 0.024684615180714665 0.24122834416593508 -0.019916384353463133 0 0 0 0
7185714 -0.41911841805846234 0.026012928698821366 0.24119669948423875 -0.020089160759412944 0 0 0 0
7218660 -0.4172382102458421 0.026757289032761415 0.24139743415421955 -0.02041113650986489 0 0 0 0
7251606 -0.41552274750583446 0.026744105564991925 0.24130768769800326 -0.020345235184240612 0 0 0 0
7284552 -0.4142107967340946 0.026567695262148115 0.241369365391742 -0.02056317982009544 0 0 0 0
7317498 -0.4130016651779272 0.026128105739598107 0.24118543011782526 -0.020596220597157773 0 0 0 0
7350444 -0.4123143320069 0.02589293637467624 0.24134789070223295 -0.020777301366946013 0 0 0 0
7383390 -0.4116643737998185 0.02547185806413652 0.24117707164166033 -0.020935887625666 0 0 0 0
7416336 -0.411035735332235 0.025245942360955242 0.24144592941992402 -0.02117402191006701 0 0 0 0
7449282 -0.41060123107541385 0.0247725690700178 0.2412923444809727 -0.021138158188098624 0 0 0 0
7482228 -0.41001908462036263 0.024672333637796612 0.24118031111600555 -0.021322035332529365 0 0 0 0
7515174 -0.41006976417235536 0.02448984678010937 0.24133230674686088 -0.021600441779630445 0 0 0 0
7548120 -0.40974410055920696 0.024035397031471676 0.24122267631969682 -0.02167317180513623 0 0 0 0
7581066 -0.4094505335316938 0.0241909420416566 0.2413149124014751 -0.02188844424155296 0 0 0 0
7614012 -0.40931687257167926 0.02378628872673488 0.2413344396737665 -0.02194134951017549 0 0 0 0
7646958 -0.4093675937298195 0.02375049245471728 0.24135501018620778 -0.022065348266076763 0 0 0 0
7679904 -0.4089953167151529 0.023551433417944315 0.2411652803395491 -0.0222423317770557 0 0 0 0
7712850 -0.4090251018970541 0.023405533495254247 0.2412446246139847 -0.022363706742151115 0 0 0 0
7745796 -0.4086506430879669 0.023292755135381905 0.2412116539058378 -0.022388224132829624 0 0 0 0
7778742 -0.4086840600918698 0.02297184766211598 0.24107355413456283 -0.022554266034151553 0 0 0 0
7811688 -0.40858131052941793 0.02280911980491735 0.2411308741970076 -0.022666469174513697 0 0 0 0
7844634 -0.408452069351651 0.022672495176429434 0.24118138491578894 -0.022876570480155643 0 0 0 0
7877580 -0.40848620855230455 0.022773431974404068 0.2411846312238556 -0.02307050693731824 0 0 0 0
7910526 -0.408334079191426 0.022810710979484665 0.241058845060657 -0.023117640234177794 0 0 0 0
7943472 -0.4084512222306682 0.022806418851411225 0.24114096519684775 -0.02330425882278368 0 0 0 0
7976418 -0.40823060367482106 0.022687953021473934 0.2409864820490125 -0.023309544990528563 0 0 0 0
8009364 -0.4080852137412744 0.022819970331103525 0.2412079336346805 -0.02362342318292198 0 0 0 0
8042310 -0.4081658695499086 0.02264768567697604 0.24117494546431031 -0.02371334911695788 0 0 0 0
8075256 -0.4079097384777274 0.02259474556624418 0.24091792104627394 -0.023680132317333742 0 0 0 0
8108202 -0.4080231041548845 0.02265747405347073 0.24098088069646786 -0.023900118206342864 0 0 0 0
8141148 -0.40818218552231833 0.022748453373993546 0.24115750605651926 -0.024009781386955673 0 0 0 0
8174094 -0.40763609465511547 0.022664293911060365 0.24088153713315144 -0.024156070189430508 0 0 0 0
8207040 -0.40776601562769066 0.022625565140532725 0.24091404141290704 -0.024249841055503967 0 0 0 0
8239986 -0.40783776133314076 0.022433651485458603 0.2409502898849899 -0.02433953303106046 0 0 0 0
8272932 -0.407809380531926 0.0227388662614627 0.24098111116890372 -0.02467021640677332 0 0 0 0
8305878 -0.40776510796086085 0.022751735625289597 0.2409050333702345 -0.024679414023866652 0 0 0 0
8338824 -0.40785033231762874 0.022654518594413024 0.2410382737014347 -0.024822862012139672 0 0 0 0
8371770 -0.40774404541228254 0.0227751552661675 0.2410058351728661 -0.024978160774910652 0 0 0 0
8404716 -0.40761160258977 0.02279970125558512 0.24086148106587846 -0.025090318093966776 0 0 0 0
8437662 -0.4075058028382984 0.022827882188917913 0.24083909871662032 -0.025222037941839203 0 0 0 0
8470608 -0.40760907332829205 0.022512215032045788 0.24086139482519742 -0.02522486088657932 0 0 0 0
8503554 -0.40756892262946964 0.02284779961462425 0.24086352765991453 -0.02549225055096655 0 0 0 0
8536500 -0.4075979763695023 0.02291559776878646 0.24091777363607814 -0.02567061629444453 0 0 0 0
8569446 -0.40751308761708666 0.02274649280629515 0.2409438969650688 -0.02566991301502139 0 0 0 0
8602392 -0.4074230053335614 0.02275389922814677 0.24078980661442848 -0.02584663452629001 0 0 0 0
8635338 -0.4073461301876889 0.022935314913152916 0.24065830447324194 -0.026017097495086648 0 0 0 0
8668284 -0.4074540099066805 0.02290519340018381 0.2408426238764546 -0.02624266614265012 0 0 0 0
8701230 -0.40734275446201923 0.022986489237282706 0.24075368773005953 -0.026243778307397006 0 0 0 0
8734176 -0.4073074335035873 0.02280097494004916 0.24079057019691305 -0.026335123921182046 0 0 0 0
8767122 -0.40743145344972553 0.023057813257120675 0.24082359547807553 -0.026486072555530836 0 0 0 0
8800068 -0.40703901063722137 0.02293875494767993 0.24046946683816198 -0.026546836901821143 0 0 0 0
8833014 -0.40729810696246055 0.022884933605323034 0.24076724039802108 -0.026768690002352824 0 0 0 0
8865960 -0.40703517515699783 0.022978743313943402 0.24063103724500967 -0.02690022193292136 0 0 0 0
8898906 -0.4070850945650986 0.023044824666877683 0.2406781034643829 -0.02697837439526714 0 0 0 0
8931852 -0.40718620614103135 0.02314151832568478 0.24061805790070806 -0.02723453831096983 0 0 0 0
8964798 -0.40690128102518075 0.023136973512112798 0.24055930924140667 -0.027251032239282286 0 0 0 0
8997744 -0.40701712316890015 0.02320173128889102 0.24062198327137785 -0.02739520806308785 0 0 0 0
9030690 -0.4070456747007868 0.02317622609888418 0.2405461935456345 -0.027389233265219356 0 0 0 0
9063636 -0.40706341400753393 0.023334177745706824 0.24052006109088664 -0.027712832841046253 0 0 0 0
9096582 -0.40702570073407446 0.023290976994341444 0.24050251091416286 -0.027709702848394323 0 0 0 0
9129528 -0.40677960511787903 0.023394917484813618 0.24048155149524256 -0.027920136011283285 0 0 0 0
9162474 -0.40685463634448615 0.023532369697556555 0.24061171619259278 -0.028137909808124733 0 0 0 0
9195420 -0.40688400468028735 0.023368693360697166 0.2404697660232288 -0.02811612244680969 0 0 0 0
9228366 -0.40658838973332645 0.02337077409485245 0.24026332079083626 -0.0282354920201301 0 0 0 0
9261312 -0.4066842830543979 0.02345890506787736 0.24046282142888933 -0.02847807051173753 0 0 0 0
9294258 -0.40681760992299104 0.023596581632404787 0.24041863521118317 -0.02857728105645317 0 0 0 0
9327204 -0.4067432404012931 0.023569605499663467 0.2403552064312035 -0.0286885163605738 0 0 0 0
9360150 -0.4067290554303161 0.023556642776677836 0.24043231691797565 -0.02866560221403171 0 0 0 0
9393096 -0.4066512436032953 0.023717118181752362 0.24026019130990783 -0.0288138548135029 0 0 0 0
9426042 -0.40648635952509043 0.023708587356263734 0.2403947125355788 -0.0290312389096379 0 0 0 0
9458988 -0.40667440460106347 0.023732559687067174 0.24023432084239862 -0.029068979711083524 0 0 0 0
9491934 -0.4065957274188831 0.024033983321604478 0.240360186949647 -0.029439760907462545 0 0 0 0
9524880 -0.4065794059054644 0.02411456057584275 0.24029725216147743 -0.029364231754621394 0 0 0 0
9557826 -0.406735650668411 0.023884103581591674 0.24038567531387023 -0.029482545687494473 0 0 0 0
9590772 -0.40644246383137517 0.023881383545964748 0.2403005543539424 -0.029723314674042444 0 0 0 0
9623718 -0.4064997982000868 0.023864580032953556 0.24028547230862318 -0.02980855189845691 0 0 0 0
9656664 -0.4064334404088505 0.02392436068465281 0.24023853152281874 -0.029815987386737478 0 0 0 0
9689610 -0.40636514143870456 0.024112884173458964 0.24010547628568354 -0.03001780469162335 0 0 0 0
9722556 -0.406477299769641 0.02407597923734152 0.2402045049062068 -0.03004569099019031 0 0 0 0
9755502 -0.4061831189909316 0.0242456268440912 0.23998523149542172 -0.03021619038901575 0 0 0 0
9788448 -0.4065672030259628 0.02426870207965772 0.24011783061439368 -0.0304360264898275 0 0 0 0
9821394 -0.4061958937898401 0.024097030097015526 0.24006138271552932 -0.030401308186305247 0 0 0 0
9854340 -0.406316515625774 0.024468919067782497 0.2402291064290493 -0.030817055287785767 0 0 0 0
9887286 -0.40637400619639336 0.024382755576849414 0.24005758516759174 -0.030686642980088344 0 0 0 0
9920232 -0.40641461768494896 0.024406391800411747 0.24018568977566557 -0.030858887446419916 0 0 0 0
9953178 -0.4062392952095018 0.0244722427536622 0.2400276138198828 -0.031036341379107657 0 0 0 0
9986124 -0.40632361114337634 0.02458028365647843 0.2400640752125866 -0.031175846998427403 0 0 0 0
10019070 -0.4061945210629073 0.024440873622910853 0.23990079577767612 -0.03120536784168776 0 0 0 0
10052016 -0.4059103671915262 0.024461823236851747 0.2398627681780798 -0.031388491964201334 0 0 0 0
10084962 -0.4062226399253923 0.024606384361683605 0.23995151845537416 -0.03147605754332485 0 0 0 0
10117908 -0.4062862165317576 0.024643735908083948 0.239982416145898 -0.031611566741387265 0 0 0 0
10150854 -0.4060763792707577 0.02471157767401367 0.23980193287676757 -0.03176736694955966 0 0 0 0
10183800 -0.406056865654868 0.024791275390915867 0.2398290422367463 -0.03187993424636376 0 0 0 0
10216746 -0.4061267618811888 0.02504456329513058 0.23993631371139829 -0.03211889903121247 0 0 0 0
10249692 -0.40600533186098275 0.025062128441170905 0.23988965767096687 -0.032112222560860874 0 0 0 0
10282638 -0.40624526318541804 0.025094716521503666 0.23979625279616107 -0.032314862712826756 0 0 0 0
10315584 -0.4060105180563656 0.024983959019087804 0.23988441359767165 -0.032331366320053415 0 0 0 0
10348530 -0.4060672787015771 0.024991215098215523 0.23989949915731443 -0.032421692216861434 0 0 0 0
10381476 -0.4059331142114169 0.025181441345233545 0.23971760107140494 -0.032623840582718486 0 0 0 0
10414422 -0.4059202574672144 0.0250420028249317 0.23962185674476555 -0.03271947060799626 0 0 0 0
10447368 -0.40584801388318925 0.025104985066164636 0.2397606456216723 -0.03291443247754827 0 0 0 0
10480314 -0.40596893645464055 0.02540383116313449 0.23970627873418937 -0.03292695909374501 0 0 0 0
10513260 -0.4060645402300116 0.0252535309211127 0.23970953457776747 -0.03314771092060912 0 0 0 0
10546206 -0.4055963457125598 0.025282606226882123 0.239481301161478 -0.033262059425844266 0 0 0 0
10579152 -0.4058123448666066 0.025409731858005515 0.23972216045641181 -0.033277583980328124 0 0 0 0
10612098 -0.40578861583844594 0.025579719895319892 0.23971089442360002 -0.03344268139118505 0 0 0 0
10645044 -0.4061316578766931 0.025621612494258008 0.23967808877459512 -0.03357492555365248 0 0 0 0
10677990 -0.40567465983160034 0.025779499439189047 0.2395940092004981 -0.033729815733146935 0 0 0 0
10710936 -0.4057490107566135 0.025603260445477203 0.2394750655752741 -0.03391027072847939 0 0 0 0
10743882 -0.40580720709730816 0.025888228159539197 0.23968407159002417 -0.03407168474377996 0 0 0 0
10776828 -0.4057320964861056 0.02591100723763876 0.2395060855976032 -0.03410116352350469 0 0 0 0
10809774 -0.4056938740858876 0.026029096138748126 0.23948178922601865 -0.03419572212618079 0 0 0 0
10842720 -0.40574255492364397 0.02598926220965193 0.239459464781491 -0.03430117288575719 0 0 0 0
10875666 -0.40533707857820833 0.025667290182718308 0.23922429538317638 -0.0343703810049173 0 0 0 0
10908612 -0.4060061449044405 0.026132988219804025 0.23942901391459898 -0.0345659372867272 0 0 0 0
10941558 -0.4056523182974303 0.026120036458029877 0.2394145214651516 -0.034732025957819594 0 0 0 0
10974504 -0.4057128396498257 0.02615468298526747 0.2394095168841288 -0.034881249954625854 0 0 0 0
11007450 -0.40553647623864075 0.02614236169402271 0.2393325513827412 -0.034882956897876134 0 0 0 0
11040396 -0.4057186345137312 0.02616602399861239 0.23934828225064936 -0.035004987560281184 0 0 0 0
11073342 -0.4054440377320781 0.02627207858478803 0.23929049150508772 -0.03520950556499193 0 0 0 0
11106288 -0.40539197389609194 0.02629189447791238 0.23914539850414476 -0.03526809073669734 0 0 0 0
11139234 -0.4055257625282504 0.02648638189894976 0.23936825113899574 -0.03544986008104554 0 0 0 0
11172180 -0.405580495195208 0.026477676954790166 0.23934435013123753 -0.03558402867255045 0 0 0 0
11205126 -0.4053593730939439 0.02647700937904446 0.23911505181103293 -0.035664484364452895 0 0 0 0
11238072 -0.4056599794995564 0.026753775486473362 0.2392455450600543 -0.035938528257120565 0 0 0 0
11271018 -0.4054790449655893 0.026575630353502248 0.23924723678357687 -0.035861433462791116 0 0 0 0
11303964 -0.4055769267984925 0.02662895355119227 0.23925110690859788 -0.036101959262114014 0 0 0 0
11336910 -0.40525660489233617 0.026587251065407727 0.23894919957824448 -0.036106434960687356 0 0 0 0
11369856 -0.40523107790422996 0.026712549375899744 0.2389460933003571 -0.03618484724769116 0 0 0 0
11402802 -0.4052946885324683 0.026767945669623715 0.23909974973207965 -0.03634149737366206 0 0 0 0
11435748 -0.40537896188464145 0.026656331149232108 0.2390605120458038 -0.036452410513638546 0 0 0 0
11468694 -0.40532841707131567 0.026862595006131033 0.2390136038355433 -0.036746925952902375 0 0 0 0
11501640 -0.40536279432624656 0.026920632500864048 0.23908198939643807 -0.03682376009091814 0 0 0 0
11534586 -0.40529607701415243 0.02699994286926732 0.2390480273666555 -0.03686323269472858 0 0 0 0
11567532 -0.40503883995483697 0.027130585162956154 0.23891766704372674 -0.03705206522322908 0 0 0 0
11600478 -0.4050925228209425 0.026957791070883527 0.23885397543777054 -0.037093926960847255 0 0 0 0
11633424 -0.40523824959052773 0.027145959458855194 0.2388843596324092 -0.037258510177750094 0 0 0 0
11666370 -0.40534305754509536 0.02745814070303988 0.2389236528330875 -0.037516235420478876 0 0 0 0
11699316 -0.40523864732536585 0.027262841225778812 0.23891464866911832 -0.03754116661869843 0 0 0 0
11732262 -0.4052566404777929 0.027434475276639253 0.2389323333833193 -0.03757219452748343 0 0 0 0
11765208 -0.4049998848092064 0.027414348606594592 0.23877304794892829 -0.03778620800735752 0 0 0 0
11798154 -0.40520957308338507 0.027417762874436688 0.23886000940129298 -0.03782575172156061 0 0 0 0
11831100 -0.40510283506546685 0.027544263902527632 0.23875323577003602 -0.0380256705968551 0 0 0 0
11864046 -0.4052737107348348 0.027803206812938505 0.23881265370702698 -0.03815260209370933 0 0 0 0
11896992 -0.40526708362619646 0.027636545698917356 0.2387936511966216 -0.038223822288540876 0 0 0 0
11929938 -0.4051713788206211 0.027786384005365143 0.2385671504133596 -0.03827295328230471 0 0 0 0
11962884 -0.4049517108943005 0.027663573384410643 0.2386507649998516 -0.03844313706982613 0 0 0 0
11995830 -0.40503561222230183 0.027764715786968642 0.238703774542178 -0.0385155294801226 0 0 0 0
12028776 -0.40489760612218517 0.027765742742031287 0.23854237864536645 -0.03869036438746799 0 0 0 0
12061722 -0.4051655276562754 0.028122179254176368 0.23864309257270125 -0.038800652961801824 0 0 0 0
12094668 -0.40486427995864493 0.028029145759857956 0.23857200036339016 -0.038943258837611294 0 0 0 0
12127614 -0.4051030904550605 0.028458191707433845 0.23861188468580827 -0.0391417062971319 0 0 0 0
12160560 -0.40510172620432267 0.028140614117127153 0.23866336212596684 -0.03922141373752755 0 0 0 0
12193506 -0.40500371160561943 0.028043765278491457 0.2385901456619845 -0.039324020617799015 0 0 0 0
12226452 -0.4049002334097093 0.028311754321689538 0.23849528030895858 -0.03942125159660998 0 0 0 0
12259398 -0.40505450138540117 0.02842587216170967 0.2385154248960923 -0.03951569876395279 0 0 0 0
12292344 -0.4051146145781313 0.02841409990242343 0.23846599376919292 -0.039634422901253415 0 0 0 0
12325290 -0.4048311450973134 0.028171393544484398 0.23844244103155507 -0.03972283231154657 0 0 0 0
12358236 -0.40489853098254863 0.028360572560222924 0.2384336115694563 -0.039857190214207416 0 0 0 0
12391182 -0.4048183405887088 0.028360398586088527 0.23837653657070856 -0.04004549502698586 0 0 0 0
12424128 -0.4046736344719715 0.02837430444532297 0.23833603134090747 -0.040230975745000605 0 0 0 0
12457074 -0.40500335376514673 0.02864629439194692 0.23840118765411256 -0.040229891419062025 0 0 0 0
12490020 -0.40499939126848983 0.028696395650557496 0.2383104337325215 -0.04035276392993203 0 0 0 0
12522966 -0.4051034404301566 0.028832921933837966 0.2383108702818693 -0.04046447314403976 0 0 0 0
12555912 -0.4048881974478865 0.028950057772469073 0.2381933272203557 -0.040619874670942246 0 0 0 0
12588858 -0.4049401002008942 0.02889185474204845 0.23823570509957692 -0.04076850422670751 0 0 0 0
12621804 -0.4046062862835158 0.028679566197526044 0.23824200303828316 -0.0408908481024573 0 0 0 0
12654750 -0.4047007015479705 0.02902303354932958 0.23824286233123199 -0.04089686377024438 0 0 0 0
12687696 -0.4046287355309839 0.028943263857915423 0.23809504186705663 -0.04114537386179481 0 0 0 0
12720642 -0.40455175240414304 0.029082773081909864 0.23814582611338944 -0.041371682336845794 0 0 0 0
12753588 -0.4046424996848588 0.029217304293108527 0.23824362572223176 -0.04133155861621434 0 0 0 0
12786534 -0.4047741397584662 0.02914923740559275 0.23804986067212486 -0.04145329349521513 0 0 0 0
12819480 -0.40488804624230196 0.029236754704829553 0.23815718163286356 -0.041539052648192326 0 0 0 0
12852426 -0.40444624602397056 0.029331427871577456 0.23807404352184272 -0.04171328085375303 0 0 0 0
12885372 -0.40469123599334306 0.029368146170987312 0.23809794570816248 -0.041834918306616106 0 0 0 0
12918318 -0.40443994694101365 0.029556139175921425 0.23800457820256332 -0.04196623494694834 0 0 0 0
12951264 -0.4046932563700994 0.029551524069924964 0.23787548263440383 -0.04203837874142739 0 0 0 0
12984210 -0.40466845487149056 0.029834608009943808 0.23796092945998784 -0.0422481997581129 0 0 0 0
13017156 -0.40475561015980965 0.02973402591502557 0.23783076931632466 -0.04230814501876176 0 0 0 0
13050102 -0.4044037490994245 0.02948833414679876 0.23788131677791768 -0.04235720620661861 0 0 0 0
13083048 -0.4044911904918316 0.029744715082767957 0.23787231400728043 -0.04248930211414822 0 0 0 0
13115994 -0.4044593138933741 0.02977245092885035 0.2378920851643614 -0.04277724309463061 0 0 0 0
13148940 -0.40464906164950565 0.030034168771830894 0.23790457971150278 -0.04274225542777566 0 0 0 0
13181886 -0.40450302530252413 0.02977695164454006 0.23773058841465694 -0.04288367239294318 0 0 0 0
13214832 -0.4044280869071023 0.030001848840660626 0.23779958165535164 -0.04308571527651368 0 0 0 0
13247778 -0.40465040180654055 0.030265294680883046 0.23779804188341683 -0.04312027508944113 0 0 0 0
13280724 -0.40432429004702525 0.030046849155570557 0.23776959533478279 -0.04321503854991073 0 0 0 0
13313670 -0.4043558170170448 0.03011149989152033 0.23754731960657485 -0.043161884223970985 0 0 0 0
13346616 -0.4044395216202042 0.03029492092507186 0.2378001550104585 -0.043578859493447725 0 0 0 0
13379562 -0.40449710510768505 0.030595088059739397 0.23762484099826942 -0.04361590507215052 0 0 0 0
13412508 -0.40428582146062203 0.03037453747242119 0.237680717470766 -0.043685420214923984 0 0 0 0
13445454 -0.4044375712724024 0.030374013381156733 0.2374876458033899 -0.04375139985653199 0 0 0 0
13478400 -0.404452197708396 0.030493400815561712 0.23762404174765006 -0.04404234668115132 0 0 0 0
13511346 -0.40417375173631925 0.030519892735638862 0.2374801706234111 -0.04407231743864727 0 0 0 0
13544292 -0.404680748240984 0.030756032749483134 0.23766927973614804 -0.044268066208018195 0 0 0 0
13577238 -0.4046120701191069 0.030681486394652905 0.23767189559434918 -0.044344885851338396 0 0 0 0
13610184 -0.4044228560299144 0.030741184928245447 0.23753529421034075 -0.044361174928501994 0 0 0 0
13643130 -0.4041749604746205 0.030801399157383044 0.23733057075213868 -0.0444962160718257 0 0 0 0
13676076 -0.40440529428136873 0.030846502498781164 0.23756069113620476 -0.04464916618027523 0 0 0 0
13709022 -0.4042989450405782 0.031051206737928078 0.2374054713946223 -0.04491931540930616 0 0 0 0
13741968 -0.404203618652492 0.031006276332715858 0.23733450847670035 -0.04481967455357833 0 0 0 0
13774914 -0.40423631247774805 0.031010770323785544 0.23735661318231088 -0.044898798503381694 0 0 0 0
13807860 -0.4041993009781005 0.030921366949980926 0.23729275057630916 -0.04504530920044055 0 0 0 0
13840806 -0.4042883591010204 0.031094718079179837 0.2373821923871644 -0.045386957229118036 0 0 0 0
13873752 -0.40407787560342084 0.03137217350582944 0.23720097518463265 -0.045333280008509 0 0 0 0
13906698 -0.40406718914512496 0.03128652792479448 0.2371715914328288 -0.04542442185170823 0 0 0 0
13939644 -0.40423095187944363 0.031290306655198434 0.23727764710424717 -0.04551219856383283 0 0 0 0
13972590 -0.4042389382816074 0.031124678471019986 0.23722982722426877 -0.045658707346750885 0 0 0 0
14005536 -0.40417152718227634 0.03149160797826104 0.23717034014275104 -0.04594743492848764 0 0 0 0
14038482 -0.4040532899893168 0.03152399635675632 0.2372644512351032 -0.04590167103678154 0 0 0 0
14071428 -0.4041725151912853 0.03160355662783486 0.2372328491750993 -0.0461719235419917 0 0 0 0
14104374 -0.40429054748279647 0.03166283785227873 0.23712668670563455 -0.04610700504596806 0 0 0 0
14137320 -0.4043675762170598 0.03188501136675174 0.23720462366439707 -0.04634438314884366 0 0 0 0
14170266 -0.4040668480725343 0.031938045247896174 0.2370218405202803 -0.04641013746583823 0 0 0 0
14203212 -0.40409712751246724 0.031555251521401484 0.2369879451299852 -0.04638253633992041 0 0 0 0
14236158 -0.4039518922773058 0.031871602742774625 0.2369445160771369 -0.04680191763220821 0 0 0 0
14269104 -0.4036698017281733 0.03190959933281717 0.23687314884085536 -0.04664937694824291 0 0 0 0
14302050 -0.4042034097138389 0.03194900473660883 0.2369814517675101 -0.046928861546685 0 0 0 0
14334996 -0.4044206560592458 0.03240730673466442 0.23705649936724132 -0.04705176361030352 0 0 0 0
14367942 -0.4039012193196645 0.03177579271671073 0.23679637646757845 -0.047017540517987205 0 0 0 0
14400888 -0.40400891251734417 0.032116224460449525 0.2368334124288339 -0.0472578179910273 0 0 0 0
14433834 -0.4037873769312643 0.0322311883254511 0.2367037979160498 -0.04739271698880778 0 0 0 0
14466780 -0.4041955856050604 0.032244190465624906 0.23690196912906164 -0.047454814224229265 0 0 0 0
14499726 -0.4043296322889998 0.03238906119408307 0.23699090055758462 -0.04768036165772883 0 0 0 0
14532672 -0.40390643088946343 0.0326494256750175 0.2367774865018635 -0.047857193138545834 0 0 0 0
14565618 -0.4039229846806949 0.032573263662761316 0.2367361643094123 -0.047718262374240754 0 0 0 0
14598564 -0.4040867890123064 0.03238894822131081 0.23667311210455985 -0.04788258542332619 0 0 0 0
14631510 -0.4039903760072406 0.03244731268818739 0.23675767980170948 -0.04810018108361811 0 0 0 0
14664456 -0.4036590831464123 0.03267563483594403 0.23660513134690683 -0.048214778365745795 0 0 0 0
14697402 -0.4040477205690462 0.033050696831902836 0.23674774120957612 -0.04840081697523995 0 0 0 0
14730348 -0.4037467170211052 0.03282620597933804 0.23648709670710422 -0.04840013413211323 0 0 0 0
14763294 -0.40385428060190376 0.032802202668920824 0.23656667729141398 -0.04852525361634156 0 0 0 0
14796240 -0.4041399040571613 0.0332666950776756 0.2367011445682435 -0.048757697871895364 0 0 0 0
14829186 -0.4036393349387627 0.032754644865000175 0.2364350815287311 -0.048679908634722664 0 0 0 0
14862132 -0.4037790600756964 0.03309999457778568 0.23635565353500493 -0.04894592614979876 0 0 0 0
14895078 -0.4039479898251602 0.03326001160000053 0.2364537406971082 -0.049090437473112494 0 0 0 0
14928024 -0.4037275328264776 0.03317473314660266 0.2363669652515114 -0.04906014259252452 0 0 0 0
14960970 -0.40397899518476105 0.03346336301876193 0.2365211966507061 -0.04927536316039797 0 0 0 0
14993916 -0.403864273539324 0.033349648304992555 0.2364068759989149 -0.049340189423760734 0 0 0 0
15026862 -0.40382065238402254 0.033343359249898 0.23636974212659695 -0.049578949634027945 0 0 0 0
15059808 -0.40392112749895986 0.033525432849019154 0.23635470656487118 -0.04964656811368786 0 0 0 0
15092754 -0.4039799742234152 0.03365376624268548 0.23645023692837663 -0.049874009890874656 0 0 0 0
15125700 -0.4039315708071169 0.03364172904306742 0.23642193723812452 -0.04995650317508239 0 0 0 0
15158646 -0.4037433951425786 0.03375187964094615 0.23626711397511274 -0.04995932000744282 0 0 0 0
15191592 -0.4037026588857861 0.03343155531269767 0.2361671630537146 -0.0498949716596427 0 0 0 0
15224538 -0.4037700283455506 0.03365331504716264 0.23612067026985395 -0.05013935423132664 0 0 0 0
15257484 -0.40372765576362923 0.033814629550469315 0.2362342775961063 -0.05043912478580156 0 0 0 0
15290430 -0.40374026194661916 0.03373850030479499 0.23611907307534477 -0.05035372759427334 0 0 0 0
15323376 -0.4036858896458537 0.03404969687692674 0.2360099809038904 -0.05054979293667691 0 0 0 0
15356322 -0.4036364624150534 0.034123744318140324 0.2359607945858572 -0.05059807255161826 0 0 0 0
15389268 -0.40366917980963035 0.03419397994713727 0.23599778200919816 -0.05072341098309153 0 0 0 0
15422214 -0.40358716384603066 0.03373417471612309 0.23593800090379843 -0.05077942551404867 0 0 0 0
15455160 -0.4036541712022818 0.03411495768643141 0.2359856651182959 -0.050998042825032286 0 0 0 0
15488106 -0.4035321403708516 0.03436956492384915 0.23587863685545504 -0.051047007414159275 0 0 0 0
15521052 -0.4034684488255907 0.034464011587759594 0.23579572810716865 -0.051148265367021425 0 0 0 0
15553998 -0.4037703646139887 0.03439672824245118 0.23587295207169057 -0.051343942906184326 0 0 0 0
15586944 -0.40355735196779274 0.034112163210247334 0.23574458155609407 -0.0513974616907172 0 0 0 0
15619890 -0.4033235988140911 0.034630927710397205 0.23581930025768846 -0.05156595968032983 0 0 0 0
15652836 -0.4035691812703157 0.034616846692343654 0.23590770993528182 -0.051718748397982364 0 0 0 0
15685782 -0.4035939715449345 0.034751733293941406 0.2358415270774878 -0.05200863024845438 0 0 0 0
15718728 -0.4035356260396423 0.03476669191752597 0.23569060436224204 -0.05178520788530499 0 0 0 0
15751674 -0.4035642286605749 0.03447311405970828 0.23561720927349786 -0.05193011672481074 0 0 0 0
15784620 -0.4032719263323261 0.03497317141372861 0.23552482766828126 -0.05212888535572003 0 0 0 0
15817566 -0.40340603205682185 0.03485638980441974 0.2356716700284863 -0.05242593424439562 0 0 0 0
15850512 -0.40343979756102805 0.03493506406581957 0.23568401893087562 -0.0522795750072112 0 0 0 0
15883458 -0.4035209866543924 0.03507277952534635 0.23543904083959663 -0.05250380428502406 0 0 0 0
15916404 -0.4036275021666291 0.03482518777991121 0.23539974755185103 -0.05238817904913781 0 0 0 0
15949350 -0.40336325633485987 0.03507956660406677 0.23549164649774473 -0.05277248410292725 0 0 0 0
15982296 -0.4032517456223162 0.03523015799046076 0.23561419428056238 -0.05298903680659722 0 0 0 0
16015242 -0.40327381134204693 0.03520499406161323 0.23539486043855914 -0.05295219737864698 0 0 0 0
16048188 -0.4034321502979835 0.03548407834406587 0.23557483243690475 -0.05318054528947191 0 0 0 0
16081134 -0.4033732663407609 0.03543687816107336 0.23523917893956714 -0.0531722337192534 0 0 0 0
16114080 -0.40318727855518655 0.035350970244901476 0.23549042434731804 -0.05340623048776282 0 0 0 0
16147026 -0.40312420823805956 0.03547311708389383 0.2352691522748854 -0.05339689125175066 0 0 0 0
16179972 -0.403161936940405 0.03573917514429751 0.23520801415927176 -0.05355156486700101 0 0 0 0
16212918 -0.40345556774177366 0.03587381183255858 0.23528122028842446 -0.053611793528873505 0 0 0 0
16245864 -0.4032118681992136 0.03581138694307655 0.23535990279245353 -0.05383617027658993 0 0 0 0
16278810 -0.4030477463173513 0.03576165330956507 0.2352961771143545 -0.053900103520527126 0 0 0 0
16311756 -0.4030485083213223 0.03583419592813868 0.23509438949893616 -0.05407746894575962 0 0 0 0
16344702 -0.40317277291225817 0.036061918257150695 0.23510399740823315 -0.05410928868270128 0 0 0 0
16377648 -0.403447456552753 0.0360806009733846 0.23515402162397117 -0.054093781354323536 0 0 0 0
16410594 -0.4032661633494399 0.03602183876888589 0.2351041959585753 -0.05441321154667322 0 0 0 0
16443540 -0.4033422276972411 0.036117864594492975 0.23502520901581989 -0.05446625772533505 0 0 0 0
16476486 -0.4031403434280386 0.03610007839963531 0.23497386366763623 -0.054494013506853886 0 0 0 0
16509432 -0.40315876574329035 0.036240483924640576 0.2350880218131823 -0.05485520687902147 0 0 0 0
16542378 -0.40317903789648973 0.03652871314616456 0.2350023767492725 -0.054829515961632505 0 0 0 0
16575324 -0.40325352945728593 0.036179630839851436 0.23481066132004227 -0.05480671413031851 0 0 0 0
16608270 -0.40321167902277205 0.03645378532671299 0.2349482402557696 -0.05506174800023661 0 0 0 0
16641216 -0.4026895736802007 0.036463469313018866 0.23474874168851934 -0.05510506352870976 0 0 0 0
16674162 -0.40325274193725663 0.036639029658385475 0.23494941729577176 -0.055225837836303526 0 0 0 0
16707108 -0.40287046758684336 0.0370213057017652 0.2348398053408644 -0.0553291889062356 0 0 0 0
16740054 -0.4030946587984428 0.036835298171921216 0.2349521214127511 -0.05557844896598111 0 0 0 0
16773000 -0.4034490415276329 0.03700710309460918 0.23478774070843356 -0.05571290254640668 0 0 0 0
16805946 -0.403024559705025 0.03674197665416255 0.23459946869244713 -0.05574070887188369 0 0 0 0
16838892 -0.4028175504355124 0.03657867111011239 0.23479665196617033 -0.05590061403034372 0 0 0 0
16871838 -0.4029941210323317 0.03721519404931851 0.23437859550011297 -0.05595368312959887 0 0 0 0
16904784 -0.40315513618662896 0.03718785025418859 0.23454474968741243 -0.05599494350925626 0 0 0 0
16937730 -0.402932977800631 0.037084145628910235 0.23472931083605206 -0.05634382361704886 0 0 0 0
16970676 -0.4032063075094519 0.03684594417295508 0.23451469499761196 -0.05620483187966447 0 0 0 0
17003622 -0.4031350799643878 0.03719816635020085 0.23447263274567398 -0.05654259759372266 0 0 0 0
17036568 -0.40286370707554436 0.03723505040764504 0.23444560927636854 -0.05655473507390062 0 0 0 0
17069514 -0.40291289761187143 0.037599429130288756 0.23460572996799556 -0.05679222846182576 0 0 0 0
17102460 -0.4029765703766143 0.03746777015243314 0.23449958245924743 -0.056795963080564046 0 0 0 0
17135406 -0.4031374874576884 0.0374550110142951 0.23446726637281307 -0.056972140652053485 0 0 0 0
17168352 -0.4026292544930162 0.03734381753181528 0.23446250104638575 -0.057048358465077866 0 0 0 0
17201298 -0.4027772485420396 0.03764810127787529 0.23443331263083161 -0.057147962136125975 0 0 0 0
17234244 -0.40325952451673225 0.03781528392079234 0.2343473912298652 -0.057265680089106964 0 0 0 0
17267190 -0.40306130454231015 0.037781845030962095 0.23438249963079524 -0.0574145429053671 0 0 0 0
17300136 -0.40296117828495437 0.03773061155727233 0.23414780334193785 -0.057441607564473876 0 0 0 0
17333082 -0.4030231053345088 0.0380335740959548 0.23421476904358438 -0.05757514158498195 0 0 0 0
17366028 -0.4026100432548541 0.037985102471310955 0.23406044597812703 -0.057656391587286186 0 0 0 0
17398974 -0.40295256565809817 0.03843069260403665 0.23425894373654185 -0.0579224236792694 0 0 0 0
17431920 -0.40280277544348314 0.03831088255275674 0.23402026295838158 -0.057845638337308276 0 0 0 0
17464866 -0.4030981391315667 0.03825955104548043 0.23401073871356995 -0.05798183736657009 0 0 0 0
17497812 -0.4029678735035951 0.03814456785019618 0.23401862448730176 -0.057911560135057626 0 0 0 0
17530758 -0.40237080210887166 0.03809257354428188 0.23398952041221774 -0.058167533505223155 0 0 0 0
17563704 -0.40299009374131095 0.03875290675320843 0.23417715829163374 -0.058420375856030424 0 0 0 0
17596650 -0.40289799289489414 0.038510757260376526 0.23388840167234587 -0.058540516897156294 0 0 0 0
17629596 -0.40274341191346047 0.0384706988351288 0.23387400752255075 -0.05866216330264141 0 0 0 0
17662542 -0.4027164229620894 0.03856114841931467 0.23367590889480436 -0.05864421421156527 0 0 0 0
17695488 -0.40295738363276395 0.038592199531783104 0.23386214184036708 -0.05880911530833099 0 0 0 0
17728434 -0.4029332417411529 0.038582039056016336 0.23379356186009945 -0.05886324915581205 0 0 0 0
17761380 -0.40280389330447536 0.03868973188576574 0.23380969117279468 -0.059110180674928126 0 0 0 0
17794326 -0.402662502947396 0.03888805103117294 0.23389161600927905 -0.05914517228450285 0 0 0 0
17827272 -0.4026042405737425 0.03911605122053099 0.23372657131502578 -0.059274180181475386 0 0 0 0
17860218 -0.4027114657636278 0.03913520080916155 0.23379179890006238 -0.05943054079418851 0 0 0 0
17893164 -0.40277306992099793 0.038997311105054784 0.233736942334002 -0.05948805199773605 0 0 0 0
17926110 -0.4027924499959811 0.038914611577607706 0.23358876990337038 -0.05952756346401928 0 0 0 0
17959056 -0.4023337514341083 0.039012445880856166 0.23359877481434335 -0.05979184712435882 0 0 0 0
17992002 -0.40276684433538307 0.03941054893977343 0.2336889602517013 -0.05990726145645962 0 0 0 0
18024948 -0.4030466403737303 0.039294677649526814 0.23362343502980365 -0.05993718129649948 0 0 0 0
18057894 -0.40242404651525304 0.039182933726858486 0.23349055984923817 -0.06007215332186263 0 0 0 0
18090840 -0.4025234993404934 0.03971245093363114 0.23335105398004546 -0.060188932627766714 0 0 0 0
18123786 -0.40259912247803115 0.03956593548016685 0.23340662825054875 -0.06026707489267455 0 0 0 0
18156732 -0.4025631210168869 0.03983149208352018 0.23343437503177755 -0.06045475163636612 0 0 0 0
18189678 -0.40270199290599695 0.039720792144968944 0.23339398534723665 -0.06050144522457929 0 0 0 0
18222624 -0.4026246364974246 0.03919854566947133 0.23325258450766073 -0.06058456387648469 0 0 0 0
18255570 -0.40291394006742676 0.03972010494071656 0.23322856222272817 -0.060795384653827916 0 0 0 0
18288516 -0.4027515729770788 0.03960739451987027 0.23323010273387515 -0.06091084689995155 0 0 0 0
18321462 -0.40246012521137753 0.03987440286451377 0.2330746768752242 -0.06105153861979369 0 0 0 0
18354408 -0.40197152434135247 0.040092578256544574 0.23330738483379487 -0.06109762141477866 0 0 0 0
18387354 -0.40290932379675515 0.04037479773203026 0.2332592916312035 -0.06114888906163638 0 0 0 0
18420300 -0.4026430749578234 0.03996697932383094 0.23316858826939293 -0.06110996157922564 0 0 0 0
18453246 -0.40217863526272774 0.04011797380839342 0.23309463291934931 -0.06149465727629354 0 0 0 0
18486192 -0.40241405307137756 0.0400738787240885 0.232922230720567 -0.06159840028990302 0 0 0 0
18519138 -0.4025160389725201 0.04041256321764677 0.2330540141131468 -0.061679421503781987 0 0 0 0
18552084 -0.40261517224382204 0.04037431494405835 0.23306769435299918 -0.06166474539552802 0 0 0 0
18585030 -0.4024353831108863 0.04032304225312792 0.23298356481255583 -0.06194843997351594 0 0 0 0
18617976 -0.4025973948995884 0.04015232089079139 0.23288311796271546 -0.061980156164323834 0 0 0 0
18650922 -0.4023470513098143 0.040676755837991664 0.23283382554682985 -0.062116968272922124 0 0 0 0
18683868 -0.40215529484774926 0.04047672001136234 0.23276364263753216 -0.06231975058289596 0 0 0 0
18716814 -0.4024330502573728 0.04080827158120155 0.23287998627418532 -0.062257412271897725 0 0 0 0
18749760 -0.4025247536703007 0.040774702505509984 0.232754586303038 -0.06237848952997217 0 0 0 0
18782706 -0.4021277201312039 0.040947266921393416 0.23283209407219294 -0.06252231145845516 0 0 0 0
18815652 -0.4024822638738803 0.04107069356480645 0.23285590844860668 -0.06255936316549714 0 0 0 0
18848598 -0.40268470527335576 0.04098894095837893 0.23272233385151472 -0.06277506944298132 0 0 0 0
18881544 -0.40227519431842657 0.04093992911129034 0.2325615836578406 -0.06284827903740087 0 0 0 0
18914490 -0.40206964152973834 0.04097559159623205 0.23262044669831128 -0.06305480629918792 0 0 0 0
18947436 -0.4022627166549778 0.041232610763578016 0.23270959854015277 -0.06313338582171574 0 0 0 0
18980382 -0.40233580486022275 0.041220025909074295 0.23254607393600746 -0.06317923912861652 0 0 0 0
19013328 -0.4021826038477488 0.041115854782061846 0.23252390306235907 -0.06330160343365962 0 0 0 0
19046274 -0.40232138992861166 0.041465565740874635 0.23251146412451074 -0.06336015216103538 0 0 0 0
19079220 -0.40191199676817524 0.04135602651434509 0.23237271302064383 -0.06358602263725083 0 0 0 0
19112166 -0.4022635639259718 0.04144359072812822 0.23244237225270356 -0.06376917030207938 0 0 0 0
19145112 -0.40215203465666777 0.041699772821193797 0.2324366537435019 -0.0636948041666455 0 0 0 0
19178058 -0.4024987626763043 0.041510845029930694 0.23234552536991046 -0.06396722558862301 0 0 0 0
19211004 -0.40226161465914384 0.04166771706470023 0.23231261120695335 -0.06400749797179581 0 0 0 0
19243950 -0.40218131581090033 0.04190165134263504 0.2322967925563956 -0.06416577310017209 0 0 0 0
19276896 -0.40191110776219985 0.04175625234527127 0.2321191359588582 -0.06430751549438339 0 0 0 0
19309842 -0.40228045186611794 0.04200657749293763 0.23224001099505717 -0.06437282568338855 0 0 0 0
19342788 -0.4023272682134883 0.04193775490393662 0.2322090875001703 -0.06452433968589402 0 0 0 0
19375734 -0.4021296174114187 0.04178086223516272 0.23201974596434932 -0.06459421367580799 0 0 0 0
19408680 -0.40208797053488254 0.04208885954849652 0.23213664870446038 -0.06469326859039615 0 0 0 0
19441626 -0.4020503252028226 0.04208410376275978 0.23200940635338554 -0.06472541077192848 0 0 0 0
19474572 -0.4020280448670098 0.042421897777367615 0.23204934067092245 -0.06488508441251752 0 0 0 0
19507518 -0.40217194242719656 0.04238394882894559 0.23199898799684626 -0.06494988400011723 0 0 0 0
19540464 -0.40237153001626486 0.0422310763433541 0.23193607358160764 -0.06524683250521747 0 0 0 0
19573410 -0.401973896150747 0.042471468868189664 0.23187876395361495 -0.06529935175558563 0 0 0 0
19606356 -0.4019955255090735 0.042502272707596225 0.23175613109283258 -0.06541398191205175 0 0 0 0
19639302 -0.40194702889482903 0.04241438864732877 0.2317371387632118 -0.06555088975511945 0 0 0 0
19672248 -0.4020308135176895 0.04266293318391986 0.23177125285228428 -0.06552774370884382 0 0 0 0
19705194 -0.4018729900952063 0.04275994894806259 0.23178311844333976 -0.0656142114938847 0 0 0 0
19738140 -0.40222213994203626 0.04276798979079269 0.23173218964683873 -0.06577989432803868 0 0 0 0
19771086 -0.40178808700281676 0.042563714283895965 0.2316915882682725 -0.0659482193473279 0 0 0 0
19804032 -0.40192041616023605 0.04285996634768123 0.23171127887824555 -0.06606619831385041 0 0 0 0
19836978 -0.401951195766331 0.042941136876398 0.23155899868333635 -0.06609099994383738 0 0 0 0
19869924 -0.4021305417900986 0.04315387301932404 0.23166586333704436 -0.06622277594851764 0 0 0 0
19902870 -0.4018672482435508 0.04301684866951517 0.23156644753497277 -0.06642407813662676 0 0 0 0
19935816 -0.4018626417900781 0.04322255036655015 0.23149524715782266 -0.06646290267200064 0 0 0 0
19968762 -0.4018572771885699 0.043212679956388514 0.23149026221926294 -0.06669064219954793 0 0 0 0
20001708 -0.40200609657482833 0.04347599288494883 0.2315055448283276 -0.06678524899568418 0 0 0 0
20034654 -0.40194839831473594 0.04359901940548171 0.2315045585979489 -0.06684765228922844 0 0 0 0
20067600 -0.401966605809949 0.04342646250419727 0.23142683838783393 -0.06682592941939484 0 0 0 0
20100546 -0.40188442574342287 0.043510768639442796 0.2312637505793967 -0.067063962495194 0 0 0 0
20133492 -0.40179710411811226 0.043567551231909155 0.23138276558438606 -0.06715126085902971 0 0 0 0
20166438 -0.4019968901905175 0.04356856000042094 0.23132180724157547 -0.06744410260276988 0 0 0 0
20199384 -0.40168727097808393 0.043808451466204996 0.23117005449855968 -0.06737625605700151 0 0 0 0
20232330 -0.4018165632766641 0.04405285224290395 0.23123684215418744 -0.06750002560599902 0 0 0 0
20265276 -0.4020368910383536 0.043754032371337515 0.23119075300061165 -0.067622237185231 0 0 0 0
20298222 -0.4020630317565625 0.04378316510141878 0.23124770921790921 -0.06785382163778761 0 0 0 0
20331168 -0.4017581762322225 0.04395396677295718 0.23100560700259895 -0.06785278568617886 0 0 0 0
20364114 -0.4016265601940048 0.04385877954409891 0.23109336637113792 -0.06800787581116322 0 0 0 0
20397060 -0.4016328386357776 0.04427693584452313 0.23103132093985237 -0.06796276082451266 0 0 0 0
20430006 -0.4019433462781635 0.04418539456720517 0.231018677579837 -0.06822793026096598 0 0 0 0
20462952 -0.4018700554232244 0.04402574720061279 0.23080757540850685 -0.06830302296166245 0 0 0 0
20495898 -0.4018373027869076 0.04423522223034931 0.23105922438173968 -0.0684392974561054 0 0 0 0
20528844 -0.401652450426002 0.044178086385952865 0.23089287228054026 -0.0685807202032357 0 0 0 0
20561790 -0.4015815208499721 0.0446883975766297 0.23090218255197242 -0.06869825207664582 0 0 0 0
20594736 -0.40193442134754975 0.04447122190717697 0.23079027458120283 -0.06867493315246 0 0 0 0
20627682 -0.4017485616069773 0.04447069344587267 0.23066945817184797 -0.06884166866912429 0 0 0 0
20660628 -0.4017094770960329 0.04453435696789036 0.23078537741574892 -0.06895282450959882 0 0 0 0
20693574 -0.40142116432790165 0.04468537273660647 0.23081325435841038 -0.06915977351120835 0 0 0 0
20726520 -0.401399605576182 0.04470690140502679 0.2306737449948235 -0.06927648802630669 0 0 0 0
20759466 -0.4015553442384208 0.04477308955493478 0.23055799128802712 -0.0693007052724913 0 0 0 0
20792412 -0.4017113322634423 0.04516532485897166 0.23063589465765139 -0.06948686153391652 0 0 0 0
20825358 -0.40165410596225304 0.04471788260726168 0.23038511516535087 -0.06935076927450319 0 0 0 0
20858304 -0.4017724195902396 0.044906858932703596 0.23050333700070136 -0.06971195898450486 0 0 0 0
20891250 -0.4016120531524012 0.04502015020248522 0.23037030713517195 -0.06978997235898332 0 0 0 0
20924196 -0.40161190130545266 0.045036124205751524 0.2304191284501498 -0.06989560616666975 0 0 0 0
20957142 -0.4016438325659471 0.04558961483700912 0.23040889597652842 -0.0700534085772486 0 0 0 0
20990088 -0.4016754949237661 0.04519038563687171 0.2303559928421322 -0.06998215101503542 0 0 0 0
21023034 -0.4017010978291092 0.045357069272208644 0.23032324930822487 -0.07037180009635528 0 0 0 0
21055980 -0.4015471664528008 0.045434114940019775 0.23022857406213196 -0.07032143290979258 0 0 0 0
21088926 -0.40142157795359046 0.04552183000709135 0.23035119844454813 -0.07050783719609227 0 0 0 0
21121872 -0.4015130984088517 0.04556577717015218 0.23019872124863475 -0.0704993633816915 0 0 0 0
21154818 -0.40154395590433545 0.045761762954232434 0.23024362071362386 -0.07058110096339057 0 0 0 0
21187764 -0.4014075029787261 0.04590795350238197 0.23018568407042503 -0.07072205580762744 0 0 0 0
21220710 -0.40148533377589557 0.04609743550582696 0.2301208467942465 -0.07064473362595323 0 0 0 0
21253656 -0.4017578149987376 0.04577415351463617 0.23007286885513725 -0.07091788336342816 0 0 0 0
21286602 -0.4016120061632784 0.04578065151011406 0.22992174100466248 -0.07108900488230346 0 0 0 0
21319548 -0.4013955933392337 0.04598359325767116 0.22994192194948038 -0.07109060199385132 0 0 0 0
21352494 -0.40117650622999657 0.04605030381494455 0.2298148609123103 -0.07116512360514311 0 0 0 0
21385440 -0.4012413290728555 0.04611704987419806 0.229808876692414 -0.0712945355138124 0 0 0 0
21418386 -0.401702491107521 0.0463988200114102 0.22999450233750068 -0.07150434333965966 0 0 0 0
21451332 -0.4013947745371653 0.04631152712142604 0.22981555645447152 -0.0714353962486348 0 0 0 0
21484278 -0.40161792970895055 0.04630125228066186 0.22976992320898845 -0.07169093166671295 0 0 0 0
21517224 -0.4017380559121524 0.046312908226651614 0.22974813769799876 -0.07199893395276857 0 0 0 0
21550170 -0.40145467578842897 0.04648836048223019 0.22975696100138016 -0.07197220087421269 0 0 0 0
21583116 -0.40129394977766125 0.046512034442756964 0.22959168291167945 -0.07200982448877544 0 0 0 0
21616062 -0.401430811199007 0.04682964567012211 0.22982701051912494 -0.07220431455909773 0 0 0 0
21649008 -0.4013841403699343 0.0466901418929576 0.22944156610188818 -0.07218180885157803 0 0 0 0
21681954 -0.4012778267528639 0.04668539130433047 0.2295372106456491 -0.07226229516442044 0 0 0 0
21714900 -0.4016110185129961 0.04674306140027182 0.22961704277638262 -0.07259317897734668 0 0 0 0
21747846 -0.40104559519715294 0.04679161411681241 0.22944441214112066 -0.07269317274795971 0 0 0 0
21780792 -0.40143949046183136 0.04721008498581437 0.22946378069448242 -0.07266505769008275 0 0 0 0
21813738 -0.40144102109030516 0.046727571948129105 0.2293305997160471 -0.072625697805999 0 0 0 0
21846684 -0.401613360854487 0.04728794615312505 0.22928448222022693 -0.07304488250314908 0 0 0 0
21879630 -0.40119717916006625 0.047106705896029666 0.22923368118163046 -0.07304833491469889 0 0 0 0
21912576 -0.4011607137636262 0.04699419433159704 0.22926419134572412 -0.07316449026200308 0 0 0 0
21945522 -0.4010503458882121 0.047161735709932394 0.22910802631058233 -0.07323720637655509 0 0 0 0
21978468 -0.4010192666593189 0.047274336593988484 0.22907995718639754 -0.07323348805732188 0 0 0 0
22011414 -0.40118657666381774 0.0474630966020732 0.22926573075037837 -0.07351268283691904 0 0 0 0
22044360 -0.4011388979292318 0.04732730017164849 0.22908824566851924 -0.07340560687007351 0 0 0 0
22077306 -0.4015341524558549 0.04756197182987831 0.22903400965166587 -0.07377836230432117 0 0 0 0
22110252 -0.4012603424885448 0.047656284767388916 0.2290132109396321 -0.07394971949019206 0 0 0 0
22143198 -0.40100522914365333 0.04786833773773628 0.22897963293899912 -0.07404406661111743 0 0 0 0
22176144 -0.401294367899012 0.047949738381977525 0.22910591010170311 -0.0740758390133604 0 0 0 0
22209090 -0.40156273735918246 0.04790419791275075 0.22892904253453109 -0.07429782082830509 0 0 0 0
22242036 -0.40097179685955087 0.04785163284325083 0.22880136432844694 -0.07430332857044766 0 0 0 0
22274982 -0.40102807407891533 0.047918283249674815 0.22889661416235674 -0.07443070999303178 0 0 0 0
22307928 -0.4009581754440174 0.048164141243273915 0.22886123864313704 -0.07468740597358331 0 0 0 0
22340874 -0.4010860200292814 0.04827413084847016 0.22881787067230014 -0.07457009545550126 0 0 0 0
22373820 -0.4011902919119123 0.04844516003915318 0.22878164416268137 -0.07463463445042669 0 0 0 0
22406766 -0.40097717280367834 0.04814805596226808 0.22865730769944503 -0.07470411423587793 0 0 0 0
22439712 -0.40142492824779297 0.048338456390442576 0.2285986423927847 -0.07499495824074973 0 0 0 0
22472658 -0.40092945374315025 0.04842004614619334 0.2285428971142321 -0.07508628798204112 0 0 0 0
22505604 -0.4007697444076699 0.048225221927410876 0.22847314712888794 -0.07506228815381616 0 0 0 0
22538550 -0.4009441514806149 0.04846190006821176 0.2284520062741112 -0.075323352743079 0 0 0 0
22571496 -0.40095710566827136 0.048665074175143576 0.2285039565036271 -0.07520851545484997 0 0 0 0
22604442 -0.4011128026989625 0.048948319318681016 0.22857475630817675 -0.07550578262609474 0 0 0 0
22637388 -0.40095061113593466 0.04853742174186158 0.22835549281769416 -0.0755078372576659 0 0 0 0
22670334 -0.4012978837948035 0.048837262181024986 0.22834173241276254 -0.07576067554042097 0 0 0 0
22703280 -0.4008357888087905 0.04867441444137667 0.22827070669456967 -0.07577462804569078 0 0 0 0
22736226 -0.4008696342086007 0.049053283259770514 0.2282178939205277 -0.07601792893811642 0 0 0 0
22769172 -0.40065489244255587 0.04900362422058979 0.22814973392370963 -0.07592936260134509 0 0 0 0
22802118 -0.40093757078859704 0.04885017403686454 0.22821007720580608 -0.0761056491811687 0 0 0 0
22835064 -0.40120147594055217 0.04910984839155136 0.2281958700856242 -0.07632978881737276 0 0 0 0
22868010 -0.40079223096887345 0.049212718842386295 0.22800184716182004 -0.07635014488978281 0 0 0 0
22900956 -0.400801751127812 0.04930883707574042 0.22806535712757817 -0.07649783001818954 0 0 0 0
22933902 -0.40066461387729696 0.049504792806173634 0.22799892260280274 -0.07653795177417054 0 0 0 0
22966848 -0.4007960005409516 0.04944908501617662 0.22808627459610437 -0.07662256048447436 0 0 0 0
22999794 -0.4009423542121469 0.04928218968902589 0.2279124448800224 -0.07661167324117993 0 0 0 0
23032740 -0.4011847830836015 0.04956762052299979 0.2279239377382865 -0.0770272328018246 0 0 0 0
23065686 -0.4006028634779692 0.04962848192481722 0.22789190652284685 -0.077109887459861 0 0 0 0
23098632 -0.400833591848098 0.04979473845740862 0.22781869092566917 -0.07728160055641796 0 0 0 0
23131578 -0.40061044794316253 0.04978135523500796 0.2278566616029935 -0.07729174655677308 0 0 0 0
23164524 -0.40059493954002917 0.04973302638852243 0.22775138505066742 -0.07728102475013231 0 0 0 0
23197470 -0.40081127071522205 0.05003495456333411 0.22781673067359098 -0.07739450595240444 0 0 0 0
23230416 -0.40077058706527313 0.04999188924126217 0.2276249451708139 -0.07746155269256186 0 0 0 0
23263362 -0.4008120281920599 0.049887403893640096 0.22757138789602352 -0.0776301676666657 0 0 0 0
23296308 -0.4011070160696097 0.05015362780106789 0.22752099100349174 -0.07782635153998255 0 0 0 0
23329254 -0.4006648725259503 0.050075807084538425 0.22749211011793602 -0.07787635375754991 0 0 0 0
23362200 -0.4006842411783805 0.050162175800470776 0.2275145793022407 -0.07807054686972198 0 0 0 0
23395146 -0.40037943299445494 0.0503190569530435 0.22742650983945686 -0.0780801185180585 0 0 0 0
23428092 -0.40066357992941515 0.05017035909013799 0.22736649638407513 -0.078112003618314 0 0 0 0
23461038 -0.4009738801766965 0.05044126201479658 0.2274456065306987 -0.07845845160837066 0 0 0 0
23493984 -0.4005813511149693 0.05054602527729635 0.22738939435727915 -0.07854352649204938 0 0 0 0
23526930 -0.40041626562433896 0.05054343410832211 0.22724033397299517 -0.07847787777687867 0 0 0 0
23559876 -0.4006448971154251 0.05056621494541791 0.2272934039762491 -0.07858652842523645 0 0 0 0
23592822 -0.4009094931880089 0.05084992089000065 0.2272034152728361 -0.0788658799845076 0 0 0 0
23625768 -0.4005422251080622 0.05062654934624825 0.22715431816711065 -0.07885054362913099 0 0 0 0
23658714 -0.4006828952605616 0.0508793269192551 0.22713903734580682 -0.07907137432491247 0 0 0 0
23691660 -0.4006082387942548 0.05098099351844883 0.2271000576522227 -0.07922207527140088 0 0 0 0
23724606 -0.40029551614542186 0.0508388363643009 0.22700434129026734 -0.07911661299555446 0 0 0 0
23757552 -0.4007476151841999 0.051205970480233995 0.2271299138326685 -0.07927214354415983 0 0 0 0
23790498 -0.4006603188761515 0.0511961967718968 0.22690707504829308 -0.07944190015258935 0 0 0 0
23823444 -0.40054223611854134 0.05113924138421278 0.2269291303655517 -0.07954255729120852 0 0 0 0
23856390 -0.4003216677542438 0.051391835514963874 0.2268579861734518 -0.07961012354661326 0 0 0 0
23889336 -0.4001553514852191 0.05125951100146447 0.22673483951181464 -0.07962438487813321 0 0 0 0
23922282 -0.4005121072441554 0.05153913839092995 0.22685522214796464 -0.07981846249406917 0 0 0 0
23955228 -0.4005627596568509 0.05156393449798002 0.2267861131293276 -0.07994663776926338 0 0 0 0
23988174 -0.4003510972317673 0.05158487417156966 0.22661870198971246 -0.08009622227433087 0 0 0 0
24021120 -0.40058272491847546 0.051647916440429986 0.2266658802930344 -0.08024335702783307 0 0 0 0
24054066 -0.4004070221977428 0.05180801735622025 0.22671928822113618 -0.08041129357288607 0 0 0 0
24087012 -0.4005119229795549 0.051887854701040105 0.22668928951797934 -0.08033751886468485 0 0 0 0
24119958 -0.4005452079842388 0.05167422331916088 0.2264238208516804 -0.08039974706608609 0 0 0 0
24152904 -0.4005073302015413 0.05187866045426117 0.22647703725962473 -0.08063108351472663 0 0 0 0
24185850 -0.4004506743117451 0.05193063751822597 0.2265027100139091 -0.08078038050333645 0 0 0 0
24218796 -0.4001883364420282 0.05212854628740386 0.22637140623024174 -0.08088186545302742 0 0 0 0
24251742 -0.40041737555451884 0.05202358718194591 0.22640875548979347 -0.08080297349901301 0 0 0 0
24284688 -0.40050186114201375 0.052166451186760616 0.2264813069738267 -0.08103725229687615 0 0 0 0
24317634 -0.4005560918463675 0.052296589934799444 0.2262043677112129 -0.08123854346197255 0 0 0 0
24350580 -0.40028149063465185 0.052351987483389754 0.22623812500604087 -0.08120894951471153 0 0 0 0
24383526 -0.40043894898642307 0.05246563621116193 0.22623539029619832 -0.08138266685004004 0 0 0 0
24416472 -0.4001042855196698 0.05249611332290996 0.2261363175121915 -0.08126106520697754 0 0 0 0
24449418 -0.40032525435027444 0.05237765380110195 0.22617243266998946 -0.0815675025502172 0 0 0 0
24482364 -0.4001887795747207 0.052656504523226656 0.2259950172712656 -0.08168611104657024 0 0 0 0
24515310 -0.40035755823909186 0.05259654476527667 0.2259839370840928 -0.08186395879813978 0 0 0 0
24548256 -0.4002079778902715 0.0528533666993004 0.22597714898635535 -0.08201772866546014 0 0 0 0
24581202 -0.40020252749770346 0.052751886518002444 0.22596530591503106 -0.08210432325332595 0 0 0 0
24614148 -0.4000519415443326 0.052825342534311925 0.22588320036808462 -0.08206602182741261 0 0 0 0
24647094 -0.4002401508468172 0.053024910452517324 0.22588234890155792 -0.0821409734084685 0 0 0 0
24680040 -0.40024154698390596 0.05321775030851225 0.22579312974975566 -0.08231468796082059 0 0 0 0
24712986 -0.40015388052819717 0.05319079706732892 0.22587551762740227 -0.0824040769680584 0 0 0 0
24745932 -0.4000380839193579 0.05297931173951411 0.22575785700944592 -0.08246835666478992 0 0 0 0
24778878 -0.4004091208239062 0.05319476263345101 0.22565193090282443 -0.08266271157380498 0 0 0 0
24811824 -0.4000890808619121 0.053254658718943935 0.22571649594282325 -0.08280908758158005 0 0 0 0
24844770 -0.400136198632754 0.0534699775873843 0.2256933472110467 -0.08301742656894712 0 0 0 0
24877716 -0.39994820277447135 0.053462987779310675 0.22553659898423478 -0.08283376933405127 0 0 0 0
24910662 -0.4003039219900213 0.05352808949045606 0.22547061664043175 -0.08302865152997162 0 0 0 0
24943608 -0.4002584468360016 0.05362537622337302 0.22540209314872353 -0.0831993269682749 0 0 0 0
24976554 -0.4003136907351217 0.05359961946256292 0.2255051109919185 -0.0833930954118773 0 0 0 0
25009500 -0.4002389946553186 0.05362535800834095 0.22536143945142617 -0.08347613446295803 0 0 0 0
25042446 -0.4000102493782176 0.05379383302798006 0.2252440264862518 -0.08350724441371563 0 0 0 0
25075392 -0.40000764200240013 0.053825568716851145 0.22535267169168288 -0.08364601644515368 0 0 0 0
25108338 -0.4000237162198359 0.05392763436398468 0.22526885514922282 -0.08367662241911264 0 0 0 0
25141284 -0.40001590774902446 0.054022327177832584 0.2251225770613337 -0.08374960485883035 0 0 0 0
25174230 -0.4001161193301502 0.05402218639659901 0.22510134977520851 -0.08398415302393349 0 0 0 0
25207176 -0.3998355585714893 0.05419385495498538 0.22504785191974308 -0.08398396840708344 0 0 0 0
25240122 -0.39995471252673237 0.05427849332993618 0.22511733282516563 -0.08424699056465605 0 0 0 0
25273068 -0.3999145304518202 0.05442237197728973 0.22505177241213037 -0.08425579573740981 0 0 0 0
25306014 -0.4000005834499313 0.054207832555925636 0.22490713456370373 -0.08441448359229942 0 0 0 0
25338960 -0.3998910347983354 0.05415733538868756 0.22498553404691038 -0.08445721832404224 0 0 0 0
25371906 -0.40009337038361115 0.05459266025104408 0.22487451295461874 -0.08465802268155509 0 0 0 0
25404852 -0.399899327447937 0.05452126413198208 0.22477634412562328 -0.0848003035128738 0 0 0 0
25437798 -0.39968589063453275 0.054516254495864 0.22490191970230083 -0.08480619116923906 0 0 0 0
25470744 -0.39992761671413585 0.05466905456270744 0.22478877565226965 -0.08490516595132012 0 0 0 0
25503690 -0.4000031662576513 0.05451227078648876 0.22460914233682494 -0.08493699928954092 0 0 0 0
25536636 -0.40007924157913966 0.05489968958373467 0.22472801384516605 -0.08524355279473682 0 0 0 0
25569582 -0.40008054133351145 0.05477453030005476 0.2245347950985856 -0.08522817867164512 0 0 0 0
25602528 -0.3999790594261135 0.05500292118431537 0.2246096107383102 -0.08548657723825252 0 0 0 0
25635474 -0.399889102944731 0.05506620462201141 0.22448723900511827 -0.08552456785150352 0 0 0 0
25668420 -0.39965689118287767 0.05505152171810408 0.22451079155847303 -0.08545172707801953 0 0 0 0
25701366 -0.3998756103252076 0.05511891910568257 0.22454602716869732 -0.08569603252073603 0 0 0 0
25734312 -0.3998197924030947 0.055116319880318856 0.22428468667983473 -0.08571314988397201 0 0 0 0
25767258 -0.39979734438385084 0.05529227014166178 0.22432497424350323 -0.08590250845104122 0 0 0 0
25800204 -0.39972159967645776 0.05536596338156531 0.22435852717671115 -0.08609713690624736 0 0 0 0
25833150 -0.3996763229105856 0.05555212376629739 0.224194823131271 -0.08599783343297165 0 0 0 0
25866096 -0.3996004524131889 0.05553004698013065 0.2242061093149839 -0.08609288832684708 0 0 0 0
25899042 -0.39970575500251354 0.0555209835675687 0.22408574794899913 -0.08621375048685523 0 0 0 0
25931988 -0.3997080948194449 0.055594188066533226 0.22401852353190307 -0.08645406981867762 0 0 0 0
25964934 -0.39987276817591605 0.055817860175891784 0.22417538659439057 -0.08645836418499821 0 0 0 0
25997880 -0.3998461335739884 0.05566176812325637 0.22409854376174188 -0.08655359847368492 0 0 0 0
26030826 -0.39979942962094084 0.05563948276866977 0.22399980163579303 -0.08664141337213177 0 0 0 0
26063772 -0.39956764837528436 0.05588343215633221 0.22391811675077267 -0.08686989551466404 0 0 0 0
26096718 -0.3995440477666134 0.055818314577002405 0.22382499049808596 -0.08696376950779663 0 0 0 0
26129664 -0.39954681255185037 0.0561260334547771 0.22389189183984926 -0.08712159277923309 0 0 0 0
26162610 -0.399401636152224 0.056152268721387476 0.22375248778695106 -0.087062865653203 0 0 0 0
26195556 -0.3994263043446986 0.05630452755915674 0.2237563329365008 -0.08719502700671045 0 0 0 0
26228502 -0.3996435934612811 0.0563261614745047 0.22355022290173435 -0.08739031512824579 0 0 0 0
26261448 -0.3994340164104635 0.05621420112042942 0.22351173815960731 -0.08738506165150031 0 0 0 0
26294394 -0.3998291856770523 0.05638396745961882 0.22365262181938336 -0.0876374638931927 0 0 0 0
26327340 -0.39970643298360603 0.05644628753680418 0.22347179408360698 -0.08767845192685168 0 0 0 0
26360286 -0.39954137234988896 0.05643131030590062 0.22360383765087574 -0.08787502142804357 0 0 0 0
26393232 -0.39931773448614466 0.05659852654776478 0.22347327787728852 -0.08788982663164426 0 0 0 0
26426178 -0.39943152976502144 0.05670586312176422 0.22347609920580758 -0.08805826947205783 0 0 0 0
26459124 -0.3994253735558211 0.056842715147706876 0.22337355195912437 -0.08805215210244124 0 0 0 0
26492070 -0.39914557278292423 0.05689049921229011 0.22330857431462067 -0.08808364309588454 0 0 0 0
26525016 -0.3995023843149775 0.05670734739624092 0.22323318760630434 -0.08829692312674878 0 0 0 0
26557962 -0.39945403173648725 0.05691339667565069 0.22317375907231765 -0.08851691028434784 0 0 0 0
26590908 -0.3996067683670413 0.057092333357387684 0.22322811618230862 -0.08868097425737852 0 0 0 0
26623854 -0.39935197748996615 0.05705096955704492 0.22318690503460328 -0.08873003092931371 0 0 0 0
26656800 -0.3993773386398283 0.05728813675629778 0.22311755650047826 -0.08872475244254986 0 0 0 0
26689746 -0.39941304760148055 0.05723092600427874 0.22309307484372778 -0.08892660519386529 0 0 0 0
26722692 -0.3993717114661714 0.05728390906466912 0.2229699664232504 -0.08894162623174112 0 0 0 0
26755638 -0.3996378204003946 0.057517223100280214 0.22293426216894588 -0.0892094474550313 0 0 0 0
26788584 -0.39939337435483174 0.05738439918939486 0.22301950995241332 -0.08927831409463907 0 0 0 0
26821530 -0.3992642141755708 0.05720922417732051 0.22283767997630452 -0.0892301217833366 0 0 0 0
26854476 -0.39932942888084816 0.05760604680999641 0.22279629873479442 -0.08949572047578022 0 0 0 0
26887422 -0.3992194627865209 0.05737564329813056 0.22264937902275544 -0.08952061539853515 0 0 0 0
26920368 -0.3992043777397751 0.05759568701048227 0.22276807210689692 -0.08966212780466926 0 0 0 0
26953314 -0.39940120429989256 0.05794533146235148 0.22258623944370617 -0.08962782714587077 0 0 0 0
26986260 -0.3992740379727245 0.05763136505034062 0.22271743726755938 -0.0898326976556349 0 0 0 0
27019206 -0.3994780202217904 0.057728620476325876 0.22250910570764348 -0.08988309743356523 0 0 0 0
27052152 -0.39941459195961776 0.057911065049148364 0.2224130534230333 -0.09005724054897779 0 0 0 0
27085098 -0.3992227501666732 0.05787528239623579 0.22243810017706592 -0.0901122903853625 0 0 0 0
27118044 -0.39928332808603134 0.05821401162069455 0.2224669930535898 -0.09032103628437213 0 0 0 0
27150990 -0.39909669293338645 0.05801830510766361 0.22240099534807764 -0.09026036195923968 0 0 0 0
27183936 -0.39936432196186494 0.058417391595384796 0.22242478855445993 -0.09050534855255063 0 0 0 0
27216882 -0.399130135301033 0.05857502022685403 0.2223159708227058 -0.09055833743506225 0 0 0 0
27249828 -0.3991197880334577 0.05822675653954876 0.22236125266549514 -0.09055116006989207 0 0 0 0
27282774 -0.3994167751594798 0.05838106054785981 0.22213178159882468 -0.09074826358129956 0 0 0 0
27315720 -0.39911819590034786 0.05840555405045263 0.22212411739343824 -0.09089990647240996 0 0 0 0
27348666 -0.39916902853431924 0.05861292931676168 0.22222666030364677 -0.0909422368526159 0 0 0 0
27381612 -0.39925109629336347 0.058772112176038 0.22210946781878205 -0.0911311989951698 0 0 0 0
27414558 -0.39907128332657027 0.05892800013867565 0.22196999173642068 -0.09116512715394923 0 0 0 0
27447504 -0.3989507700520297 0.058774238289056285 0.22203378335353435 -0.09119717495821167 0 0 0 0
27480450 -0.39942756519895617 0.0588091104625778 0.22188938321578824 -0.09137129296081857 0 0 0 0
27513396 -0.39923010376758206 0.058786237471447386 0.22188717012486645 -0.0915604249380915 0 0 0 0
27546342 -0.39917953139144746 0.0592092009430578 0.2218261205997816 -0.09161821532046291 0 0 0 0
27579288 -0.39912045846231037 0.05925845432707711 0.22176878550252652 -0.09179446580857897 0 0 0 0
27612234 -0.3990721844463124 0.05908771146552598 0.22179071436795741 -0.09192895393268699 0 0 0 0
27645180 -0.3991621906550052 0.059048145775467645 0.22166659565619554 -0.0919013940933314 0 0 0 0
27678126 -0.39913824785670216 0.05954454582852187 0.22163595844650263 -0.09196331053232672 0 0 0 0
27711072 -0.3988203191426879 0.05919535108445525 0.2215507240970463 -0.09214737568396025 0 0 0 0
27744018 -0.39878124009562255 0.05955042287361192 0.22161182100008187 -0.09225556003026986 0 0 0 0
27776964 -0.399208565666067 0.059486861076731914 0.22140325626236962 -0.09237613839133539 0 0 0 0
27809910 -0.3989344942295041 0.05970081383380499 0.22140198253706553 -0.09242364651727339 0 0 0 0
27842856 -0.3987963066361629 0.05956052891199009 0.22135098311272255 -0.0925617577576138 0 0 0 0
27875802 -0.39875059311765815 0.05968733715917096 0.22127314376106438 -0.09256705659517477 0 0 0 0
27908748 -0.39900245645201227 0.05969506573704186 0.22135162111773615 -0.09270131325556102 0 0 0 0
27941694 -0.39904673184847544 0.05982074294863712 0.22119166234799073 -0.0929075913098589 0 0 0 0
27974640 -0.399130985628137 0.06025062479629985 0.2211311208900359 -0.09312677788642873 0 0 0 0
28007586 -0.3989024372348075 0.059737336885055906 0.22114256689768258 -0.09302165825534629 0 0 0 0
28040532 -0.3989057407881817 0.06034093085298151 0.2210804930284792 -0.09311514870216503 0 0 0 0
28073478 -0.39859497601651395 0.05998709394927122 0.2209896018082121 -0.09324028262848032 0 0 0 0
28106424 -0.39883858684314644 0.0599815985029646 0.22100201576071304 -0.09335780059116978 0 0 0 0
28139370 -0.3988863181567372 0.06045987632572142 0.22093473132935648 -0.09365201096380296 0 0 0 0
28172316 -0.3987724544849876 0.060152971813650445 0.22094898096918472 -0.09351067680609391 0 0 0 0
28205262 -0.3989449955698807 0.06051273587275037 0.22094114665883458 -0.0938094231004738 0 0 0 0
28238208 -0.3989049983909485 0.06063797323945817 0.2208296377362957 -0.09394850632005716 0 0 0 0
28271154 -0.3990567867924157 0.06039723710725912 0.22091858235476458 -0.09397913224889858 0 0 0 0
28304100 -0.39902353639165805 0.0605530458940472 0.2206315355920404 -0.09399421399244384 0 0 0 0
28337046 -0.39893973228716395 0.06091843961823583 0.2206301530471523 -0.0942704874096419 0 0 0 0
28369992 -0.39875753895460647 0.06084065634600675 0.2206022724605752 -0.09438736201233211 0 0 0 0
28402938 -0.39852056443308503 0.06073381440958645 0.2205613676178374 -0.0942480259046593 0 0 0 0
28435884 -0.39874323570995307 0.06069699600910398 0.22043354279825977 -0.09432979996034782 0 0 0 0
28468830 -0.39876958065181906 0.061076824999652314 0.220582025012231 -0.09454530252448727 0 0 0 0
28501776 -0.39848277227795975 0.06079075301928333 0.22038858944941903 -0.09454852994504948 0 0 0 0
28534722 -0.3990117984992579 0.061058608025090305 0.22037726038202735 -0.09476531966335218 0 0 0 0
28567668 -0.3988223742765218 0.0613110256379415 0.22037849188043113 -0.09495877839099402 0 0 0 0
28600614 -0.3987646252943434 0.061393293220706774 0.2204139990963026 -0.09505211474481315 0 0 0 0
28633560 -0.3987953386902017 0.06098510741471664 0.22019864757041022 -0.09498235993673997 0 0 0 0
28666506 -0.39852169687975203 0.061143857440667665 0.22015794900070235 -0.09506660206494522 0 0 0 0
28699452 -0.3986163230670809 0.06142718582183823 0.22001674960328396 -0.09524995945622547 0 0 0 0
28732398 -0.3986916377925394 0.06167843274291453 0.22014023772917415 -0.09538911484490237 0 0 0 0
28765344 -0.3982990323395257 0.06147679695011565 0.2198913481559992 -0.0955077901788011 0 0 0 0
28798290 -0.3989551825602013 0.061705015078852184 0.22009325759025128 -0.09568463422642492 0 0 0 0
28831236 -0.3987213652804173 0.06166784791735284 0.219946193732177 -0.09572163005691203 0 0 0 0
28864182 -0.39864968528217465 0.061726908651143254 0.2198168908452311 -0.09568910450152808 0 0 0 0
28897128 -0.39813181895585226 0.0619038882913861 0.21975125852613148 -0.09589268729241605 0 0 0 0
28930074 -0.3987244530337914 0.06188982612973565 0.21970622451645389 -0.09599481752691365 0 0 0 0
28963020 -0.39842006798017604 0.06203116881108608 0.21970476647172973 -0.09625539375916493 0 0 0 0
28995966 -0.3984696231094464 0.06205095402737179 0.21961282216980252 -0.09618253534952993 0 0 0 0
29028912 -0.3984412199589555 0.062082904968682524 0.2195575760119086 -0.09617710482157937 0 0 0 0
29061858 -0.3983185842525223 0.06204230147583326 0.21946949018899894 -0.09642337929454851 0 0 0 0
29094804 -0.39870302454286666 0.06219324381121902 0.21957632880588124 -0.0965190199390404 0 0 0 0
29127750 -0.3983345783518383 0.062189503012234984 0.21942154953436768 -0.09650386478917986 0 0 0 0
29160696 -0.39837762945246874 0.0625067850644917 0.2193830827620669 -0.09677421033533931 0 0 0 0
29193642 -0.39863636694491594 0.06266674031605284 0.21951998432232678 -0.09695681894213928 0 0 0 0
29226588 -0.39857054614274123 0.06258498757702648 0.21942980671250395 -0.09715768270677717 0 0 0 0
29259534 -0.3987202576658687 0.06251829682415373 0.21930857876753798 -0.09719648925121344 0 0 0 0
29292480 -0.39851256277026176 0.06279066036662251 0.2191929551480513 -0.09719308578209904 0 0 0 0
29325426 -0.398357177385545 0.06253082287128953 0.21914065302221122 -0.0971588479656641 0 0 0 0
29358372 -0.398394807893043 0.06296771079224546 0.2191962100793958 -0.09741902740742206 0 0 0 0
29391318 -0.39817163024734303 0.06283659006444149 0.21902560601983978 -0.09747317956979451 0 0 0 0
29424264 -0.39813797226880693 0.06269401246449835 0.21890190816841482 -0.09749330304219106 0 0 0 0
29457210 -0.3986400904144752 0.06283488943970568 0.2190695311635258 -0.09779368597990476 0 0 0 0
29490156 -0.3982220399626419 0.06302095060317674 0.2188655580231703 -0.09773404369886748 0 0 0 0
29523102 -0.3983502096619627 0.0633460522150302 0.2188724574601626 -0.09796481127226782 0 0 0 0
29556048 -0.39841162814456993 0.06335152597431087 0.21888459812511005 -0.09805483259870582 0 0 0 0
29588994 -0.39828798307783875 0.06316541142479037 0.21876041141951857 -0.09794845421513013 0 0 0 0
29621940 -0.39809594360600853 0.0635335146010331 0.2185882878568077 -0.09823649919371895 0 0 0 0
29654886 -0.3985022354186726 0.06341960662049764 0.21881417925213972 -0.09846305756832244 0 0 0 0
29687832 -0.39817857187048733 0.06377374458193631 0.21856659649710083 -0.09852127431189413 0 0 0 0
29720778 -0.398300622097878 0.06362591489543565 0.21867079997270125 -0.0984155580788901 0 0 0 0
29753724 -0.397956731640701 0.06388583241862907 0.21850865740551448 -0.09867214067979936 0 0 0 0
29786670 -0.39834382190360784 0.06368455743513972 0.21856236662262304 -0.09889115628496037 0 0 0 0
29819616 -0.3981920572429407 0.06398065847436386 0.218304774369795 -0.09890785048980048 0 0 0 0
29852562 -0.39811138795832907 0.06380886206467734 0.2183437354855268 -0.09869887763713028 0 0 0 0
29885508 -0.3979756139541338 0.06387351235894087 0.21815759596708464 -0.09903829054941964 0 0 0 0
29918454 -0.39783630132112624 0.0639350958844962 0.21805353323929583 -0.09911363487469019 0 0 0 0
29951400 -0.398255152152021 0.06408776481049941 0.21825879905551476 -0.0993004963190681 0 0 0 0
29984346 -0.39822486866501133 0.06441321660897871 0.21817338299182726 -0.09942413425989056 0 0 0 0
30017292 -0.3976981963307667 0.06404635084726672 0.2179705484391288 -0.09922616385792 0 0 0 0
30050238 -0.39780849469697177 0.06416477655238344 0.21792614798895274 -0.09955026152663106 0 0 0 0
30083184 -0.3979552731054775 0.06422179720380088 0.2178671052358034 -0.09967910748277038 0 0 0 0
30116130 -0.39826868168773133 0.06421796654856718 0.21794060891858963 -0.09970911314137798 0 0 0 0
30149076 -0.39816600246884903 0.06441266196554447 0.21804353479644722 -0.09991425749622794 0 0 0 0
30182022 -0.3979224323294817 0.06483506950753062 0.21781597388269963 -0.10008933500634493 0 0 0 0
30214968 -0.3982706526470502 0.06465092391743933 0.21783136373914774 -0.09983405564621771 0 0 0 0
30247914 -0.39765676773284914 0.06465582963943112 0.21775685462173905 -0.100177534072838 0 0 0 0
30280860 -0.3982046646172236 0.06482722148686793 0.21772037715175727 -0.10040558781861991 0 0 0 0
30313806 -0.39814785812158976 0.06495907103618913 0.2177113406651012 -0.10048158473168757 0 0 0 0
30346752 -0.39774171330066543 0.06468050169462179 0.21749211904515747 -0.10033597365222642 0 0 0 0
30379698 -0.39789379824946697 0.06522670118035864 0.21744130309564583 -0.10075284229826327 0 0 0 0
30412644 -0.39781031504052294 0.06499814528478219 0.21754847916623213 -0.10076209242307939 0 0 0 0
30445590 -0.3979661904501092 0.0653594044411514 0.21755897473692246 -0.10091082911170753 0 0 0 0
30478536 -0.39759005663958036 0.06499982319026976 0.21726169992338165 -0.1008221053081734 0 0 0 0
30511482 -0.3981511189092447 0.06518714382069637 0.2173818891587891 -0.10112145307409381 0 0 0 0
30544428 -0.3978907288743242 0.06516580936287528 0.21725839741560468 -0.10113682926952873 0 0 0 0
30577374 -0.39786207190654205 0.06538653277674664 0.21723425910993763 -0.10118698776452476 0 0 0 0
30610320 -0.39781058275082015 0.06576531669869844 0.21712284600573764 -0.10141617513438388 0 0 0 0
30643266 -0.3977907444730459 0.06556188107392166 0.21711325601996853 -0.1011727720387688 0 0 0 0
30676212 -0.3975730358584976 0.06560848982098984 0.21700044695423787 -0.10141485210400135 0 0 0 0
30709158 -0.3978671560067948 0.06597729933469647 0.21715288087012616 -0.10166644956030105 0 0 0 0
30742104 -0.3975614026060578 0.06546859416225746 0.21679452914711847 -0.10167975387131435 0 0 0 0
30775050 -0.39784505331902675 0.06576211905541485 0.2169011953948008 -0.10186510358588147 0 0 0 0
30807996 -0.39798400904064796 0.06580611497513521 0.21696534769648382 -0.1020089135672925 0 0 0 0
30840942 -0.39769520957869636 0.0657636675265782 0.2168689579655167 -0.10189716461370094 0 0 0 0
30873888 -0.3976925310055356 0.06597891107531659 0.2167872102577086 -0.1020799118024423 0 0 0 0
30906834 -0.39773445912475286 0.06623734584138909 0.21670994953308734 -0.10206115131464229 0 0 0 0
30939780 -0.3975348338000142 0.06586271867839968 0.21654452758845155 -0.10228210014446665 0 0 0 0
30972726 -0.3979311605490708 0.06627110457086706 0.21669099205112402 -0.10244294380745496 0 0 0 0
31005672 -0.3975095238460787 0.06610155063368403 0.21657908803473222 -0.10246584233875382 0 0 0 0
31038618 -0.3976430461138838 0.06667032720666762 0.2165110355643846 -0.10270827654786192 0 0 0 0
31071564 -0.3976817075388148 0.06673049718905394 0.21645589293382614 -0.10279994329780992 0 0 0 0
31104510 -0.3974006173514402 0.06654497590296711 0.21628034299337817 -0.10282387507118498 0 0 0 0
31137456 -0.39779193951329106 0.06673559007492909 0.21651371905053554 -0.10310914534142626 0 0 0 0
31170402 -0.3975070994917044 0.0668920341228917 0.2163214384155442 -0.10316704936551371 0 0 0 0
31203348 -0.3974674881876572 0.06672190766593342 0.21623515163615373 -0.10278447488335182 0 0 0 0
31236294 -0.39754104195660406 0.06661224721012296 0.21599286963847208 -0.10322529073909427 0 0 0 0
31269240 -0.39775924548983443 0.06683234474573087 0.21630321937776176 -0.10346183519579344 0 0 0 0
31302186 -0.3974630224833315 0.06700336489580223 0.21602121046206252 -0.10346216639865657 0 0 0 0
31335132 -0.39761778217292926 0.06722274091083813 0.21619609439864704 -0.10344706201353891 0 0 0 0
31368078 -0.39750744123342563 0.06700954810796057 0.21576703996051144 -0.1035946386426017 0 0 0 0
31401024 -0.3975359239508801 0.06690253781538504 0.21583121206148143 -0.10369379662454425 0 0 0 0
31433970 -0.3975061057167033 0.0674208444361074 0.21580933837820737 -0.1039045474890129 0 0 0 0
31466916 -0.3972580688577176 0.0673830497580883 0.21577028472489856 -0.10392923020519945 0 0 0 0
31499862 -0.39708966283618646 0.06729823286915289 0.21558754076262493 -0.10400290544849534 0 0 0 0
31532808 -0.397583052971496 0.0672715031105901 0.21563849911161595 -0.10429198011297293 0 0 0 0
31565754 -0.3974100949292307 0.06750560902455352 0.2156205657539492 -0.10418781800909045 0 0 0 0
31598700 -0.39715692677825204 0.06770044983305301 0.2155908782749139 -0.10445582164040992 0 0 0 0
31631646 -0.3973955315959081 0.06784137169227199 0.21557428004267928 -0.10458089018906383 0 0 0 0
31664592 -0.39726364933952746 0.06761823616792566 0.21545069346086954 -0.10456207103859684 0 0 0 0
31697538 -0.3975677991740997 0.06777796298161311 0.21561319404588272 -0.10477163949307071 0 0 0 0
31730484 -0.3973525836605744 0.0680654163617542 0.21540335129380644 -0.10491597774419421 0 0 0 0
31763430 -0.39734213345493397 0.06773533152843675 0.2152908862348118 -0.10476845133045745 0 0 0 0
31796376 -0.3973759707618331 0.0683443106060583 0.21549436940282976 -0.10523862337522982 0 0 0 0
31829322 -0.3974443498562669 0.06804212381625095 0.21520998004940867 -0.10520492775101539 0 0 0 0
31862268 -0.3970958275779206 0.06794072696776501 0.21525157485178567 -0.10516328733150802 0 0 0 0
31895214 -0.3972164695046394 0.06825530809227565 0.21516391602758997 -0.10541914763453342 0 0 0 0
31928160 -0.3972433903722665 0.0682313042750237 0.21503995816863017 -0.10541460056686368 0 0 0 0
31961106 -0.3972656711649724 0.06834070683639594 0.21507126135952526 -0.10527785967217805 0 0 0 0
31994052 -0.3970300756909741 0.06844458821308212 0.21496085069275578 -0.10544870071668738 0 0 0 0
32026998 -0.39724202812970544 0.06855661724204046 0.21491775724661666 -0.10571835584353217 0 0 0 0
32059944 -0.3969997019170349 0.068306479905564 0.2147029046626387 -0.105757945749519 0 0 0 0
32092890 -0.3974370742576096 0.06862922524872761 0.21491336494975719 -0.10599938426823186 0 0 0 0
32125836 -0.39711252659296503 0.06894830249587873 0.21469883574807597 -0.10620361310175871 0 0 0 0
32158782 -0.3972380846736715 0.06900087088238813 0.21475642880789372 -0.10607520811318964 0 0 0 0
32191728 -0.39702187034158243 0.0687999227030292 0.21454495307282134 -0.10611000550263701 0 0 0 0
32224674 -0.39693176054591844 0.06870692157659795 0.21437170643576445 -0.10634221516035038 0 0 0 0
32257620 -0.39700454414224845 0.06911647344481933 0.214574582205397 -0.10642770800193123 0 0 0 0
32290566 -0.3969979530485208 0.06915545647677673 0.21446560020931837 -0.10654383838605336 0 0 0 0
32323512 -0.3970136830145024 0.06923844927079864 0.21438969358188695 -0.10649754949033423 0 0 0 0
32356458 -0.39685598876828204 0.06908759376839842 0.2142042451864259 -0.10662063508695353 0 0 0 0
32389404 -0.3968780716917349 0.06942324784281524 0.2142997663763647 -0.10684295618191945 0 0 0 0
32422350 -0.39689156492293937 0.06948143490708626 0.21418029736377053 -0.10696916792001153 0 0 0 0
32455296 -0.39710613076534707 0.06948855763090743 0.21424544620304165 -0.10704994162088069 0 0 0 0
32488242 -0.3971930159313671 0.06955258037931479 0.21431112471714106 -0.10713913909779849 0 0 0 0
32521188 -0.3970363691566663 0.06969151919422267 0.21418388519099085 -0.1071900710545227 0 0 0 0
32554134 -0.39681492304148036 0.06943441155481472 0.21378757059116382 -0.10728717415844999 0 0 0 0
32587080 -0.39711051007902715 0.0695619057944982 0.21406059711759354 -0.10742872656650208 0 0 0 0
32620026 -0.39708951870886483 0.06976044562830913 0.21397410356210586 -0.10747788992334777 0 0 0 0
32652972 -0.39678515832916844 0.06986829280951123 0.2137686305488199 -0.10758573243503564 0 0 0 0
32685918 -0.39696205038384774 0.06998973919590383 0.21387442480595104 -0.10784645199841164 0 0 0 0
32718864 -0.39690045358173726 0.06992717184280052 0.21379340586693726 -0.10765459559478996 0 0 0 0
32751810 -0.3968936426385798 0.06990408763004795 0.21352044126665246 -0.10796447609353124 0 0 0 0
32784756 -0.39732105408265167 0.07023888244133897 0.21383295671304525 -0.10817514800184369 0 0 0 0
32817702 -0.39662174503457964 0.07001100498488838 0.21345258019304977 -0.10801573024733696 0 0 0 0
32850648 -0.3967216711775025 0.07030770036265813 0.21345953679793603 -0.10827356475790911 0 0 0 0
32883594 -0.3967520609656515 0.07028616036229786 0.2136040863361448 -0.10822231080190077 0 0 0 0
32916540 -0.3967375575876276 0.07028760642521015 0.21352754500463025 -0.10837000679037319 0 0 0 0
32949486 -0.39690755696355956 0.07027634475262752 0.2132668522514852 -0.108537655287409 0 0 0 0
32982432 -0.3967522445769052 0.07037942946820228 0.21330137600423216 -0.10864200606610964 0 0 0 0
33015378 -0.3968414334291156 0.0705628733381053 0.21325432874837105 -0.10876183248653903 0 0 0 0
33048324 -0.39672835163468395 0.07074569311095873 0.21321174638687856 -0.10880285907472691 0 0 0 0
33081270 -0.3967524544973742 0.07084785850015493 0.21322067791929786 -0.1088540386438747 0 0 0 0
33114216 -0.3966492668854466 0.07068702103513935 0.21312908952621035 -0.10898750262726492 0 0 0 0
33147162 -0.39653960725846477 0.07066717057589665 0.2128401118899766 -0.10899972318644237 0 0 0 0
33180108 -0.3968579626983487 0.07086999947727712 0.21302000033317822 -0.10925699173376252 0 0 0 0
33213054 -0.3966382774634354 0.07124909370962122 0.2128846689875076 -0.10935113702299674 0 0 0 0
33246000 -0.39647268483248577 0.07134347131758025 0.21281617868064906 -0.10953134103780193 0 0 0 0
33278946 -0.3966671357618134 0.07122302071490845 0.212885777296737 -0.10942956062893143 0 0 0 0
33311892 -0.39668273639482776 0.07129555490034896 0.2128833521955718 -0.1095424717767747 0 0 0 0
33344838 -0.3965065745704346 0.07127423064881465 0.21271747497734483 -0.1096074876649923 0 0 0 0
33377784 -0.3966550132119574 0.07148668735739876 0.2127111760121 -0.10983622690650932 0 0 0 0
33410730 -0.3965452045545292 0.07152104467774777 0.2126782031363257 -0.11002441760737866 0 0 0 0
33443676 -0.3967089576729338 0.07144050220456491 0.21263244862430586 -0.11013915338470094 0 0 0 0
33476622 -0.3964768386624871 0.07150266101399744 0.21229890064490395 -0.1100313766819945 0 0 0 0
33509568 -0.39657234433928606 0.07170200091308085 0.2124595209532854 -0.11028120946443781 0 0 0 0
33542514 -0.39640828421915303 0.07178101766849584 0.21230405224345528 -0.11038498597247662 0 0 0 0
33575460 -0.39645524780390246 0.07188661811985497 0.2122757947220199 -0.11049583423686404 0 0 0 0
33608406 -0.39652328195961434 0.07190537082068812 0.21228099326785213 -0.11043099075756456 0 0 0 0
33641352 -0.3964518723881326 0.0718302976585157 0.21232682307880138 -0.11070347806963027 0 0 0 0
33674298 -0.39626946394543283 0.07183536578535332 0.2120204318164875 -0.1106299777853706 0 0 0 0
33707244 -0.396608644669723 0.0719053751383837 0.2120501055795685 -0.11070628758153231 0 0 0 0
33740190 -0.3963600661988296 0.07221459622078041 0.2119959315629022 -0.11107736037094217 0 0 0 0
33773136 -0.39626132581624907 0.07222116483554775 0.21192638367271657 -0.11094032349648848 0 0 0 0
33806082 -0.39638672452764345 0.07190523144723887 0.21192915471260285 -0.11108194124696105 0 0 0 0
33839028 -0.39637224702841906 0.0724103763699659 0.21164290977079306 -0.11127400862239649 0 0 0 0
33871974 -0.39666867331712274 0.0726051410071962 0.2118063593672141 -0.1111994887214535 0 0 0 0
33904920 -0.3962212305738581 0.07236967488496948 0.21168554070645926 -0.11153136973895522 0 0 0 0
33937866 -0.3963276491919534 0.07269804571656091 0.21175931461348915 -0.11143910688496116 0 0 0 0
33970812 -0.39637527478852425 0.07247487110643848 0.2114844738336491 -0.1114849948976791 0 0 0 0
34003758 -0.39650065401548756 0.07258464244978709 0.21159287908849747 -0.1117153108876779 0 0 0 0
34036704 -0.3966359212669218 0.07264831071024772 0.21147912387152165 -0.11181832751065462 0 0 0 0
34069650 -0.39638408266921976 0.07277146763493049 0.21140270626987467 -0.1118966576673812 0 0 0 0
34102596 -0.3961695490192563 0.07283102167923235 0.21133114773627748 -0.11200827692219582 0 0 0 0
34135542 -0.39618110834297976 0.0732312906702695 0.21125831460721392 -0.1123594445358552 0 0 0 0
34168488 -0.3962470149118412 0.07302437606151964 0.21144429368078416 -0.11212552600898694 0 0 0 0
34201434 -0.39613517797774606 0.07297186063335545 0.21133662974943182 -0.11250000993895795 0 0 0 0
34234380 -0.3959809393670302 0.07306382429911489 0.2111755090018063 -0.11242421480895166 0 0 0 0
34267326 -0.3964274880735661 0.07324771025983343 0.21112124406160634 -0.11249033889781543 0 0 0 0
34300272 -0.3962016334146286 0.07339261225917261 0.21111877781073607 -0.11255593620795257 0 0 0 0
34333218 -0.39611453659454493 0.07332135804234671 0.21088419269096048 -0.11266052736786673 0 0 0 0
34366164 -0.39620152937010417 0.07354673011179992 0.21102579697049784 -0.11284521205291058 0 0 0 0
34399110 -0.3962170807130419 0.07347274840981688 0.21097500096182503 -0.11303473053520781 0 0 0 0
34432056 -0.3960001351961805 0.0735125365382524 0.2107789418089966 -0.11294039036086374 0 0 0 0
34465002 -0.39610999294823407 0.0737578167496855 0.21087620096165766 -0.11305767741370237 0 0 0 0
34497948 -0.3961149080437683 0.07364014491726302 0.21076057571262607 -0.1132661758885134 0 0 0 0
34530894 -0.39590328454283424 0.07361934285355733 0.21052399256715137 -0.11331287762303466 0 0 0 0
34563840 -0.3959159192439356 0.07374232467474579 0.21040641179066902 -0.11332975531274249 0 0 0 0
34596786 -0.39585179757784533 0.07378476028944768 0.21035016342495366 -0.11349345126245747 0 0 0 0
34629732 -0.39630292414840357 0.07395535262634566 0.21055141088670631 -0.11362675565915283 0 0 0 0
34662678 -0.39592032257085563 0.07398732640451726 0.2104083272723866 -0.11365996772656999 0 0 0 0
34695624 -0.39608221397183324 0.07413511388147784 0.21049919326715943 -0.11377559826966464 0 0 0 0
34728570 -0.3962092032285027 0.07402644577950025 0.2104375524175106 -0.11409041183317348 0 0 0 0
34761516 -0.39608909099083045 0.0741492581735082 0.21022995376227996 -0.11394040316540122 0 0 0 0
34794462 -0.3961346738649511 0.07430772621705578 0.2102256356066512 -0.11413458401222111 0 0 0 0
34827408 -0.39581542918904683 0.07450967556839265 0.21004602720193924 -0.11423594713047172 0 0 0 0
34860354 -0.3957160930228762 0.07454845381717301 0.21002170119382638 -0.11429511250142552 0 0 0 0
34893300 -0.39592933602738917 0.07467426923277938 0.2099616109250625 -0.11440956196419522 0 0 0 0
34926246 -0.3957418355514664 0.07479562918016075 0.20993808887273427 -0.11438790887212504 0 0 0 0
34959192 -0.39574562265056196 0.07463906288697968 0.20997610750234935 -0.1144723831138755 0 0 0 0
34992138 -0.39572339426482234 0.07473322382016677 0.2097288503952445 -0.11469660326706871 0 0 0 0
35025084 -0.39588309934057175 0.0749072404046261 0.20978490562050361 -0.11470222580131716 0 0 0 0
35058030 -0.39571839591204744 0.07520515163180788 0.2097037801651189 -0.114859555060556 0 0 0 0
35090976 -0.39584313850128466 0.07501577156954115 0.20980399028213154 -0.11491519109850543 0 0 0 0
35123922 -0.39591825590439744 0.07500070190729116 0.20956018101294382 -0.11509995487429739 0 0 0 0
35156868 -0.3956057011029987 0.07515130644686069 0.20944000888175743 -0.11505598265470623 0 0 0 0
35189814 -0.39610591530296363 0.07536141895022547 0.2095791216032793 -0.11521251287880212 0 0 0 0
35222760 -0.395571456465652 0.07524792532673515 0.20939336372711503 -0.11539039393324539 0 0 0 0
35255706 -0.39582107965773594 0.07558788796310155 0.2093306890756101 -0.11555764811643442 0 0 0 0
35288652 -0.39579538542335096 0.07535885898665316 0.20940600573206158 -0.11554810661909924 0 0 0 0
35321598 -0.39551113568077784 0.07573706955190669 0.20911873194823208 -0.11567869683791289 0 0 0 0
35354544 -0.3956642272661248 0.07575348697020239 0.20929110287180575 -0.11594183109320622 0 0 0 0
35387490 -0.3956803253295494 0.07603685342756329 0.20927073850590147 -0.11588545800102076 0 0 0 0
35420436 -0.3957272750821287 0.07558451962710787 0.20903099998537158 -0.11600236019481222 0 0 0 0
35453382 -0.3956497601521715 0.07575897898282602 0.20900432112892392 -0.11606994063977527 0 0 0 0
35486328 -0.39555633392627426 0.07572532998376742 0.20893655513204076 -0.11609563171372916 0 0 0 0
35519274 -0.39553134246527816 0.0759214145515512 0.20904209109883226 -0.11620535144730475 0 0 0 0
35552220 -0.39563517233912937 0.07579344793378787 0.20895006218767329 -0.1163410444347184 0 0 0 0
35585166 -0.3958227379933071 0.07629160273832297 0.2087329257081392 -0.11651195014547125 0 0 0 0
35618112 -0.3955757089866753 0.07667766450561624 0.20869206466635537 -0.11658563725622186 0 0 0 0
35651058 -0.3956778881571311 0.07619749178779997 0.2087400419265859 -0.11656230206281143 0 0 0 0
35684004 -0.39564266122972663 0.07590992026592068 0.20867316554828472 -0.11669995409925453 0 0 0 0
35716950 -0.3954972422294263 0.07624191452258548 0.20842389102320777 -0.11678461222713489 0 0 0 0
35749896 -0.39554610543908214 0.07633618355828961 0.20842491735058266 -0.11694215748368342 0 0 0 0
35782842 -0.39535594942118696 0.07648435049381333 0.2083501003073147 -0.1170836504461827 0 0 0 0
35815788 -0.3954869091297781 0.07689470620489307 0.20829799510245553 -0.11710291454324319 0 0 0 0
35848734 -0.3954641141929009 0.07660652777445864 0.20834285117318327 -0.11715259941092128 0 0 0 0
35881680 -0.39549162722758385 0.07662685480062054 0.2081708692227208 -0.11730117973877506 0 0 0 0
35914626 -0.39532099651598945 0.0767901614787313 0.2081284722583687 -0.1174452495632888 0 0 0 0
35947572 -0.3956108910473437 0.07709338421628527 0.2081151194075613 -0.11754022288371004 0 0 0 0
35980518 -0.3951515464038649 0.07697453587438191 0.20800786362334114 -0.11756881040773273 0 0 0 0
36013464 -0.39528949473692654 0.07742503711734977 0.2079826480403028 -0.11781955894538694 0 0 0 0
36046410 -0.39546896370555595 0.07711908763255178 0.20799592414891727 -0.11783500231881675 0 0 0 0
36079356 -0.3952108134638578 0.07696619358714273 0.2079483767094107 -0.117939585510819 0 0 0 0
36112302 -0.39498041822309404 0.07712104356919877 0.20775724826726036 -0.11796108700588046 0 0 0 0
36145248 -0.39505950112080346 0.07733665235228306 0.2076970857555127 -0.11819374276374882 0 0 0 0
36178194 -0.39524974804571367 0.07732494941130373 0.20777064400922335 -0.1182254618717394 0 0 0 0
36211140 -0.39533647113434767 0.07778008618555102 0.2076472233836466 -0.11832718544579901 0 0 0 0
36244086 -0.39521787359406274 0.07738625081809809 0.20771396228816338 -0.1183812929210011 0 0 0 0
36277032 -0.39561422206054625 0.07716714639388578 0.20758901799317836 -0.118598532056316 0 0 0 0
36309978 -0.3951792175104481 0.07768099845445492 0.20745023308792843 -0.11859273943164499 0 0 0 0
36342924 -0.3952391990820195 0.0777641160944952 0.20743298765658486 -0.11866492910371335 0 0 0 0
36375870 -0.3954072850064123 0.07826663476714947 0.20740931369910084 -0.11893330187118106 0 0 0 0
36408816 -0.39522933073125743 0.07783502283999359 0.20736756138653623 -0.11878784194858152 0 0 0 0
36441762 -0.3947032070809484 0.07772023529182034 0.20717503650817948 -0.11894651329801169 0 0 0 0
36474708 -0.39534826778740334 0.07794011626541426 0.20724852994531043 -0.1191213995114574 0 0 0 0
36507654 -0.3948770902613184 0.07793969257735586 0.20702503603924946 -0.119032285492692 0 0 0 0
36540600 -0.39485968550676565 0.07809256487822783 0.2069614301408191 -0.11924791410760129 0 0 0 0
36573546 -0.39504275613385625 0.07838776369311654 0.20694927574283886 -0.11934221683518013 0 0 0 0
36606492 -0.39498438345100806 0.07840132448724157 0.20697687927094424 -0.11947612802491839 0 0 0 0
36639438 -0.3950111436516552 0.07806648648336055 0.206855042311005 -0.11966170963969885 0 0 0 0
36672384 -0.39487026128401176 0.07844940248158772 0.20664768704381153 -0.11971843325851138 0 0 0 0
36705330 -0.3951242310107312 0.07860609189574407 0.20675560013476862 -0.11989533819838598 0 0 0 0
36738276 -0.39492515236197284 0.07865311130111427 0.20658350428761604 -0.11975755129339272 0 0 0 0
36771222 -0.39491481013755036 0.0788342375009796 0.20662902872886804 -0.12002719371113148 0 0 0 0
36804168 -0.39483817534628984 0.0783958852697382 0.2064724288427634 -0.12006587979540918 0 0 0 0
36837114 -0.39470824965580087 0.07872328031344317 0.206433305141823 -0.12019170544764267 0 0 0 0
36870060 -0.3947156845742081 0.07886857271947378 0.20631901299767 -0.12017543736989274 0 0 0 0
36903006 -0.39493079603554004 0.07897077733507359 0.20642741991585375 -0.12029136145454625 0 0 0 0
36935952 -0.39490752732559203 0.0790640321302017 0.20627296096724917 -0.12049422012495511 0 0 0 0
36968898 -0.3947942474357897 0.07883084479251769 0.20619369221178058 -0.12046915956852407 0 0 0 0
37001844 -0.39491874220704054 0.07919854596466647 0.2061541153633265 -0.12077558223098571 0 0 0 0
37034790 -0.39460758467644474 0.07925820326993005 0.20615670385383783 -0.12066226846539717 0 0 0 0
37067736 -0.3948068536676575 0.07919769711884647 0.20600633491706263 -0.12082967185313312 0 0 0 0
37100682 -0.3950863608798566 0.07931080681456348 0.206075704920642 -0.12100943420685259 0 0 0 0
37133628 -0.39459011472007527 0.07925397828267548 0.2058402744008628 -0.12099280962776991 0 0 0 0
37166574 -0.39484306655424556 0.07941912473707359 0.20594794381736725 -0.12102357974725969 0 0 0 0
37199520 -0.3949642551607419 0.08005858944344893 0.2058492294575137 -0.12137557020601794 0 0 0 0
37232466 -0.394824378996382 0.07940038929824123 0.20578928461655746 -0.12133854148242955 0 0 0 0
37265412 -0.394585424024905 0.07964121372658255 0.20560499462216422 -0.1213497693262836 0 0 0 0
37298358 -0.39492669081234166 0.07980240656200564 0.20560655639976055 -0.12165773601171385 0 0 0 0
37331304 -0.3945912019436083 0.08042559320175521 0.20567138064340276 -0.12178489963349685 0 0 0 0
37364250 -0.39462906597151476 0.08040272902967295 0.20554860179364906 -0.12183190033515225 0 0 0 0
37397196 -0.39483611517188455 0.07972209347929336 0.20551830178479635 -0.12189497207076763 0 0 0 0
37430142 -0.39433947002396413 0.07987510413631844 0.20535416714920418 -0.12174277538968101 0 0 0 0
37463088 -0.39480601854074143 0.08005526473557271 0.20523427885768747 -0.12204145049763954 0 0 0 0
37496034 -0.39480069151265584 0.08027034632455286 0.20523759283042808 -0.12199868660326153 0 0 0 0
37528980 -0.3944693819062032 0.08042967227931531 0.205259108222574 -0.12216852674491746 0 0 0 0
37561926 -0.3945457981926591 0.08049569219975991 0.20519643637608517 -0.12242562217843504 0 0 0 0
37594872 -0.39466760271401075 0.08039111475746134 0.20500329121537142 -0.12231218120009296 0 0 0 0
37627818 -0.39480081760863717 0.08025601126678594 0.20513350370557695 -0.12251908488080153 0 0 0 0
37660764 -0.39447097398308634 0.08030998541156595 0.20488394794104797 -0.12259543819905487 0 0 0 0
37693710 -0.39445925302628104 0.08066460474919608 0.20484123119778988 -0.12256113531896907 0 0 0 0
37726656 -0.3945914352816958 0.08087772171340016 0.20489246500866973 -0.12284054994348116 0 0 0 0
37759602 -0.3944161697183249 0.08084036602625841 0.2047249744932171 -0.12283207646264759 0 0 0 0
37792548 -0.39438373842304936 0.08052575425123253 0.20464197366181014 -0.12288108133868572 0 0 0 0
37825494 -0.394761204135296 0.0808348549304221 0.20477734643867126 -0.12310534428906898 0 0 0 0
37858440 -0.3944410383366404 0.0810513022811747 0.20442393083968408 -0.1230476360392657 0 0 0 0
37891386 -0.394541457670424 0.081121173598081 0.20451501579362336 -0.12335261465619136 0 0 0 0
37924332 -0.39427680432696244 0.08137430080086769 0.20453101580908645 -0.123402811498098 0 0 0 0
37957278 -0.3944865375667394 0.08166314180871721 0.20431928710701666 -0.12343854846538366 0 0 0 0
37990224 -0.3943864713330044 0.08091493868895282 0.20436842601544583 -0.12356427523578456 0 0 0 0
38023170 -0.39444010480330916 0.08108266993366076 0.20431042049028392 -0.12370769131874185 0 0 0 0
38056116 -0.39436178495782964 0.08152233964194096 0.20414120204691177 -0.12371084715423943 0 0 0 0
38089062 -0.3943527919838855 0.08141780587470493 0.20402802448148738 -0.12382083009158155 0 0 0 0
38122008 -0.3943495838111744 0.0814991665023461 0.20406736404122827 -0.1240176210968042 0 0 0 0
38154954 -0.3942162423229553 0.08167964723785968 0.204044620891423 -0.12382387650487467 0 0 0 0
38187900 -0.39432053516699217 0.08180339570596101 0.20403410304644237 -0.12401952819022617 0 0 0 0
38220846 -0.39416977020311555 0.08182431129414533 0.20393376059047805 -0.1241850637924765 0 0 0 0
38253792 -0.39422255367480324 0.08191730098093773 0.20389747522120913 -0.12424590393215804 0 0 0 0
38286738 -0.3940911449703677 0.08228025497640475 0.20375489784221673 -0.12445334844968088 0 0 0 0
38319684 -0.3941950217467825 0.08233462850684618 0.20370556701609333 -0.12460436153765352 0 0 0 0
38352630 -0.3943016648566335 0.08260583921630957 0.20352738794319927 -0.12479977153620309 0 0 0 0
38385576 -0.3940159124569667 0.0820808362904833 0.20348812515402717 -0.12470336206991862 0 0 0 0
38418522 -0.3940120680449001 0.08175408977540313 0.20347769759772436 -0.12475518144361543 0 0 0 0
38451468 -0.3942018537554016 0.0822839798864378 0.2033583388257393 -0.12480816234634062 0 0 0 0
38484414 -0.3942754314747012 0.0823483370079938 0.2032912973086748 -0.1250598662341668 0 0 0 0
38517360 -0.3939505534032429 0.08266170433560911 0.20337780339423198 -0.1251700514987448 0 0 0 0
38550306 -0.3939371029016723 0.08209913323505212 0.20320891391886928 -0.12511192414440056 0 0 0 0
38583252 -0.3938494924694016 0.08249887161070608 0.2031020588344591 -0.12523115729818937 0 0 0 0
38616198 -0.39414046771539685 0.08288248612852864 0.20311283102330469 -0.1254735092590403 0 0 0 0
38649144 -0.39401243601994096 0.08281651245036951 0.20317016111604025 -0.12549764976440606 0 0 0 0
38682090 -0.39403120440216005 0.08280080031783184 0.20292974614941092 -0.1255700777411979 0 0 0 0
38715036 -0.3941106973773412 0.0826122934752821 0.20294446839293795 -0.12556704972269545 0 0 0 0
38747982 -0.39376523172576683 0.0827370171205881 0.20289132219658934 -0.1256244809064209 0 0 0 0
38780928 -0.3940931748796014 0.08310366088605227 0.20273766027684204 -0.12582192583919596 0 0 0 0
38813874 -0.39391309876773467 0.08318407022559178 0.20277143027374378 -0.12584713418176388 0 0 0 0
38846820 -0.3938684707048789 0.08348771979421299 0.2027222550579762 -0.12609257801784637 0 0 0 0
38879766 -0.39389878268725875 0.08344131973941225 0.20267914210767607 -0.12616259753351952 0 0 0 0
38912712 -0.3938280943819565 0.08294887633143452 0.20259778530024034 -0.12616741563878192 0 0 0 0
38945658 -0.39375974283100984 0.0831914826169503 0.20233464309149216 -0.12629423420854408 0 0 0 0
38978604 -0.39360839264570074 0.08349653280071972 0.20244643765257903 -0.12626385078160718 0 0 0 0
39011550 -0.39369381829424605 0.08328861247733997 0.2022816628165685 -0.1264912605371925 0 0 0 0
39044496 -0.39415905013933306 0.0834462553558049 0.2024224987265712 -0.1266294670929531 0 0 0 0
39077442 -0.3938300149500383 0.08372322713479927 0.2023118875991291 -0.12682915926143462 0 0 0 0
39110388 -0.393673945079657 0.08359024079885922 0.2021718302191753 -0.1265516411330287 0 0 0 0
39143334 -0.39375126993969495 0.08343609809526895 0.2019538007088332 -0.12674701500092939 0 0 0 0
39176280 -0.39383507708669835 0.0836697705251215 0.20213259030104075 -0.12708563994966204 0 0 0 0
39209226 -0.3937287491828294 0.08389931366467596 0.2019847690873165 -0.12716487990327438 0 0 0 0
39242172 -0.3936262111778514 0.08403426545526727 0.2019180782142313 -0.12690072765550384 0 0 0 0
39275118 -0.3937028869039944 0.08412146866128528 0.20175335854576362 -0.12737937675741087 0 0 0 0
39308064 -0.3935534120832838 0.08381067413216677 0.20168328865137475 -0.12720774713792493 0 0 0 0
39341010 -0.3936047796033359 0.08379846578748794 0.20175921049872989 -0.12737557183362969 0 0 0 0
39373956 -0.3939075726486678 0.08424409507223515 0.20176792074351318 -0.12762661165185238 0 0 0 0
39406902 -0.3936878276934369 0.08435415751524933 0.20152261256856302 -0.12758955093003382 0 0 0 0
39439848 -0.39351218032337004 0.08443863322629097 0.20153347009915848 -0.1274545086401199 0 0 0 0
39472794 -0.393284933929109 0.08450625534787325 0.20154762554022462 -0.12771637804584407 0 0 0 0
39505740 -0.39343559504606335 0.08406292150752756 0.20126843464818847 -0.1277155228227314 0 0 0 0
39538686 -0.3936661569413454 0.08464931432043094 0.20135920662041817 -0.1280286873093609 0 0 0 0
39571632 -0.39338675948701446 0.0846164227958211 0.20115418429572654 -0.12808028887442824 0 0 0 0
39604578 -0.393596945685231 0.08491326161061252 0.20122921818846046 -0.12812220385190698 0 0 0 0
39637524 -0.3931536803122779 0.08483113000274928 0.20114789438680003 -0.12811626533864137 0 0 0 0
39670470 -0.3933898780697533 0.08446259776007321 0.20104752027049744 -0.12822032892214147 0 0 0 0
39703416 -0.393618600530916 0.08486556108115437 0.20117305394343327 -0.12849994652495322 0 0 0 0
39736362 -0.39327903211393156 0.08490108490998552 0.20079146438844842 -0.12848703070252485 0 0 0 0
39769308 -0.3934969415317302 0.08495392340069322 0.20096518258804907 -0.12849858466563777 0 0 0 0
39802254 -0.39335701813302276 0.08527766950124985 0.20076316159766894 -0.12892279483725305 0 0 0 0
39835200 -0.393440076899476 0.0848323190450632 0.20075229024736924 -0.12870143591109498 0 0 0 0
39868146 -0.39366017334362385 0.08541115316340767 0.20072762306580227 -0.12906820490587162 0 0 0 0
39901092 -0.39321163909308615 0.08527755433215829 0.20047598388389415 -0.12900253118120442 0 0 0 0
39934038 -0.3931715696942328 0.08541743348429627 0.20061481211953966 -0.12887409276839923 0 0 0 0
39966984 -0.3933051999824626 0.08559338391854562 0.20044917325381548 -0.1292525915158836 0 0 0 0
39999930 -0.39310866043853565 0.0852123406059814 0.2002290977454126 -0.12921289998850624 0 0 0 0
