# HZ S RI R 50
300000 -0.5608642321370981 -0.013046084660815041 0.2938688336111558 -0.006131519280524167 0 0 0 0
332946 -0.5453232786041685 0.05577866308726639 0.25270994190824303 -0.09787490242835964 0 0 0 0
365892 -0.5063243821318486 0.08343670432433758 0.2007664099062877 -0.12257948124543053 0 0 0 0
398838 -0.47557285294078305 0.08679015450907436 0.16225393646266767 -0.12248261129911302 0 0 0 0
431784 -0.4745370009664755 0.06425757733403417 0.16002098009883514 -0.08867875257193636 0 0 0 0
464730 -0.4606826539012393 0.059501829777190554 0.14231024104899045 -0.08333950155920102 0 0 0 0
497676 -0.4514586759956057 0.055009108441941505 0.12946272879955195 -0.07702902628280253 0 0 0 0
530622 -0.4450778871171021 0.05057937865160219 0.12035524763573445 -0.0711102782432818 0 0 0 0
563568 -0.44071588403689016 0.0473251127054594 0.11370016924710025 -0.06587808765822069 0 0 0 0
596514 -0.4369000763559074 0.044591776865693995 0.10870864044043695 -0.06128808366932361 0 0 0 0
629460 -0.4339959255949129 0.04215958869734603 0.1048266510026291 -0.055642323149228026 0 0 0 0
662406 -0.43183034569166545 0.03993284591184139 0.10181834147516154 -0.052123952656966635 0 0 0 0
695352 -0.4298076462049733 0.03822143499055861 0.0992477259952587 -0.04901139442061592 0 0 0 0
728298 -0.42824026172035323 0.03656554443306154 0.09725237034327527 -0.046228013277994806 0 0 0 0
761244 -0.42629862611068975 0.034889294912490154 0.0954221799947778 -0.043705943044104474 0 0 0 0
794190 -0.42487907287278076 0.033318422980263336 0.09391988929917315 -0.04137977690708035 0 0 0 0
827136 -0.42340230085470015 0.0315463089771344 0.0927654281797001 -0.03933546586236226 0 0 0 0
860082 -0.4222708654844335 0.030539643248800232 0.09162519651162356 -0.037503100842273776 0 0 0 0
893028 -0.4213806699723866 0.02941943841742142 0.09065889852052204 -0.03576826943359724 0 0 0 0
925974 -0.4205262597549316 0.02874788298984345 0.08980902740511475 -0.034241999717716645 0 0 0 0
958920 -0.4193448027972903 0.02763858352772016 0.08905313834072177 -0.03280724831525222 0 0 0 0
991866 -0.41921081143313166 0.02630160651261566 0.08845290294176886 -0.031428915830451584 0 0 0 0
1024812 -0.4184089930717089 0.025465849423817247 0.08784387597610721 -0.030136074896470855 0 0 0 0
1057758 -0.41795667573339185 0.024955373705894488 0.0873564569437754 -0.029074832457979007 0 0 0 0
1090704 -0.4174561926017858 0.024013048693806997 0.08686681674872973 -0.027989483012668147 0 0 0 0
1123650 -0.4167370398334043 0.023667284831078588 0.08643088934235323 -0.02693928871855619 0 0 0 0
1156596 -0.4164483941268411 0.022572037042796197 0.08612139830090715 -0.025981999310248444 0 0 0 0
1189542 -0.41594963989986583 0.021667256516135432 0.08573812370571605 -0.025050034868869062 0 0 0 0
1222488 -0.4157040425652407 0.021210175534132836 0.08548840127126534 -0.024195523639161012 0 0 0 0
1255434 -0.41583269452090904 0.02051492901523414 0.08518285739969064 -0.023420352105101738 0 0 0 0
1288380 -0.41538607353905543 0.020023340533834928 0.08486135186045773 -0.022706410408964182 0 0 0 0
1321326 -0.4146974804627474 0.019698901930632534 0.08463505395833952 -0.021979985205821936 0 0 0 0
1354272 -0.4147980140023263 0.019334994845882154 0.08442237752912585 -0.021268696603834587 0 0 0 0
1387218 -0.41435916457490285 0.0184430952570077 0.08413444508640364 -0.02067325250418953 0 0 0 0
1420164 -0.4140730593112108 0.017844953677577324 0.08396901343672536 -0.019996682194852504 0 0 0 0
1453110 -0.41384814749439425 0.017414713547854035 0.08382830950858801 -0.019432428439786636 0 0 0 0
1486056 -0.41448526026710336 0.016988365059011454 0.08362762446478092 -0.018867162903977473 0 0 0 0
1519002 -0.4143434942461078 0.01676158649300917 0.08351100016194836 -0.01836848468316346 0 0 0 0
1551948 -0.4141194626218225 0.016381331635604547 0.08331026316092918 -0.01784033718801318 0 0 0 0
1584894 -0.41408393300128155 0.015910454766231746 0.08320650617383239 -0.017303189069270596 0 0 0 0
1617840 -0.41392966862590685 0.01569981143405337 0.08307224600909464 -0.016889383154188174 0 0 0 0
1650786 -0.41421770232779576 0.015572974541623782 0.08294734815322403 -0.016411393797171894 0 0 0 0
1683732 -0.4138277650678135 0.015245450123802278 0.08282925216009879 -0.016000543316320982 0 0 0 0
1716678 -0.4137290205967239 0.014913239503761331 0.08271492146498055 -0.015559963707735823 0 0 0 0
1749624 -0.4138437729516825 0.014936919792742412 0.08261454044422585 -0.015183282915093528 0 0 0 0
1782570 -0.4137255263814567 0.014551547632543254 0.0825092234738825 -0.014762201082760561 0 0 0 0
1815516 -0.4138113881908468 0.014329228720137381 0.08239874633306521 -0.014367210054598744 0 0 0 0
1848462 -0.41368194593730645 0.013719297101274577 0.08232830329388097 -0.014024887362197416 0 0 0 0
1881408 -0.41378875012006705 0.013564740799711896 0.08225489535417987 -0.013685224243052792 0 0 0 0
1914354 -0.41400796569823106 0.01359203180091391 0.08217195676313635 -0.013351952078798095 0 0 0 0
1947300 -0.41375196220146376 0.013486371672087417 0.08204032153041917 -0.012970415078603553 0 0 0 0
1980246 -0.41403051991003614 0.013192105699623473 0.08195876252363402 -0.012680945974120674 0 0 0 0
2013192 -0.4138084442136491 0.01300812758310486 0.08193709517243063 -0.012369500470392036 0 0 0 0
2046138 -0.4139057616854182 0.01294028005354933 0.08189738375861506 -0.012077021431964404 0 0 0 0
2079084 -0.4140509073405076 0.012907864507843186 0.08181134245078406 -0.011792615062546039 0 0 0 0
2112030 -0.4139709519780371 0.01275453979375066 0.08180886796659524 -0.011482335622979867 0 0 0 0
2144976 -0.4141339333020637 0.01280124541160879 0.081729412280071 -0.01125446280299001 0 0 0 0
2177922 -0.41413301382840373 0.012618113251851458 0.0816621753419239 -0.010955451563296421 0 0 0 0
2210868 -0.4140756034258693 0.012750498248304773 0.08163393113968029 -0.010708485738929735 0 0 0 0
2243814 -0.41417260918534854 0.012529189476460601 0.08155367454844308 -0.01043983921692962 0 0 0 0
2276760 -0.4140255812691828 0.01246236159434226 0.08153816286999688 -0.010198779340894243 0 0 0 0
2309706 -0.4142707570181678 0.012328388769593678 0.08150698872285665 -0.009949623056803943 0 0 0 0
2342652 -0.41425488429973045 0.012076343236295311 0.08143529403965272 -0.009673814207044072 0 0 0 0
2375598 -0.4143395692113566 0.012152496776393202 0.08144383046053591 -0.009517689654881669 0 0 0 0
2408544 -0.4143338273838597 0.012153077346396857 0.08140317486102618 -0.009292133209830905 0 0 0 0
2441490 -0.4141625678588387 0.012151594567205546 0.08128644155358739 -0.009079717314220467 0 0 0 0
2474436 -0.41448425282631235 0.012152849392550076 0.08121204425061507 -0.008837811446433336 0 0 0 0
2507382 -0.41412254297988976 0.012044858667034756 0.08119801144714685 -0.008622822243201536 0 0 0 0
2540328 -0.41445875250895414 0.01224247745843838 0.08127337959680114 -0.008428578347326417 0 0 0 0
2573274 -0.41416709428091 0.012023293782045119 0.0811503895410882 -0.008224677748202925 0 0 0 0
2606220 -0.4144851287006736 0.012159787247149867 0.08112555986631674 -0.00804121452752469 0 0 0 0
2639166 -0.4145616337522967 0.012015770217184318 0.08108460457428991 -0.007845468155828749 0 0 0 0
2672112 -0.4143072955149002 0.011898222911066215 0.08109492708636795 -0.007680349444208647 0 0 0 0
2705058 -0.41443573578177295 0.012047280896740368 0.08104057913420386 -0.0075082848835916595 0 0 0 0
2738004 -0.41477587667743 0.012434986839942775 0.08109560081731779 -0.007330433771513866 0 0 0 0
2770950 -0.4145274118474459 0.012368597242591825 0.08104558837547746 -0.007146465550130585 0 0 0 0
2803896 -0.4143093391212329 0.01235845034339803 0.08092879636347139 -0.006982758620216124 0 0 0 0
2836842 -0.4142364494312823 0.01195531892071889 0.08092892302498148 -0.006775350264452433 0 0 0 0
2869788 -0.4141436817151651 0.012291190291610864 0.08092972666798418 -0.006707493449786364 0 0 0 0
2902734 -0.4147356833897785 0.012525174997266922 0.08094781044119251 -0.006500125085918044 0 0 0 0
2935680 -0.4148413583469194 0.012393626955450073 0.08090330272125416 -0.006324312834071263 0 0 0 0
2968626 -0.41483513165639807 0.012565565833455035 0.08085943888504837 -0.006159042685878727 0 0 0 0
3001572 -0.414308659277684 0.012377852609747008 0.08083575398837675 -0.006038313723262317 0 0 0 0
3034518 -0.41417332974184695 0.01268906807285106 0.0808318728868211 -0.005947544133912112 0 0 0 0
3067464 -0.4145126764133431 0.012687333151345402 0.08079989465824171 -0.005757706084494643 0 0 0 0
3100410 -0.4147363467486578 0.012647104960803856 0.08079046575026719 -0.005573949181024879 0 0 0 0
3133356 -0.41425256074654704 0.01275065128669103 0.08080272786940262 -0.005468002806179243 0 0 0 0
3166302 -0.41421136351502175 0.012612387770295585 0.08073386341909407 -0.005320314163672252 0 0 0 0
3199248 -0.4142988166031453 0.012905461456400948 0.08070894513043722 -0.005164260627677473 0 0 0 0
3232194 -0.41429607687187225 0.013011184479783394 0.08068131679938179 -0.005051593282253285 0 0 0 0
3265140 -0.41463923468153224 0.013075813985749219 0.08068944032193774 -0.004904058239268118 0 0 0 0
3298086 -0.4143918265663702 0.012999846374552312 0.08064439742632189 -0.004772172672216751 0 0 0 0
3331032 -0.4147205758115728 0.01305465253633821 0.08068884070190167 -0.004684567630499848 0 0 0 0
3363978 -0.41440301251735834 0.013141973229672055 0.08059282024746679 -0.004497990821958825 0 0 0 0
3396924 -0.4144398824673284 0.013155229292835304 0.0806330269229287 -0.004441508632512443 0 0 0 0
3429870 -0.4141311681267811 0.013413131306869634 0.08060843509845184 -0.0043403475517464546 0 0 0 0
3462816 -0.4143395836719034 0.013277098025552067 0.08056469037510997 -0.0042063635225775674 0 0 0 0
3495762 -0.41439190192796305 0.013406234107688472 0.08059100799671681 -0.004080267426072273 0 0 0 0
3528708 -0.41415769988408674 0.013228040231305827 0.08057247027193687 -0.00395488363511399 0 0 0 0
3561654 -0.4145818374568299 0.013724152017222869 0.08056790159652215 -0.003806832127948662 0 0 0 0
3594600 -0.41457673207921825 0.013850841952458812 0.08055533334010989 -0.0037117446219913754 0 0 0 0
3627546 -0.4140575777774729 0.013596290344261745 0.08055018161923833 -0.003596749109552232 0 0 0 0
3660492 -0.41442575911288987 0.014032174279378707 0.08050768652734921 -0.0034625038669902353 0 0 0 0
3693438 -0.4141269126139373 0.013824624658786111 0.08049694532632157 -0.003445010788560676 0 0 0 0
3726384 -0.414152323157154 0.013882771097490572 0.08049584495243328 -0.003281355118541401 0 0 0 0
3759330 -0.4141856346471897 0.013996623474130995 0.08052423035339709 -0.0032154263338142167 0 0 0 0
3792276 -0.41402975058915764 0.013675481014379067 0.08048789846747476 -0.003057855556572192 0 0 0 0
3825222 -0.4141457876654263 0.014200552062069983 0.08049641234779964 -0.002991000009213631 0 0 0 0
3858168 -0.4142278404494662 0.014314562014726613 0.08051580448501174 -0.002888112755246393 0 0 0 0
3891114 -0.413887626777974 0.014045285879274796 0.08043149135741277 -0.0027880517487388757 0 0 0 0
3924060 -0.41413016965361743 0.01437929497753511 0.08044476658077054 -0.002739097844998254 0 0 0 0
3957006 -0.41411297515979845 0.014305077879947942 0.08041810567705483 -0.0026060898526347144 0 0 0 0
3989952 -0.4139563014496647 0.014386963450656489 0.0804149018646949 -0.0025080278265150156 0 0 0 0
4022898 -0.41388620241466473 0.014677107474409855 0.08037309948476075 -0.002466184497922185 0 0 0 0
4055844 -0.41367679733843515 0.01461139206393673 0.08038302909070891 -0.0023255404542511923 0 0 0 0
4088790 -0.41411120204762875 0.014887073480024623 0.08043226409550261 -0.002265239501376124 0 0 0 0
4121736 -0.41363570366740054 0.01472294283167594 0.080367887522142 -0.0021347285628864794 0 0 0 0
4154682 -0.41370216318299047 0.014639458140367977 0.08041860722243037 -0.0020338002346083923 0 0 0 0
4187628 -0.4141032829654088 0.015053465831915977 0.08035215718420623 -0.0019829802393075704 0 0 0 0
4220574 -0.4136618478100016 0.01497507847780913 0.0803342575451807 -0.0018726853597851928 0 0 0 0
4253520 -0.41358872047120276 0.015034457001205271 0.08031830577642944 -0.0017613334294526422 0 0 0 0
4286466 -0.4138954834786338 0.015161459648455092 0.08036908631909649 -0.0017620337919821232 0 0 0 0
4319412 -0.41369980984688554 0.015207600024379812 0.08033512463263748 -0.0016184788727790426 0 0 0 0
4352358 -0.4136642710393129 0.015410543831357863 0.08030008719410936 -0.0015539136617820967 0 0 0 0
4385304 -0.41389776191036465 0.015357580476013342 0.08036280094992261 -0.0014658606789828578 0 0 0 0
4418250 -0.41368236553609694 0.01532813557951516 0.08032665900875478 -0.001438614944520041 0 0 0 0
4451196 -0.41347233356471474 0.015566569727536096 0.08032279206807408 -0.0013121688729003645 0 0 0 0
4484142 -0.41349216831473135 0.015694886100451323 0.08033974608491955 -0.0012268794441494207 0 0 0 0
4517088 -0.41344477077611874 0.015703837023838166 0.08031941543899862 -0.0011480206956678762 0 0 0 0
4550034 -0.41350950478784493 0.015598083954563881 0.08025998668564804 -0.0010885115144935048 0 0 0 0
4582980 -0.4131897123896343 0.01590825306409222 0.08027038486074022 -0.0010098514110388032 0 0 0 0
4615926 -0.41337002781746573 0.01569198655331641 0.08035987614396846 -0.0009390256206469585 0 0 0 0
4648872 -0.41336203840716695 0.016041821679510425 0.08023433389966264 -0.0008817791078054029 0 0 0 0
4681818 -0.4133197920327469 0.016067285124079428 0.08024244134303254 -0.0008121434029182905 0 0 0 0
4714764 -0.41340680464685936 0.01603322463126985 0.08028119481149407 -0.0007929142245918076 0 0 0 0
4747710 -0.4132248020953328 0.01612921871516977 0.08022823194226279 -0.00064191309834714 0 0 0 0
4780656 -0.4132913216270215 0.016328535889029456 0.08023402334930675 -0.0006273344162296072 0 0 0 0
4813602 -0.41324695542707024 0.01646585687366056 0.08032302067949097 -0.0005680778757806842 0 0 0 0
4846548 -0.41312407902618964 0.0161732528445816 0.08021615338188676 -0.0004509940817925835 0 0 0 0
4879494 -0.4130984959024136 0.01636070808527223 0.08024735938530081 -0.00040724016590738235 0 0 0 0
4912440 -0.4131602838045412 0.016553459900980998 0.08026096043059941 -0.0003121867336762207 0 0 0 0
4945386 -0.4129923813732945 0.016405886135731622 0.08024441775923291 -0.0003189034797891128 0 0 0 0
4978332 -0.41277528585119944 0.016507879006007416 0.08020063844663153 -0.00023729880513515168 0 0 0 0
5011278 -0.4130516927405391 0.016573466495112574 0.08020689484979811 -0.00017635911287143142 0 0 0 0
5044224 -0.4129467767612708 0.016709203329798337 0.0801868535098111 -0.00011261441397858788 0 0 0 0
5077170 -0.4129481152847805 0.016712265052422928 0.08018347468877919 -5.070465223489239e-05 0 0 0 0
5110116 -0.4130143984971056 0.016976989014771376 0.08014662063628845 1.2934689818289955e-05 0 0 0 0
5143062 -0.412733958281954 0.01688709218284152 0.08013848020039556 0.00011004519969990157 0 0 0 0
5176008 -0.41251615011221315 0.017022859573409526 0.08014905957360775 0.00013225658604624168 0 0 0 0
5208954 -0.4127757086291347 0.016945669444014946 0.08017368122811183 0.00013301498324544685 0 0 0 0
5241900 -0.4126731471920002 0.01694760428712157 0.08009852711872154 0.00023621150258142285 0 0 0 0
5274846 -0.41260627729542093 0.0171678437954248 0.08018207943061126 0.00021902624371417516 0 0 0 0
5307792 -0.41274908390525505 0.017117968288865127 0.08012111140775256 0.00034441079099139106 0 0 0 0
5340738 -0.4129456333276624 0.017358900369743142 0.08012509164095692 0.00034247359584178665 0 0 0 0
5373684 -0.41228576802750583 0.017124038722053158 0.0801124580685642 0.0003974995522564235 0 0 0 0
5406630 -0.41261286356283716 0.017444873316411137 0.08016450958474601 0.00041706341549180574 0 0 0 0
5439576 -0.41262027582539546 0.017560156762930157 0.08014844448248655 0.00046777253759467633 0 0 0 0
5472522 -0.41240479537241465 0.017264754436617392 0.08008200717501275 0.0005355120966843689 0 0 0 0
5505468 -0.41247181603435196 0.01737424928577795 0.08003072302535426 0.0005592357938957854 0 0 0 0
5538414 -0.4125085263008693 0.017553534036350387 0.0801004823995586 0.0005795042319369862 0 0 0 0
5571360 -0.4125180745357412 0.017727263303285057 0.08003078982540739 0.0006723047075639314 0 0 0 0
5604306 -0.4124472473504822 0.017639179654304327 0.0800430415265756 0.0007176786210256338 0 0 0 0
5637252 -0.41247975763051775 0.017706553157187593 0.08004780483941647 0.00068007496299236 0 0 0 0
5670198 -0.4120831671092142 0.017695515148657522 0.08000889024481 0.0007322866020472328 0 0 0 0
5703144 -0.4123945537824968 0.017802769489411466 0.08003234168431164 0.0007697370488426512 0 0 0 0
5736090 -0.4122982999269355 0.01783568034244016 0.07998234313455314 0.0008111200599874525 0 0 0 0
5769036 -0.41212009679626865 0.017771631330921786 0.08003851994231498 0.0007812721570446813 0 0 0 0
5801982 -0.41206655374969126 0.01786318911296103 0.07992558807580272 0.0008287695022822926 0 0 0 0
5834928 -0.4124044464115401 0.01796911329684085 0.07999625547238563 0.000890901694847352 0 0 0 0
5867874 -0.4124199986259782 0.017881072011310388 0.07992203972853655 0.0008763325781245719 0 0 0 0
5900820 -0.4117931965500744 0.01799001252219134 0.07988194923072257 0.0008698011859375743 0 0 0 0
5933766 -0.4120548323757595 0.018022059245951474 0.07990382547805948 0.0008745925331250567 0 0 0 0
5966712 -0.4119696018119663 0.017944786336876704 0.07984970728572545 0.0008912531059654565 0 0 0 0
5999658 -0.41218198729456756 0.018107208911352174 0.07985297237722998 0.0009020686215219525 0 0 0 0
6032604 -0.41217251382142017 0.018029030751377087 0.07985242361027846 0.0008871686539518096 0 0 0 0
6065550 -0.41208644171985354 0.018024158245486466 0.07978893334994615 0.0009363759987981704 0 0 0 0
6098496 -0.4123045711917213 0.017959675648318903 0.07979874282052522 0.0009092522466300211 0 0 0 0
6131442 -0.41169336888878777 0.017999930857924912 0.07972939831236603 0.0008579486101592726 0 0 0 0
6164388 -0.4118782142187599 0.017978538938812558 0.0796752551798836 0.000875926187199415 0 0 0 0
6197334 -0.4121684159733568 0.01798283778944153 0.0796325400838252 0.000827015087741485 0 0 0 0
6230280 -0.41186661055256146 0.018110898354851187 0.07963938844171085 0.0008116647792508048 0 0 0 0
6263226 -0.4122366246577584 0.01803779662351528 0.07954180446740589 0.0008121802940689673 0 0 0 0
6296172 -0.4119784813384225 0.0178703067445797 0.07952487888628691 0.0007197543390901367 0 0 0 0
6329118 -0.4120388079243421 0.017860337499199335 0.07946544882349414 0.0006394352137185483 0 0 0 0
6362064 -0.4121112868275934 0.017756803872335452 0.07939895939876122 0.0006481240390232012 0 0 0 0
6395010 -0.4121765227717984 0.017915832986034178 0.07930726434976135 0.0005498215489920452 0 0 0 0
6427956 -0.41223559225095013 0.017788224338003474 0.07923332400751891 0.0004678150771359295 0 0 0 0
6460902 -0.41253448061995635 0.017722549348720102 0.07913718210611173 0.00035525873885366467 0 0 0 0
6493848 -0.41227877715336636 0.017551472244886842 0.07899890569804073 0.00029910531513470563 0 0 0 0
6526794 -0.41259513266224 0.017416211029101607 0.07887276697794668 0.0001390886627114043 0 0 0 0
6559740 -0.4127119252277048 0.01735486572142498 0.07872186362660664 5.3303956547345944e-05 0 0 0 0
6592686 -0.4129992504716319 0.017174425838483987 0.07857944441470116 -0.00016232143423604292 0 0 0 0
6625632 -0.41282688099010084 0.017163271872996894 0.07833676006728313 -0.0002595369111303774 0 0 0 0
6658578 -0.413137227376343 0.016965731472683005 0.07802745699030834 -0.00042700136524610765 0 0 0 0
6691524 -0.4132668085815465 0.01656123779257819 0.0777352480630725 -0.0006894655216421014 0 0 0 0
6724470 -0.41392917672298074 0.016572110419833728 0.07735962874162194 -0.0009806557683917421 0 0 0 0
6757416 -0.41443860867644783 0.0162104563441937 0.07694002993915726 -0.0011656068800656749 0 0 0 0
6790362 -0.41479309307733464 0.016023066289807892 0.0763469417468282 -0.0013587168974456877 0 0 0 0
6823308 -0.41542784720612197 0.01588161823697906 0.07566958229556739 -0.001641487958891949 0 0 0 0
6856254 -0.4165474470617188 0.01564664543483355 0.07479010981686587 -0.0018464961933813491 0 0 0 0
6889200 -0.4177333426695308 0.015554502895021806 0.07377634059962139 -0.0018585785875968796 0 0 0 0
6922146 -0.4179019704576672 0.013354969402925836 0.07266995738011155 -0.0021485465936963884 0 0 0 0
6955092 -0.4190162598691418 0.013909169863696313 0.07113771751982856 -0.0016773388454810391 0 0 0 0
6988038 -0.4208380617088377 0.01457363393205604 0.06942315883852877 -0.0006779651246433827 0 0 0 0
7020984 -0.42235832070333873 0.016702903634709353 0.06783677193926946 0.0008884292341111542 0 0 0 0
7053930 -0.42341258738035725 0.018914173787705317 0.06672861928941598 0.003251207491856919 0 0 0 0
7086876 -0.42354578370696455 0.022020525042592966 0.06665213373379912 0.006037734478991109 0 0 0 0
7119822 -0.4226438504130317 0.024927515296724035 0.06746129668925488 0.008578969294221321 0 0 0 0
7152768 -0.4206934925146035 0.026728733914978344 0.06896652932732916 0.010645848203145548 0 0 0 0
7185714 -0.41900044916652046 0.028254261323408164 0.07080657164311553 0.01179227795512441 0 0 0 0
7218660 -0.4168586046099172 0.028742115001857856 0.07258438618785229 0.01238705133807882 0 0 0 0
7251606 -0.41566137487000326 0.028639986509915963 0.07410247286632388 0.012508656384286937 0 0 0 0
7284552 -0.4141255392414507 0.028561146109535373 0.0753200672784318 0.012347562464624708 0 0 0 0
7317498 -0.41270203303652536 0.028199541309565757 0.07622513641815813 0.012103486784994353 0 0 0 0
7350444 -0.4122193033093373 0.027878667842448013 0.07706794867006093 0.01177323371362615 0 0 0 0
7383390 -0.411623050564245 0.027620380589554162 0.07761500977196249 0.011398794075552025 0 0 0 0
7416336 -0.41090549295466244 0.0272893145196792 0.07816094887171829 0.011125093636453575 0 0 0 0
7449282 -0.410536393969241 0.027025720028687177 0.07855614722072321 0.010807421955329584 0 0 0 0
7482228 -0.41011338931509683 0.026914253968275743 0.07886987589287114 0.010529164462075335 0 0 0 0
7515174 -0.4097627501024412 0.026488457505183954 0.07909259418811057 0.010284435955487777 0 0 0 0
7548120 -0.40979040149709056 0.026099837915162006 0.07931331886612153 0.01005973368733895 0 0 0 0
7581066 -0.4093761053481818 0.026190469796939925 0.07951994517736323 0.009870095504656064 0 0 0 0
7614012 -0.40922690494744635 0.025900230606519702 0.07967046165737142 0.009672790246972842 0 0 0 0
7646958 -0.40908134165513255 0.025696174883490075 0.07976222393118242 0.009516798040421576 0 0 0 0
7679904 -0.40894026140619255 0.02575874029498131 0.07984020275207748 0.009356615877954489 0 0 0 0
7712850 -0.4088440280343262 0.025330821412785184 0.07991558308343866 0.00927799334793294 0 0 0 0
7745796 -0.4084324263787508 0.02536572486717786 0.07997058301805245 0.009164973997491544 0 0 0 0
7778742 -0.4085057403990458 0.025180886778760087 0.08009697771671603 0.009050577454379587 0 0 0 0
7811688 -0.4085124565866051 0.02519039256650622 0.08015870547102523 0.008947063455486194 0 0 0 0
7844634 -0.40840675256105474 0.024964607068494897 0.08021206246527884 0.008890292736015108 0 0 0 0
7877580 -0.4082972192281609 0.024951981814892315 0.08023318893382753 0.008838930990285977 0 0 0 0
7910526 -0.40829678672821645 0.025110311736883374 0.0803071036544765 0.008769882385050325 0 0 0 0
7943472 -0.4082553538523564 0.02486226673498868 0.08035003841143379 0.008690108055505992 0 0 0 0
7976418 -0.4081999880154905 0.024890281749346887 0.08037324472421886 0.008686091873598905 0 0 0 0
8009364 -0.4079823529039457 0.024949671035918122 0.08042220055070623 0.008611368522366294 0 0 0 0
8042310 -0.40790232536222865 0.02494277009131423 0.08040291222677778 0.008607883998012857 0 0 0 0
8075256 -0.4079320788957909 0.024954510056366286 0.0805076159762957 0.008590798207167627 0 0 0 0
8108202 -0.40795528620005855 0.02498334472127571 0.08047881591404844 0.008538766726163171 0 0 0 0
8141148 -0.4081090851299469 0.024902661252578978 0.08051272111786062 0.008530784291369463 0 0 0 0
8174094 -0.40762057435350674 0.02488170188292382 0.08052798827461978 0.008552743576900895 0 0 0 0
8207040 -0.4076121488150872 0.024931913983136746 0.08050534992901753 0.008536684237572879 0 0 0 0
8239986 -0.4077378670648339 0.024792754838514272 0.08053429038611995 0.008536718995802522 0 0 0 0
8272932 -0.40767764448779326 0.024841030085630867 0.0805909128543117 0.008533244587787349 0 0 0 0
8305878 -0.40769120787976887 0.025068518598428704 0.08055711354108244 0.008492682310998352 0 0 0 0
8338824 -0.40769818723865353 0.02489935371274302 0.08061979999922726 0.008477053226241878 0 0 0 0
8371770 -0.40778949775713047 0.0250935543626262 0.08068019203859288 0.008507164993053684 0 0 0 0
8404716 -0.40742729176941006 0.024995795684433785 0.08059436064149833 0.008531284964675999 0 0 0 0
8437662 -0.4075036640390566 0.02489519141125509 0.08063247123762936 0.008528013502883368 0 0 0 0
8470608 -0.4074128101971063 0.024901037205336055 0.08064114149221065 0.008550916498339865 0 0 0 0
8503554 -0.4074097559227478 0.025122181255058836 0.08063394054482897 0.00853351881118703 0 0 0 0
8536500 -0.40751499728159996 0.025260984226044995 0.0807188488309153 0.008523762332162376 0 0 0 0
8569446 -0.40743715574497064 0.025175138745341392 0.08069287425412774 0.008533430159243275 0 0 0 0
8602392 -0.40727718577186844 0.025045251499540722 0.08066580581715668 0.00856508193314573 0 0 0 0
8635338 -0.4072984041404834 0.025335366521272377 0.08068108127802479 0.008527435421825038 0 0 0 0
8668284 -0.40726285601588463 0.02505431356794747 0.0806825612317187 0.008597709895448719 0 0 0 0
8701230 -0.4071877416704829 0.02532721900582925 0.08071651986245013 0.008584447025854128 0 0 0 0
8734176 -0.40717818869676153 0.02530158120367277 0.08069347660030278 0.008631922645776684 0 0 0 0
8767122 -0.40704481620204547 0.025224262507450353 0.0807251725564029 0.008653372363679548 0 0 0 0
8800068 -0.406948697253212 0.025276473909912563 0.08068044950106698 0.008665764551243392 0 0 0 0
8833014 -0.4070113505925124 0.025281956684241488 0.08075743103944051 0.008684969061251449 0 0 0 0
8865960 -0.406705225151611 0.02529762715073856 0.08072096404981417 0.008731087676842463 0 0 0 0
8898906 -0.4071135338947735 0.025508856986729313 0.08074761345239607 0.00874636923900665 0 0 0 0
8931852 -0.4070123526834279 0.02544384080429558 0.08075234415335583 0.008696844202708505 0 0 0 0
8964798 -0.40679473560645646 0.02560224647445505 0.08078008896918935 0.008756920247342091 0 0 0 0
8997744 -0.4067257729297336 0.02550176334953165 0.08077496261565492 0.008804786967777438 0 0 0 0
9030690 -0.4067677539407105 0.02559585603712252 0.08077022851826013 0.008830611469540934 0 0 0 0
9063636 -0.4069171296904775 0.025562186426492804 0.08078780691222105 0.008872865086512157 0 0 0 0
9096582 -0.4070025704018304 0.026036587849523667 0.08080746197155098 0.008864929949111755 0 0 0 0
9129528 -0.4068908059073874 0.025830801314713034 0.08082168217227191 0.008910353142826866 0 0 0 0
9162474 -0.4065110468386831 0.02560063249745179 0.08081874891369101 0.008943851347291105 0 0 0 0
9195420 -0.40664913895623594 0.02588234756573427 0.08083293194600932 0.008952093850346463 0 0 0 0
9228366 -0.40659874657822537 0.0258030420127807 0.0807650998809187 0.008997010928258716 0 0 0 0
9261312 -0.4065472777147037 0.02592731736052332 0.08082238930799084 0.009010066146416723 0 0 0 0
9294258 -0.40660170419396463 0.026238204176746136 0.08084592739692055 0.009000619484767092 0 0 0 0
9327204 -0.406726341442176 0.02610941643643392 0.08087112019969166 0.009078964069642927 0 0 0 0
9360150 -0.4065004655985415 0.025958760587204994 0.0808493886137899 0.00911005469047985 0 0 0 0
9393096 -0.4065626217625334 0.026065000295835368 0.08085164066620044 0.009156219798456378 0 0 0 0
9426042 -0.4063375559986626 0.026086067958732393 0.08084053980635009 0.009168179412603596 0 0 0 0
9458988 -0.4064409559045682 0.026224502101291194 0.08084789077403372 0.009206824330551837 0 0 0 0
9491934 -0.40623380054926467 0.026206941503098102 0.08088815951760393 0.009257163035222164 0 0 0 0
9524880 -0.4064850844093513 0.026595454845281214 0.08091723161369133 0.00922603767021754 0 0 0 0
9557826 -0.4062692942912362 0.02633835710206633 0.08090747216226475 0.009301993941952816 0 0 0 0
9590772 -0.4063918495582238 0.026480144613903866 0.08091994555591736 0.00930467516792484 0 0 0 0
9623718 -0.4061848864639427 0.026405133783803752 0.0808596863047813 0.009332955049867302 0 0 0 0
9656664 -0.4062903731034221 0.026577028155569588 0.08088255122838943 0.009405838727871497 0 0 0 0
9689610 -0.4063057604961503 0.0267753031720503 0.08086004920485095 0.009414836549416753 0 0 0 0
9722556 -0.40623420310144465 0.026822746444651824 0.08091659078007782 0.009435478969471155 0 0 0 0
9755502 -0.40611438514086884 0.026784790409502223 0.08092113987723687 0.00949429364996012 0 0 0 0
9788448 -0.40611084934053404 0.026643592586565703 0.08088591308297803 0.00952431754784237 0 0 0 0
9821394 -0.40596123665711015 0.026853989084972663 0.08089045599127155 0.00952685283489943 0 0 0 0
9854340 -0.4059208586415083 0.026818035560629772 0.0809221700088503 0.009596374350307812 0 0 0 0
9887286 -0.406254137647541 0.027030764604741703 0.08096153985293658 0.009596571161451491 0 0 0 0
9920232 -0.4061482333768057 0.027114859574067975 0.08099591030605985 0.00964327954098159 0 0 0 0
9953178 -0.40612080520023214 0.02696758421866305 0.0809822885474453 0.009720048975736747 0 0 0 0
9986124 -0.40603820926110185 0.027133383018919592 0.08097701704647316 0.00973524155949634 0 0 0 0
10019070 -0.4059829161451964 0.02712934297111503 0.08091760584126226 0.00975279851291792 0 0 0 0
10052016 -0.40564927837516845 0.027066317336706 0.08093346939737982 0.009819753805819524 0 0 0 0
10084962 -0.40595723343498413 0.027367133396565387 0.08095052739446588 0.009792033034929627 0 0 0 0
10117908 -0.40607787005936424 0.027224049377534205 0.08101160843225892 0.009871062990700931 0 0 0 0
10150854 -0.4058346601703785 0.027398472955160715 0.08101206816799789 0.009892832150331933 0 0 0 0
10183800 -0.40588349131182266 0.0274269562668931 0.08099053722275416 0.00995610322541564 0 0 0 0
10216746 -0.40584178434650275 0.027708056526631407 0.0810407150207278 0.009954551538318136 0 0 0 0
10249692 -0.40578223702042565 0.02763715465300567 0.08099851003093045 0.010025044536746087 0 0 0 0
10282638 -0.40589500279055113 0.027769921570489933 0.08101565116514438 0.010001043091165205 0 0 0 0
10315584 -0.40562357442555474 0.02773504838646642 0.08103949343471863 0.010071893143733196 0 0 0 0
10348530 -0.40588618164960527 0.02774531662094319 0.08108457165431739 0.010155956317277143 0 0 0 0
10381476 -0.40556630836249397 0.02782041358352683 0.0809821988635286 0.010147067651444663 0 0 0 0
10414422 -0.4055082539688575 0.027671403736671905 0.08101834204853874 0.010180686044914037 0 0 0 0
10447368 -0.40566443556746173 0.028078700267979102 0.08104718971057116 0.010209805624569407 0 0 0 0
10480314 -0.40555428431389684 0.02802728325178011 0.08100478250177653 0.01024977261006377 0 0 0 0
10513260 -0.4057432748270445 0.027887076317213693 0.08105011527567582 0.01030773858567456 0 0 0 0
10546206 -0.4053933698304147 0.028078064217849488 0.08101879787969296 0.01033858670556186 0 0 0 0
10579152 -0.4055372535740687 0.0282791833164149 0.08107567086849905 0.010349900295378444 0 0 0 0
10612098 -0.40557808907730664 0.028308819436874022 0.08110439016263904 0.010430819875487222 0 0 0 0
10645044 -0.40572129939266943 0.0285197985968876 0.08109937552807518 0.010418542879536283 0 0 0 0
10677990 -0.4053692836625363 0.028431383706005744 0.08109154799391445 0.010467320429808314 0 0 0 0
10710936 -0.40525178888486374 0.028395124801792914 0.08109478430856386 0.010467153800304777 0 0 0 0
10743882 -0.4054984824637273 0.02857941849385872 0.08110563445211713 0.01052839029229652 0 0 0 0
10776828 -0.40547279126239355 0.02881667936188566 0.0810927985316136 0.010571317588073793 0 0 0 0
10809774 -0.40537570241867676 0.028521872299857483 0.08111882799961226 0.010615375283210016 0 0 0 0
10842720 -0.40528176574914343 0.028707052216878744 0.08112360839362093 0.010652477132675304 0 0 0 0
10875666 -0.4054169309601473 0.028705873260489904 0.08111107380090178 0.01070573782387109 0 0 0 0
10908612 -0.40538607240697117 0.028680895218921008 0.08109229689709575 0.010720764073844716 0 0 0 0
10941558 -0.40548798605300634 0.029171659944874546 0.08115887287959135 0.010742826241158923 0 0 0 0
10974504 -0.4055365238054162 0.029004799589238028 0.0811600534683371 0.010781816917017966 0 0 0 0
11007450 -0.40531743222881855 0.028790930620966305 0.08113176520444344 0.010849466618596358 0 0 0 0
11040396 -0.4054736543762707 0.02898110019098259 0.08117444203431912 0.010909497077045431 0 0 0 0
11073342 -0.4050377516759267 0.028998481760802795 0.08115530295547128 0.01090119517189901 0 0 0 0
11106288 -0.4051237357300176 0.029126661127653768 0.08113648996535613 0.010925755864428238 0 0 0 0
11139234 -0.4052619945493353 0.029279650845049503 0.08117322324131974 0.01098863825331081 0 0 0 0
11172180 -0.405137074548277 0.02922772707988451 0.08119441821579552 0.011006990901907312 0 0 0 0
11205126 -0.40509239529845287 0.029451398582039216 0.08117372732493433 0.011050010320981504 0 0 0 0
11238072 -0.40529427521709277 0.029518831718564068 0.08119962520553568 0.011071114535679242 0 0 0 0
11271018 -0.4051607050842053 0.029421646296493173 0.08122893918311298 0.011128235738967329 0 0 0 0
11303964 -0.4051602155480524 0.029543755406025527 0.0812675099160804 0.011171959750532444 0 0 0 0
11336910 -0.4047692428756413 0.02957949744614227 0.08118756497176069 0.011186278286263182 0 0 0 0
11369856 -0.40492360882766987 0.02970176697059296 0.08122791341209186 0.01126615436982552 0 0 0 0
11402802 -0.404853171684396 0.029449283000784046 0.08121163363366095 0.011315873008307546 0 0 0 0
11435748 -0.4048949430346129 0.029559225470563232 0.08125997539513488 0.011353575227364654 0 0 0 0
11468694 -0.4051902027871311 0.030044172361776148 0.08124644378268193 0.011332374563763601 0 0 0 0
11501640 -0.40490076548423665 0.02982436708397117 0.0812605778204997 0.01136665670795458 0 0 0 0
11534586 -0.4047597954722389 0.029939143404707273 0.08124743606383593 0.011419505255393977 0 0 0 0
11567532 -0.40500163521709104 0.030069814128616982 0.0812755922265044 0.01145073217144286 0 0 0 0
11600478 -0.4049231978515155 0.03024384134957678 0.08125257979890722 0.011460325023092292 0 0 0 0
11633424 -0.40493910295317287 0.03022599904279235 0.08129026588186858 0.011530011419810058 0 0 0 0
11666370 -0.40471099545936867 0.030251402289909912 0.08122168862586886 0.011559337453495178 0 0 0 0
11699316 -0.40483371000459273 0.03023858625428033 0.08131506505697582 0.01159612210347452 0 0 0 0
11732262 -0.4047058589356387 0.030316657249921358 0.08131327238707373 0.011665018533598824 0 0 0 0
11765208 -0.40476800227249676 0.03035108048379078 0.0813043747966028 0.011650734188069306 0 0 0 0
11798154 -0.4048219673414676 0.03063757148795469 0.08135502518953164 0.01170769946029396 0 0 0 0
11831100 -0.40471784394803395 0.030567990675568882 0.08127776368137736 0.011752478860452602 0 0 0 0
11864046 -0.4046289167417813 0.03062150395361156 0.08135014061378631 0.011805395391713158 0 0 0 0
11896992 -0.40466280270436805 0.03057595865087723 0.08134789033157096 0.011852209618880501 0 0 0 0
11929938 -0.4049048089035781 0.030755546238551763 0.08134205799495106 0.011852814802382235 0 0 0 0
11962884 -0.40464560055475945 0.030762320247413377 0.08136319925517398 0.011901912021959744 0 0 0 0
11995830 -0.40461406367469077 0.030828606064899126 0.08135903008873159 0.011924412522178896 0 0 0 0
12028776 -0.4044130374505449 0.030856782524932694 0.08133931575884543 0.011968736564560737 0 0 0 0
12061722 -0.40463751410451615 0.03094314552327246 0.08138826579214672 0.012064942217156401 0 0 0 0
12094668 -0.4046192877873575 0.030950615483716776 0.08139618347860159 0.012047961884112973 0 0 0 0
12127614 -0.40459584237311447 0.03113529150087581 0.08139762453282887 0.012112652755873678 0 0 0 0
12160560 -0.4043884126634062 0.03116094072333661 0.08143566938093254 0.012122505464089248 0 0 0 0
12193506 -0.40452618922699934 0.031199850830916215 0.08142226861123932 0.012135082999504266 0 0 0 0
12226452 -0.4044011053741051 0.03138581196525449 0.08140557136226326 0.012174085969862365 0 0 0 0
12259398 -0.4044101537979846 0.031341927155866214 0.08143210815029861 0.012243806518986995 0 0 0 0
12292344 -0.40461901220254615 0.03151774256541812 0.0814161097204519 0.012260642421923377 0 0 0 0
12325290 -0.40426122580131707 0.03128540931473794 0.08146590263187753 0.012289447091514 0 0 0 0
12358236 -0.40467373374372956 0.03174799175556489 0.08144148275345738 0.012325138405610454 0 0 0 0
12391182 -0.40418155138615774 0.0315618599508289 0.08145086004646981 0.01235662615477258 0 0 0 0
12424128 -0.4043566839067187 0.031497641967082844 0.08146864754215664 0.012371629542665507 0 0 0 0
12457074 -0.4042664981467754 0.03164935742722071 0.08146537374405799 0.012421152647896283 0 0 0 0
12490020 -0.4044942526738493 0.032024636996793414 0.08146458285018514 0.01248939832373587 0 0 0 0
12522966 -0.40441471676128055 0.03210289461668513 0.08144807540171016 0.012488891022077559 0 0 0 0
12555912 -0.4043589854614328 0.03210922642012439 0.08147722255222213 0.012528531579360803 0 0 0 0
12588858 -0.4043616172539505 0.032069479132865696 0.08147913354977859 0.012597696453803481 0 0 0 0
12621804 -0.4043521946419875 0.032049970229467636 0.08150803653507104 0.012635249006722778 0 0 0 0
12654750 -0.4043161005067576 0.03233200942458348 0.08148588663797864 0.012674666592831736 0 0 0 0
12687696 -0.4040109394720506 0.03208660988841749 0.08148805712926895 0.012684992705308106 0 0 0 0
12720642 -0.40402269800241464 0.0323528144987382 0.0815145071225545 0.012666662782730822 0 0 0 0
12753588 -0.40391326206901185 0.032229940171928276 0.08152385697618834 0.012799773898663089 0 0 0 0
12786534 -0.4041866884377466 0.03251913932095301 0.08150472858780111 0.012780694640129637 0 0 0 0
12819480 -0.4041258848277644 0.032583098008098776 0.08152863612500748 0.01283172453940603 0 0 0 0
12852426 -0.4041184348615665 0.032562555019647936 0.0815966262880822 0.012879046751903434 0 0 0 0
12885372 -0.4040936781034281 0.03271422761372613 0.08156449234427474 0.012910427240967819 0 0 0 0
12918318 -0.40405264954648595 0.03278315948676188 0.08156884710328367 0.012996860510751912 0 0 0 0
12951264 -0.40433454677650876 0.03255704499440889 0.08160210781108429 0.012981515200587984 0 0 0 0
12984210 -0.4039478125148491 0.032752583216393315 0.08157274323030919 0.013051288703265683 0 0 0 0
13017156 -0.4040889403581762 0.03290642933007196 0.08156242030408024 0.0130483756055135 0 0 0 0
13050102 -0.40380277283193033 0.03281048792626565 0.08161507289238315 0.013138407409767112 0 0 0 0
13083048 -0.40402214777234857 0.03297705204768443 0.08163499335349299 0.013146985559251553 0 0 0 0
13115994 -0.40404720150440443 0.03297838626984935 0.08167013333743563 0.01314292319527596 0 0 0 0
13148940 -0.4039129202253589 0.03286545858898928 0.08164069135921408 0.01324953940360549 0 0 0 0
13181886 -0.40384615607580954 0.03300500638066131 0.08164370870457782 0.013245947163300494 0 0 0 0
13214832 -0.40375162234279993 0.03306656963641305 0.08165869742468321 0.013299785478791166 0 0 0 0
13247778 -0.40403513765554505 0.03329730505130872 0.08167136535804093 0.013385858873483376 0 0 0 0
13280724 -0.40379184553862835 0.033262898126371176 0.0816824666369214 0.013390385780278763 0 0 0 0
13313670 -0.4038338044604616 0.03364691098308111 0.0816311971735109 0.013405218494501466 0 0 0 0
13346616 -0.403936390125214 0.03349646650099464 0.08174196969904217 0.013430367624004203 0 0 0 0
13379562 -0.4040187653595452 0.033687616919355456 0.08171746605298717 0.013480275860157575 0 0 0 0
13412508 -0.40348159670207295 0.03367058304559044 0.08170736957674436 0.013514631499948498 0 0 0 0
13445454 -0.4039458170140411 0.0337943477709337 0.08172840056104594 0.013519057367363663 0 0 0 0
13478400 -0.40381617594800295 0.03377479305490981 0.08173443359566945 0.013574384488146046 0 0 0 0
13511346 -0.40373141749049674 0.033920772124643186 0.08173834196045557 0.013614713229789865 0 0 0 0
13544292 -0.4037495039708867 0.03387741648920271 0.08173561979009816 0.013645812967933114 0 0 0 0
13577238 -0.40390257754571024 0.03414018072577873 0.08176062336784146 0.01362835845575768 0 0 0 0
13610184 -0.4037582168049529 0.034040831924995525 0.08170819676472908 0.013734346697505959 0 0 0 0
13643130 -0.40374939793328823 0.03418560583516445 0.08176185110924356 0.01374629987561052 0 0 0 0
13676076 -0.40375109794359615 0.03408233784621477 0.08185296531969004 0.013807566479604662 0 0 0 0
13709022 -0.40373484862173337 0.0343243240132927 0.08179400881271796 0.013849243295218479 0 0 0 0
13741968 -0.40344616717490744 0.0342344039873318 0.08174360204563341 0.013895460456828757 0 0 0 0
13774914 -0.40340900055726225 0.03426984745403551 0.08177789033386415 0.013926883306133309 0 0 0 0
13807860 -0.40341738168499724 0.03446961347345486 0.08179760110151972 0.013956336788064365 0 0 0 0
13840806 -0.4037183846575637 0.03466056045842179 0.08184522564518791 0.01394828103578586 0 0 0 0
13873752 -0.40352240584421056 0.03467872505341471 0.08179946810264065 0.013999406527981633 0 0 0 0
13906698 -0.4035003262687894 0.03461095903528062 0.08179078885445515 0.014081097331560877 0 0 0 0
13939644 -0.4036071764584712 0.03472242718174727 0.08185660339482986 0.01411887092674103 0 0 0 0
13972590 -0.4033106896155217 0.034777255611134726 0.0818343648913046 0.014111722549517066 0 0 0 0
14005536 -0.40364456421639805 0.03497888152729358 0.08189168382395612 0.014180697524585362 0 0 0 0
14038482 -0.4033015250257841 0.03477613004928395 0.08185918984095573 0.014232827452346802 0 0 0 0
14071428 -0.4037049619879646 0.03515225836678389 0.08192511003673006 0.014221847325415976 0 0 0 0
14104374 -0.403324675920431 0.03499293348720714 0.08186843321963759 0.01427758859497791 0 0 0 0
14137320 -0.4034344404685188 0.03514809641341162 0.08191931377555767 0.014326027736942613 0 0 0 0
14170266 -0.4035681075545305 0.03529023563158115 0.08191093765855575 0.014334955202191814 0 0 0 0
14203212 -0.40333658023353375 0.03517729810936001 0.081891139203303 0.014420952924229402 0 0 0 0
14236158 -0.40352910917427115 0.03570389631002041 0.08192669820822952 0.014352594945269574 0 0 0 0
14269104 -0.40343118190561583 0.03561128597080985 0.08194378806447704 0.014437785512582816 0 0 0 0
14302050 -0.40354575818747146 0.03528459508221277 0.08197499039612105 0.014499267753014461 0 0 0 0
14334996 -0.4032253189189731 0.03566390593777937 0.08192032761398062 0.014527284406078667 0 0 0 0
14367942 -0.4031470097821678 0.03556518082306926 0.08189253178833822 0.014574391579857942 0 0 0 0
14400888 -0.40312569831441003 0.03570315665052736 0.08197341089905764 0.01458391007756825 0 0 0 0
14433834 -0.4032863878101574 0.035839078028970114 0.08200064517252027 0.01461383192343203 0 0 0 0
14466780 -0.4034959255648258 0.03560149606272338 0.08205840588149314 0.014695261514244426 0 0 0 0
14499726 -0.40349011145557345 0.03593463216065125 0.08209728273842316 0.014701968859071145 0 0 0 0
14532672 -0.40334820693892554 0.03605771950087229 0.0820682821104897 0.014754530369531874 0 0 0 0
14565618 -0.4027950105544055 0.03587345011444373 0.08200111652098617 0.014827934716957154 0 0 0 0
14598564 -0.40322336873969167 0.036071869365201514 0.08201073643457162 0.014821405540151628 0 0 0 0
14631510 -0.4032052734846097 0.036245068764596766 0.08209986816033565 0.014847479659384894 0 0 0 0
14664456 -0.4031308585019008 0.036211485503077116 0.0820666179657823 0.014833731397066764 0 0 0 0
14697402 -0.40336128874866517 0.03650031384328602 0.0821166917504077 0.014919853538406998 0 0 0 0
14730348 -0.402702343385227 0.036341486380569867 0.08201990946741752 0.014968644996912629 0 0 0 0
14763294 -0.40262073245144475 0.036425803966339376 0.0820375052034567 0.014977699085896955 0 0 0 0
14796240 -0.4033033670037751 0.03666208300150292 0.0821210140559298 0.015022455219611963 0 0 0 0
14829186 -0.40278265590470114 0.0365621565477557 0.08205529522880181 0.0150401456607567 0 0 0 0
14862132 -0.4032565785651298 0.0368216103841398 0.08208265253676762 0.015070771889823932 0 0 0 0
14895078 -0.4032011258269158 0.03671794195998909 0.0821299527951062 0.015151588996795055 0 0 0 0
14928024 -0.4026917500910344 0.036686829500952846 0.08207365075154374 0.015194955751312297 0 0 0 0
14960970 -0.40293451281230996 0.03701530289962683 0.08210331693307989 0.015231215127465872 0 0 0 0
14993916 -0.40302177831121716 0.03705202581500239 0.0821695127135134 0.015213469826771521 0 0 0 0
15026862 -0.4029663110127397 0.0369838290112883 0.08220431098933152 0.015274388874226363 0 0 0 0
15059808 -0.40335699186245094 0.037358752837386024 0.08220457194174981 0.015316536492900202 0 0 0 0
15092754 -0.40300985040086074 0.03704914518037436 0.08222524296045693 0.015363410319484237 0 0 0 0
15125700 -0.4031225155957359 0.037057473264992785 0.082242543602776 0.015381398392357455 0 0 0 0
15158646 -0.4026479294281827 0.037272250982694675 0.08216751079746475 0.01542935453625973 0 0 0 0
15191592 -0.402947498648248 0.03732063756205641 0.0822287979762664 0.015461406374739493 0 0 0 0
15224538 -0.40302825679487086 0.03742204858741671 0.0822266659354234 0.015484211349073516 0 0 0 0
15257484 -0.40305718152399594 0.037652488298599025 0.0823248107650452 0.015472781772673095 0 0 0 0
15290430 -0.4028169099794755 0.03735168807427961 0.08223913696291071 0.015566696244028504 0 0 0 0
15323376 -0.4030039138196066 0.0375664289851153 0.08224409671336701 0.015605852482034492 0 0 0 0
15356322 -0.40261920540845125 0.03767246675492605 0.08225122169116082 0.01563392348618835 0 0 0 0
15389268 -0.40253076374427255 0.037764383382825735 0.08221942099486614 0.015682532295969463 0 0 0 0
15422214 -0.40278914114960046 0.037727223016930024 0.08229936550355405 0.01567079152027218 0 0 0 0
15455160 -0.40250209135406356 0.0379309965262047 0.08228377906030558 0.015707395011110268 0 0 0 0
15488106 -0.4026959576624562 0.03800827066961386 0.08231933989686784 0.015779902135597153 0 0 0 0
15521052 -0.4029015932330583 0.0380804702914998 0.08231168263414969 0.015810797890691883 0 0 0 0
15553998 -0.40276930206788936 0.03816849136178744 0.0823152821825873 0.015826380051283777 0 0 0 0
15586944 -0.4026324558016411 0.038057727288829564 0.08232180398216946 0.015876212007713438 0 0 0 0
15619890 -0.40269434203447424 0.03846382221633746 0.08235106346974888 0.015927558901837773 0 0 0 0
15652836 -0.40273770872800113 0.038130878918606045 0.08238009129565368 0.015978537686011048 0 0 0 0
15685782 -0.4027661707079034 0.038070274105219834 0.08233874373514985 0.015974288038840777 0 0 0 0
15718728 -0.4024709279299828 0.03836984845700343 0.08229985432173584 0.016052519565430384 0 0 0 0
15751674 -0.40274129972175365 0.038544704621825 0.08250382572963771 0.016098078645154567 0 0 0 0
15784620 -0.4027526076633784 0.038733644513465226 0.08241889023013865 0.015944370917064805 0 0 0 0
15817566 -0.4025760846603661 0.038491092181371415 0.08228330634905309 0.016133065789553404 0 0 0 0
15850512 -0.40238768472931113 0.03863419769397694 0.08239908692005361 0.01611133126957429 0 0 0 0
15883458 -0.40275493808890156 0.03878094893031977 0.08239439413658078 0.01607631401046028 0 0 0 0
15916404 -0.4025108885089489 0.038789815864903085 0.08238442043268819 0.016308718126903515 0 0 0 0
15949350 -0.4027192756986445 0.03910356094438379 0.08249307552816791 0.016227495331967826 0 0 0 0
15982296 -0.40229386463551614 0.03879234494521545 0.08250657159853964 0.01628779490206233 0 0 0 0
16015242 -0.4024181927765784 0.038911165001694045 0.08245708316836702 0.016371115892877635 0 0 0 0
16048188 -0.40226333185026614 0.03917901585624208 0.08247806997248666 0.0163355103551477 0 0 0 0
16081134 -0.40252840983870547 0.039377323133755734 0.08249820266345417 0.016370587940709745 0 0 0 0
16114080 -0.40215462523148854 0.0393166405403866 0.08253436486001234 0.016419058247345568 0 0 0 0
16147026 -0.4025845466478673 0.039528374833130625 0.08254389823912807 0.01645686805899706 0 0 0 0
16179972 -0.4023136753958115 0.03947794931385086 0.08253716432861347 0.016477504448838047 0 0 0 0
16212918 -0.40240150525457596 0.0394334343400002 0.08254035957962647 0.016576862037805274 0 0 0 0
16245864 -0.4019736163793611 0.03947270395173244 0.082541696513513 0.016579318304177876 0 0 0 0
16278810 -0.4021210957019958 0.03971751606990292 0.08261963462746381 0.016613324837104416 0 0 0 0
16311756 -0.40229432678179455 0.03967950484095544 0.08255628571399935 0.016641341386418478 0 0 0 0
16344702 -0.4022725304092633 0.039736782654784024 0.08256853113253108 0.016721180175139835 0 0 0 0
16377648 -0.4026209560580913 0.0399440424853232 0.08263497716258317 0.0167349660484559 0 0 0 0
16410594 -0.40207502706598486 0.03996159945480393 0.0825775908264965 0.016704754131628488 0 0 0 0
16443540 -0.4023462410607642 0.040232573710895905 0.08265195024820943 0.016743502416067396 0 0 0 0
16476486 -0.40235721729901486 0.04001902180355543 0.08262849725404585 0.016848019698956117 0 0 0 0
16509432 -0.4020782159336039 0.03989561972628424 0.0826287123794322 0.016853627017555245 0 0 0 0
16542378 -0.40213937485979306 0.04024499759188295 0.08265471455147323 0.016899489979265766 0 0 0 0
16575324 -0.40213931416031634 0.04038561476199284 0.08258956880372074 0.01693955467253003 0 0 0 0
16608270 -0.4021373126709716 0.040548289275106404 0.08269752278867594 0.016933516795300863 0 0 0 0
16641216 -0.40202649570586485 0.04061538350348497 0.08266362680463431 0.016959554725791557 0 0 0 0
16674162 -0.4021974038795662 0.04074959370322597 0.08272896548845664 0.01702751280559081 0 0 0 0
16707108 -0.40200470314188175 0.04064461152954863 0.0827272756229367 0.017074633123853662 0 0 0 0
16740054 -0.4019716894569565 0.04062834730467943 0.08277203484717655 0.017089964644869275 0 0 0 0
16773000 -0.40214213512405933 0.04078132067997931 0.08272101571786797 0.01711348584616298 0 0 0 0
16805946 -0.4021008737075869 0.040730454771386156 0.08272879813429594 0.01714436664001301 0 0 0 0
16838892 -0.40200365368701935 0.04051741165733938 0.08276478921789492 0.01720182081372836 0 0 0 0
16871838 -0.4023608909021238 0.04116117294891736 0.08273898220448152 0.017269554054134845 0 0 0 0
16904784 -0.40217000115719953 0.04086893447504811 0.08277335854923613 0.01728312797086933 0 0 0 0
16937730 -0.40179010956396344 0.0410646262483455 0.08279958908243194 0.017300949645042033 0 0 0 0
16970676 -0.40173133733884664 0.04100040303477987 0.08276011543680507 0.01735353728596544 0 0 0 0
17003622 -0.40178758222036454 0.04108326512879651 0.0828332737442248 0.01736570083108257 0 0 0 0
17036568 -0.40190992130391345 0.04126637411160131 0.08281282643446676 0.01737738787432486 0 0 0 0
17069514 -0.4019873215010581 0.041358931980910195 0.08289584912377754 0.017463115363735755 0 0 0 0
17102460 -0.40164498449051017 0.041527090498739205 0.08285529839706632 0.017453301808168665 0 0 0 0
17135406 -0.4018543005978123 0.04161209160713317 0.08285202915690988 0.017487546130391874 0 0 0 0
17168352 -0.4017050573506421 0.041519666529676306 0.08289030447288127 0.01750799039009679 0 0 0 0
17201298 -0.4018384790386415 0.04142558592398523 0.08291688633689602 0.017613994025743398 0 0 0 0
17234244 -0.40208378979336695 0.04172820602790055 0.08288036746299528 0.017602016336106047 0 0 0 0
17267190 -0.4018214738879126 0.041832144113697976 0.08288606320152149 0.01764066142590934 0 0 0 0
17300136 -0.40188005597970494 0.04203577316185639 0.08290728681913662 0.017642363482428508 0 0 0 0
17333082 -0.4018836882981535 0.04216429287194096 0.08292658537853494 0.017684562856331236 0 0 0 0
17366028 -0.4017961414960802 0.042030139312415754 0.08295760097593323 0.017707556999528754 0 0 0 0
17398974 -0.4020203065907057 0.04216644548523918 0.08302241016905401 0.01777433427971262 0 0 0 0
17431920 -0.40191990712152487 0.041992187454875284 0.0829254834596439 0.01789875959060441 0 0 0 0
17464866 -0.4017266640625809 0.042226095961547486 0.08281165587072374 0.017960620561419862 0 0 0 0
17497812 -0.4017155419156856 0.042366549738525966 0.08308545620063608 0.018022153267151626 0 0 0 0
17530758 -0.40137864109836435 0.04226833821268179 0.08306486880360542 0.01807393026666639 0 0 0 0
17563704 -0.4022971814092934 0.042201600167128824 0.08299122943284436 0.018132658460405494 0 0 0 0
17596650 -0.4015744187353501 0.042427506625479845 0.08302375456658588 0.017930003669932797 0 0 0 0
17629596 -0.4015746363403118 0.042537448929174014 0.0829966410035726 0.01795973339349888 0 0 0 0
17662542 -0.40174413747904003 0.043114318775257066 0.08300641085035242 0.017767170185793144 0 0 0 0
17695488 -0.40159439378753486 0.04314651256987778 0.08310011843738865 0.018136429332973096 0 0 0 0
17728434 -0.4017852399477066 0.04301924796211429 0.08305006935216346 0.018126981366934358 0 0 0 0
17761380 -0.4018004410661507 0.04278369856187342 0.08311468484260601 0.01814550029165012 0 0 0 0
17794326 -0.4014202228539537 0.04283352667565131 0.08309197518973514 0.018191740655092044 0 0 0 0
17827272 -0.4015850385098479 0.043005424902240116 0.08312744054355717 0.018257478591924746 0 0 0 0
17860218 -0.4016045843867777 0.04293739077391883 0.08314824109681739 0.018273808729271434 0 0 0 0
17893164 -0.40135255731025077 0.043165387656836654 0.08311202858703422 0.018316318463013057 0 0 0 0
17926110 -0.4017048098096275 0.04345535867169261 0.08316815232281015 0.018309348461730955 0 0 0 0
17959056 -0.401453454803573 0.04322488641734263 0.08319459745572556 0.018341175762595946 0 0 0 0
17992002 -0.4017404121898367 0.04337556015051764 0.08319822627327769 0.018421697547617317 0 0 0 0
18024948 -0.40165684789453243 0.04351592465056191 0.08316616632027338 0.018455534415184292 0 0 0 0
18057894 -0.40122153363406615 0.04337591099505215 0.08317975293335286 0.01844784137713604 0 0 0 0
18090840 -0.4015109553062437 0.04375068896454105 0.08321297304572174 0.018454525047886285 0 0 0 0
18123786 -0.40158751406617255 0.043451513968233664 0.08320059522638691 0.018557365455932787 0 0 0 0
18156732 -0.4014722678075993 0.04386191605641995 0.08326597074111944 0.018533092676925586 0 0 0 0
18189678 -0.40130056755327503 0.043849977647006946 0.08321061805848715 0.018592504401050515 0 0 0 0
18222624 -0.4011834509532144 0.043632295940728115 0.08318364932302186 0.01861796287560522 0 0 0 0
18255570 -0.4015151833506106 0.04407259193335268 0.0832621083732152 0.018619267614557657 0 0 0 0
18288516 -0.4004219485724704 0.04393997533872577 0.08326254250643272 0.018683121494438282 0 0 0 0
18321462 -0.4016741413819697 0.044093117380738525 0.08332244899251845 0.018717460754361717 0 0 0 0
18354408 -0.40115471938146324 0.04383599076964706 0.08330947637674437 0.018780475702220013 0 0 0 0
18387354 -0.40130905383628246 0.04415857465932223 0.08328145040401713 0.01881090055378934 0 0 0 0
18420300 -0.40112429139921574 0.044283092442130356 0.0832584101204943 0.01882328957590884 0 0 0 0
18453246 -0.4010141494196531 0.04439974424040063 0.08335078830053527 0.018846500553898235 0 0 0 0
18486192 -0.4014005645447232 0.04425647975393206 0.08335982533117992 0.018873905508866664 0 0 0 0
18519138 -0.4013538786773291 0.04455082110446452 0.0833782147329895 0.01893785702350344 0 0 0 0
18552084 -0.4012360827712481 0.04467046511940788 0.08338352589997593 0.01898933028933623 0 0 0 0
18585030 -0.4010479666403857 0.044719354531257104 0.08337046430783429 0.018965148923432602 0 0 0 0
18617976 -0.4011472787618352 0.0446307937150463 0.08338997772747479 0.019002890395036328 0 0 0 0
18650922 -0.401178340538038 0.04492761745239594 0.08340287338025884 0.019042824948890844 0 0 0 0
18683868 -0.40111286022714493 0.0448296780823421 0.08345883940032936 0.019083489920084188 0 0 0 0
18716814 -0.4013897218245554 0.0449846731306428 0.08346092794193309 0.01913842369466318 0 0 0 0
18749760 -0.40139681689851686 0.04498623257736177 0.0834370671559524 0.019175561625928945 0 0 0 0
18782706 -0.40097123666509554 0.0449386174547855 0.08350014873759144 0.019249411903452054 0 0 0 0
18815652 -0.40117338816584974 0.0454883231095422 0.0835093852569271 0.01922649909420312 0 0 0 0
18848598 -0.4011950520414548 0.04522237649525834 0.08348298916577605 0.019301170795799797 0 0 0 0
18881544 -0.40115268317036773 0.04536601222668433 0.08351830879531234 0.01927468527113989 0 0 0 0
18914490 -0.4008717543411942 0.045181356118531926 0.08352280777161444 0.019344073505251986 0 0 0 0
18947436 -0.4012412829432914 0.0454696679479725 0.08358577522680617 0.019354942129068076 0 0 0 0
18980382 -0.400991544985123 0.045615041589878655 0.08352369975678642 0.01938967128257861 0 0 0 0
19013328 -0.40096042845030005 0.045529746822995085 0.08357415722446859 0.019431122769580526 0 0 0 0
19046274 -0.40120114145010777 0.04600527746250445 0.08356684478436223 0.01946677903241447 0 0 0 0
19079220 -0.40082378001300734 0.04578330403989312 0.08354211859526495 0.01946267282387754 0 0 0 0
19112166 -0.4011920975381187 0.04591611825114588 0.08359616183712228 0.019491625827124513 0 0 0 0
19145112 -0.4009002659718584 0.04582846744320876 0.08359463166798685 0.019592981447796955 0 0 0 0
19178058 -0.400879690788966 0.04590293820057296 0.08360897921994132 0.01958372692432179 0 0 0 0
19211004 -0.40111242341245196 0.04618155217417799 0.083639697320993 0.019590124902361603 0 0 0 0
19243950 -0.4008889426985802 0.046407617227111654 0.08365261127626715 0.01963760787684894 0 0 0 0
19276896 -0.4007931838959819 0.04606123485769947 0.08367190769586287 0.01964649234537642 0 0 0 0
19309842 -0.4009996384200324 0.046312452220848295 0.0836979869554518 0.019703709785355936 0 0 0 0
19342788 -0.40083458462950255 0.04643937091386749 0.08369436756802112 0.019749876698240163 0 0 0 0
19375734 -0.40093289841661633 0.04627921069310087 0.0837106693168444 0.01977913336575338 0 0 0 0
19408680 -0.4008314709080195 0.04654888448937647 0.08373489177097787 0.019814703956751306 0 0 0 0
19441626 -0.4010791446654093 0.046594443912906125 0.08375653240183636 0.01984866667036547 0 0 0 0
19474572 -0.4007914277641408 0.04673917128539913 0.08374316626580558 0.019891701548345957 0 0 0 0
19507518 -0.4008391933120405 0.046956489569294414 0.08374765631714982 0.019978282891577548 0 0 0 0
19540464 -0.40076138666401023 0.04669255245361569 0.08375785869252707 0.01991973894607341 0 0 0 0
19573410 -0.40076906769376375 0.04712033629181024 0.08376273461342897 0.0199518542560204 0 0 0 0
19606356 -0.40098963760938716 0.04677128294940838 0.0838218759859624 0.01999685815563574 0 0 0 0
19639302 -0.40092124421022646 0.04688250856897372 0.08381777443761251 0.01998370330296554 0 0 0 0
19672248 -0.40093002489187846 0.046953667378047896 0.08382695123516654 0.020084854235216384 0 0 0 0
19705194 -0.40059608232531646 0.04722546500224268 0.08385025931390568 0.020114348134441424 0 0 0 0
19738140 -0.4007902120306 0.04723312595951045 0.08378928413813734 0.020162590121469898 0 0 0 0
19771086 -0.4003498206151594 0.047069529678361526 0.08384874476834038 0.020167358623409393 0 0 0 0
19804032 -0.4007253925039408 0.04768821443465923 0.0838763692004654 0.020207659144793957 0 0 0 0
19836978 -0.40083787831148976 0.047448598874825054 0.08389066648695571 0.02023953829432682 0 0 0 0
19869924 -0.4006531309298646 0.04767912479087255 0.08392898156836251 0.020238223727647466 0 0 0 0
19902870 -0.40027859401757043 0.047512574437561614 0.0838939530028466 0.020317851820209495 0 0 0 0
19935816 -0.4005505982301507 0.04789457198773236 0.08392703508323673 0.020341249646654184 0 0 0 0
19968762 -0.4006020143412865 0.04762856725017313 0.08393314537667527 0.02037508138144622 0 0 0 0
20001708 -0.4007351174732388 0.04788726301268376 0.08397641089683514 0.020401127946628995 0 0 0 0
20034654 -0.4003845731512952 0.047694181913685844 0.08394915055080988 0.020404338017876666 0 0 0 0
20067600 -0.4003834597519982 0.047946554933617165 0.08396208282380105 0.02046840084914113 0 0 0 0
20100546 -0.4005196395345373 0.048040087421699094 0.08397084113167591 0.020506401126798433 0 0 0 0
20133492 -0.40047645829562567 0.04834994291997239 0.08402253210153651 0.020518094425270843 0 0 0 0
20166438 -0.40048803288925716 0.04815449989477281 0.08403976007184116 0.020545781588773494 0 0 0 0
20199384 -0.40040249494554536 0.04822053453505289 0.08399759414355955 0.020629512673406007 0 0 0 0
20232330 -0.4003378010446889 0.048407352101224085 0.08403829470250312 0.020652239604927503 0 0 0 0
20265276 -0.40092584366422546 0.048263092055649506 0.08407678433577183 0.020656237091510807 0 0 0 0
20298222 -0.40057040794794957 0.04836456935568927 0.08412798934458743 0.02071449849531982 0 0 0 0
20331168 -0.4002477287584337 0.0484966178650296 0.08409656184523992 0.02070303144194356 0 0 0 0
20364114 -0.40005595713416914 0.04841044427428263 0.0840654203683507 0.020731822198183727 0 0 0 0
20397060 -0.4003823239451008 0.049045795008920916 0.08410316361486286 0.020820417506738746 0 0 0 0
20430006 -0.4005205357579711 0.04866987607150126 0.08416852925621665 0.02084725314374382 0 0 0 0
20462952 -0.40015889615000383 0.04868148658351711 0.08415958794298824 0.02083369118752029 0 0 0 0
20495898 -0.40035092933069844 0.04903660787064094 0.08416608620652567 0.020882905422763207 0 0 0 0
20528844 -0.39999799051021817 0.04883541270421852 0.0841537605907334 0.020885694212036943 0 0 0 0
20561790 -0.40005787994021236 0.04913345060251268 0.08421849880234752 0.0209402858172336 0 0 0 0
20594736 -0.40053183296506756 0.049262226789058006 0.08422162376349779 0.02099371481191076 0 0 0 0
20627682 -0.4002145675867102 0.049277010652320964 0.08420912065803585 0.02102498942176359 0 0 0 0
20660628 -0.4001116798737671 0.04926628867904466 0.0842214182924892 0.021035708645706187 0 0 0 0
20693574 -0.3997918997830232 0.049323855227288396 0.08424180109528201 0.02105248505944046 0 0 0 0
20726520 -0.40001465075816417 0.04924744201214286 0.08423768214122339 0.02112336137864466 0 0 0 0
20759466 -0.4000620634145914 0.04952104870664986 0.08424825528774606 0.021149930726600437 0 0 0 0
20792412 -0.4001594342112129 0.04951632366565145 0.08431574313879402 0.021162453065063966 0 0 0 0
20825358 -0.40046246363926974 0.049659264686875225 0.08427833756376615 0.021233186228935625 0 0 0 0
20858304 -0.3999039238656359 0.04957448904767118 0.08433974973661594 0.02126361273429406 0 0 0 0
20891250 -0.3999453092973175 0.049627964305357625 0.08431790074214286 0.02128466619593322 0 0 0 0
20924196 -0.3999097656235075 0.04971928584874017 0.08433426904244153 0.021310079644122414 0 0 0 0
20957142 -0.39990952633343513 0.04996331402421506 0.08434924136667458 0.021304166458247575 0 0 0 0
20990088 -0.4002600415717681 0.05003545725164394 0.08439206781148591 0.02138238238291325 0 0 0 0
21023034 -0.3999155689125064 0.049982788878282246 0.0843716670583932 0.021400861059972104 0 0 0 0
21055980 -0.4001593808672877 0.05031386204354326 0.0844036026315083 0.021442547532977665 0 0 0 0
21088926 -0.3997752617133721 0.050159177909241126 0.08444889614072446 0.021489913481259962 0 0 0 0
21121872 -0.40015018156700655 0.05042687493564078 0.08449550502630135 0.02153690737605763 0 0 0 0
21154818 -0.4000324255143014 0.05055945170479487 0.0844725812065557 0.021536174532864806 0 0 0 0
21187764 -0.39980729046882096 0.0505587364777537 0.08446865145711194 0.02156877382437677 0 0 0 0
21220710 -0.400041756074102 0.05062132371129227 0.08444746202310717 0.02162780964919487 0 0 0 0
21253656 -0.40030611947385836 0.05060609413729923 0.08451471795137454 0.021661337196112223 0 0 0 0
21286602 -0.39981633726210297 0.050568989166960045 0.08446493017005875 0.021670751558699866 0 0 0 0
21319548 -0.39982193793693543 0.05076840840600666 0.08448527941174443 0.021727875786375157 0 0 0 0
21352494 -0.4000719245939897 0.051031278833574445 0.08451835276602859 0.02177090733840548 0 0 0 0
21385440 -0.39991406912149874 0.05116695547377265 0.08452755433927393 0.02181529927527799 0 0 0 0
21418386 -0.3998492283997852 0.050972177989528904 0.08455943737847384 0.021804810401209802 0 0 0 0
21451332 -0.400027881850035 0.051191136344671304 0.08457332703480365 0.021842283687930723 0 0 0 0
21484278 -0.3997178542580881 0.05111916101040125 0.08455493986233699 0.021889541746887703 0 0 0 0
21517224 -0.39972644351331027 0.05123259002372387 0.08462774273840104 0.021836925191148195 0 0 0 0
21550170 -0.399626001918951 0.05123512994076184 0.08459520255298394 0.021922875956658504 0 0 0 0
21583116 -0.3997282235692798 0.05140857903082218 0.08458556392134722 0.02196213278007591 0 0 0 0
21616062 -0.3998029354523867 0.051461125435150135 0.08467423178085333 0.021958407371818544 0 0 0 0
21649008 -0.3999106353201085 0.051495353568350714 0.08460174990878573 0.022026673711776603 0 0 0 0
21681954 -0.39971709103869324 0.051653776775528605 0.08462310689933604 0.022077950324473527 0 0 0 0
21714900 -0.39967581448986156 0.05157875140734846 0.0847366971099764 0.02209862200088068 0 0 0 0
21747846 -0.3995675795749437 0.0516723288212294 0.08471290778394032 0.022115322381720818 0 0 0 0
21780792 -0.39967641802254317 0.05152787276344436 0.08468452395247822 0.02216034972798532 0 0 0 0
21813738 -0.39968666920032175 0.05186741813587036 0.08466865596212889 0.02221447718448683 0 0 0 0
21846684 -0.3996088747716962 0.05189390871507308 0.0847368089333456 0.022250916298607124 0 0 0 0
21879630 -0.39949595956414025 0.05190361455631665 0.08471614645031889 0.022225996108059955 0 0 0 0
21912576 -0.39953776909085303 0.052112610322393234 0.0847425382503805 0.022233281920298508 0 0 0 0
21945522 -0.3996546459504499 0.052149456234816066 0.08477552546656625 0.022298867076804615 0 0 0 0
21978468 -0.39973099396078426 0.05239292186608279 0.08482160671862561 0.02234638724970984 0 0 0 0
22011414 -0.39963297700936845 0.052206728258270295 0.08481660130527681 0.02235640982135691 0 0 0 0
22044360 -0.3996767069528309 0.0524239086555924 0.0848599378770222 0.022458528559134446 0 0 0 0
22077306 -0.3996853308934596 0.05231964677512293 0.08483890728049731 0.0224758755726351 0 0 0 0
22110252 -0.3992450689330705 0.05250145620258223 0.08483433631536333 0.022487513643513778 0 0 0 0
22143198 -0.3993022031979408 0.052834579397254694 0.08484380410286338 0.02248248080305155 0 0 0 0
22176144 -0.3994311424688694 0.05263527274835729 0.0849055611394001 0.022528658104358827 0 0 0 0
22209090 -0.3996252697662807 0.05274525120692347 0.08487623111618431 0.022575207121785373 0 0 0 0
22242036 -0.39938811428387694 0.0528599609783208 0.08495251171870022 0.022568168207660524 0 0 0 0
22274982 -0.3992828208299616 0.05276324687055286 0.08492501064555116 0.022625053027048092 0 0 0 0
22307928 -0.3992728180203324 0.053144823602295437 0.0850087205288204 0.02260693362924124 0 0 0 0
22340874 -0.39929852612317057 0.05298123228722841 0.08495669173816953 0.022683524444480727 0 0 0 0
22373820 -0.3993730536294029 0.053132013829190076 0.08496302915756392 0.022725090786952482 0 0 0 0
22406766 -0.3996080821693505 0.05322629827847475 0.08501997071822585 0.02278291031303431 0 0 0 0
22439712 -0.3994103455480562 0.05318794811202108 0.0849840828283216 0.02279299737872133 0 0 0 0
22472658 -0.3993758109935431 0.05337915508988863 0.08503992305605088 0.022791104349220295 0 0 0 0
22505604 -0.3992195371912196 0.053469166884568146 0.08499057001620329 0.022836942560579453 0 0 0 0
22538550 -0.39906411585868257 0.053449379511978576 0.08497527084695242 0.022871433361850473 0 0 0 0
22571496 -0.3993271043525056 0.05352849770780468 0.08508891467420106 0.022963000496541878 0 0 0 0
22604442 -0.39915130107171387 0.05360627295069809 0.08509494990610977 0.02293906725947383 0 0 0 0
22637388 -0.3993936453631541 0.053812369936664335 0.08515185271716168 0.022958405607307903 0 0 0 0
22670334 -0.399182147773373 0.0536557209580151 0.08509873051624148 0.023006021635819073 0 0 0 0
22703280 -0.39916867095905867 0.05379548782913489 0.08513773782149947 0.023040638965205855 0 0 0 0
22736226 -0.39901563975785787 0.05402839057276736 0.08510814255261118 0.023050041613491265 0 0 0 0
22769172 -0.39919121570789823 0.053905846866155446 0.08514944775803357 0.023147440269966513 0 0 0 0
22802118 -0.3993236638607407 0.054159819137734454 0.08522575773569262 0.023081767803733052 0 0 0 0
22835064 -0.39913788314545934 0.05408631322293144 0.08522551837913023 0.02314815282831451 0 0 0 0
22868010 -0.39901639951571083 0.05429677578892727 0.08517245634787263 0.023171291441711296 0 0 0 0
22900956 -0.3989608746303124 0.05425411802066303 0.08521240245836058 0.023228941177047078 0 0 0 0
22933902 -0.3992093965062296 0.05444681127914007 0.08526967067604115 0.023297980303001037 0 0 0 0
22966848 -0.39894131546209877 0.05426521267004741 0.08526917472396159 0.023329042723375312 0 0 0 0
22999794 -0.39922193191560057 0.054600681029080014 0.0852982841706717 0.023345749503661445 0 0 0 0
23032740 -0.39887569989137545 0.05455779801999486 0.08528821579058438 0.023346739026943335 0 0 0 0
23065686 -0.3989075764835118 0.05472698873211595 0.0853568288300986 0.02337307671510473 0 0 0 0
23098632 -0.3989566170197537 0.05473775431708802 0.08529972181600798 0.02341876244716101 0 0 0 0
23131578 -0.3988359263703283 0.054963466766192806 0.08536759431470074 0.023451489851443692 0 0 0 0
23164524 -0.3987510348864861 0.05507227714919455 0.08537561696138884 0.023499588053719326 0 0 0 0
23197470 -0.3988949414879642 0.05489303839206935 0.08538502370415285 0.023518404770660285 0 0 0 0
23230416 -0.39921137991098676 0.05523971980900602 0.08537899949343768 0.02352893277456915 0 0 0 0
23263362 -0.39892836421762545 0.05522028503524053 0.08541868151277299 0.023529611645756263 0 0 0 0
23296308 -0.3989921115593684 0.055296968560709446 0.08541699582222387 0.023614255094782464 0 0 0 0
23329254 -0.3986928742015917 0.05521748555298302 0.08541665083120162 0.023650251356964344 0 0 0 0
23362200 -0.3986042123840994 0.055228905161301904 0.08544107138915497 0.023707625917645976 0 0 0 0
23395146 -0.3988462010043887 0.055538535322023734 0.08551135353309375 0.023678793652933374 0 0 0 0
23428092 -0.39898587067891716 0.055353531138005806 0.08549040326876908 0.023728623838344304 0 0 0 0
23461038 -0.39873534048630027 0.05572732312518534 0.0855167018295056 0.023754640563148702 0 0 0 0
23493984 -0.39855382892129965 0.05554579790033455 0.08554021622596254 0.02379362067000098 0 0 0 0
23526930 -0.398542847268512 0.05586084114194948 0.08550591082991582 0.023826672414717948 0 0 0 0
23559876 -0.3988453706638993 0.055574281974729633 0.08556040324089187 0.023899838068605368 0 0 0 0
23592822 -0.3985591698768127 0.0560014900590395 0.08556940508250663 0.023883168654618297 0 0 0 0
23625768 -0.3986743929059708 0.0558396680657195 0.08561094015549538 0.023901239893054024 0 0 0 0
23658714 -0.3985247304629102 0.05592522303285255 0.08558952658474274 0.023969050616464895 0 0 0 0
23691660 -0.39842187041090493 0.05618249829620446 0.08555504032950315 0.023944204166846412 0 0 0 0
23724606 -0.39856515656925634 0.056090478157751006 0.08566116380117665 0.023994501939875047 0 0 0 0
23757552 -0.3987307333052756 0.05602311216627844 0.08564482551040133 0.024054086875609216 0 0 0 0
23790498 -0.398695161454205 0.056516068095808995 0.08567093068405805 0.024057467672371904 0 0 0 0
23823444 -0.398905757229084 0.0563928711535855 0.0857118730206373 0.024120600529533992 0 0 0 0
23856390 -0.39837217839675304 0.056563866748835956 0.08567119562897943 0.02416441340508744 0 0 0 0
23889336 -0.3985786654149411 0.05662996961174041 0.08575213743007605 0.024143595902892286 0 0 0 0
23922282 -0.39856527245614704 0.056416838525582796 0.0857286165697926 0.02420327311909365 0 0 0 0
23955228 -0.3985823864959848 0.056792990043380544 0.08580133493399533 0.024262379223715883 0 0 0 0
23988174 -0.39862362576223465 0.0566587178254907 0.08577348109372239 0.02423870258697314 0 0 0 0
24021120 -0.3987709688796423 0.05673876999154876 0.08580927131295779 0.02427094923638445 0 0 0 0
24054066 -0.3983411514302362 0.05686749357666952 0.08577153629270631 0.02432326140323994 0 0 0 0
24087012 -0.39848071765048954 0.057013805629970944 0.0858049998462274 0.024357332078396167 0 0 0 0
24119958 -0.3987443535448137 0.05720492448077716 0.08582944064133735 0.02437015679183722 0 0 0 0
24152904 -0.39839604503617576 0.05698176678737839 0.08584987344157376 0.02445093716182851 0 0 0 0
24185850 -0.39845786824076984 0.057227860994119625 0.08586999740283414 0.02440985485795755 0 0 0 0
24218796 -0.39812628146189777 0.05754226760760561 0.08586486089659985 0.024435346744218975 0 0 0 0
24251742 -0.3984908926532286 0.05724762942178031 0.08594282687228487 0.024518250913162353 0 0 0 0
24284688 -0.39837124255361567 0.057221271184470485 0.0859213487517545 0.02454568247223194 0 0 0 0
24317634 -0.39829544285695506 0.05747377293583486 0.08592056163831968 0.024573747591628205 0 0 0 0
24350580 -0.3984510462128145 0.057869140626345086 0.0860133042314787 0.02456292635718432 0 0 0 0
24383526 -0.3980948073506226 0.05770999814425855 0.08588106487654061 0.0246323690005572 0 0 0 0
24416472 -0.3983663474841505 0.05764067402002534 0.08598659972397892 0.024662232364588397 0 0 0 0
24449418 -0.39855141593231513 0.057708345895735265 0.08604095086747955 0.02473248133947307 0 0 0 0
24482364 -0.39844528442429594 0.05807910416653457 0.0860553656526295 0.024674671158254446 0 0 0 0
24515310 -0.39814580112124703 0.057938020101792026 0.08600581995104407 0.024749964216286238 0 0 0 0
24548256 -0.39843414394325966 0.05806408130738107 0.08607031214441557 0.02477296990365259 0 0 0 0
24581202 -0.3979428231513081 0.05805139560965631 0.08605064812941392 0.024825868303688676 0 0 0 0
24614148 -0.397988720276481 0.05833706886227045 0.08607161789594951 0.02483887301923641 0 0 0 0
24647094 -0.39805493313939 0.05802169059073172 0.08606794470223439 0.024881299691793538 0 0 0 0
24680040 -0.39794853644277045 0.058233227008061376 0.0860713592858715 0.024892156185704048 0 0 0 0
24712986 -0.3978578255321606 0.05826274600118037 0.08611946686214869 0.02493055898432857 0 0 0 0
24745932 -0.3982497496495425 0.05829951482026844 0.08615447777578704 0.025013998502489188 0 0 0 0
24778878 -0.3980323534363879 0.0585221716658275 0.08616145575173238 0.025016693777603946 0 0 0 0
24811824 -0.39822305282164366 0.05856870801191098 0.08624745997172438 0.02500796648466403 0 0 0 0
24844770 -0.3979582631507903 0.05881829420439217 0.08622449521046147 0.02500961488834143 0 0 0 0
24877716 -0.3980380373803863 0.05871702318334453 0.08619625199231343 0.02505079029389005 0 0 0 0
24910662 -0.39821253689487557 0.05880207718601316 0.08620345723693093 0.025156896289063285 0 0 0 0
24943608 -0.3978969125878411 0.05915972793029622 0.08624463443462652 0.02511444620013651 0 0 0 0
24976554 -0.39780621445597814 0.05896741902357327 0.08627769705897716 0.02518213130237488 0 0 0 0
25009500 -0.3976765237360152 0.05903995201874845 0.08622976117643597 0.025198698640845507 0 0 0 0
25042446 -0.3981038055408635 0.05930939316310906 0.08630074988051611 0.025213162803402453 0 0 0 0
25075392 -0.3977115587730668 0.05925905096569009 0.08632158746856078 0.025275209738768133 0 0 0 0
25108338 -0.3978305010160525 0.059123489064526594 0.08634007017771313 0.02528326023575416 0 0 0 0
25141284 -0.39783868952710355 0.05963318088285674 0.08636621279495589 0.025332210721452118 0 0 0 0
25174230 -0.39778599011954596 0.059219466661985146 0.0863509200837748 0.02534300824546148 0 0 0 0
25207176 -0.3980082895300827 0.05952830000486779 0.0864130250108902 0.025416920043638744 0 0 0 0
25240122 -0.39752249498554 0.059624430986606546 0.08637973667587756 0.025416190297781978 0 0 0 0
25273068 -0.3979688097667583 0.05958303383434745 0.08649001079805284 0.02544398359992154 0 0 0 0
25306014 -0.3978310983613239 0.05960149268489751 0.08642324014439094 0.025468735174656747 0 0 0 0
25338960 -0.39788758065352214 0.059666717019958626 0.08650167663911817 0.025530532166231953 0 0 0 0
25371906 -0.3977237517732431 0.05978180617953829 0.08648915797550945 0.02554402411199754 0 0 0 0
25404852 -0.3978531865282624 0.060157985813959106 0.086495458504765 0.025517669182834907 0 0 0 0
25437798 -0.39761809245123686 0.05988385391671255 0.08656428837399063 0.02562445234333277 0 0 0 0
25470744 -0.3977296848523628 0.059718085960912964 0.086483968940648 0.025663802017373838 0 0 0 0
25503690 -0.3979077897164648 0.06037345923958629 0.08656632189750135 0.025648964927553173 0 0 0 0
25536636 -0.39768252170478985 0.06018598345591731 0.08655774481372022 0.02572325221945779 0 0 0 0
25569582 -0.39759949311899934 0.060303142546728035 0.0865272085607574 0.02577562299139944 0 0 0 0
25602528 -0.3979177225293366 0.06053232728731607 0.08666638843800836 0.025743984976840495 0 0 0 0
25635474 -0.39767980884724197 0.06049790223367471 0.08663359927659592 0.025776946102884304 0 0 0 0
25668420 -0.3974172198045392 0.060660057974816835 0.08660744655687437 0.02582259640758844 0 0 0 0
25701366 -0.3975000005533113 0.06036157937077678 0.086649366692324 0.025844329408861215 0 0 0 0
25734312 -0.3977032275296809 0.06088739677123659 0.08670485575425721 0.025832469275248193 0 0 0 0
25767258 -0.3973897819954826 0.06078297439767758 0.08666931241710943 0.025913096010196625 0 0 0 0
25800204 -0.39722354081925026 0.06087436175624978 0.08670550866215974 0.025923033639101728 0 0 0 0
25833150 -0.3975830193170978 0.06079436078339564 0.08668496022054567 0.02591800042808602 0 0 0 0
25866096 -0.39750357953174786 0.06072702583633285 0.08675460283862843 0.02601303633004013 0 0 0 0
25899042 -0.3974404232961335 0.06130932164849578 0.08677338913655083 0.02600444330058144 0 0 0 0
25931988 -0.3976030932741007 0.06125627857840781 0.08677690540177026 0.026019983435996864 0 0 0 0
25964934 -0.3976878298329676 0.061209901422084864 0.08683771646171054 0.026100435779775964 0 0 0 0
25997880 -0.39762623789177737 0.06140015944329435 0.08686216394859358 0.02610916534101931 0 0 0 0
26030826 -0.3973387399191749 0.061381342380620284 0.08682363542425986 0.026159126098879583 0 0 0 0
26063772 -0.3974398611110635 0.06146085175651325 0.08685468276439928 0.02614258292690191 0 0 0 0
26096718 -0.39715097097270063 0.06162359818367238 0.08686176908561868 0.026156315537108753 0 0 0 0
26129664 -0.3968657679182292 0.0617248736781978 0.0868310967661525 0.026217335398558427 0 0 0 0
26162610 -0.3972409754570604 0.06145921260048764 0.08690667518552658 0.026268375333246257 0 0 0 0
26195556 -0.3973336132206497 0.061500535792913105 0.08693009900210716 0.026285694258757375 0 0 0 0
26228502 -0.39739687483340785 0.06204399672790778 0.08696266592290877 0.026288569515436476 0 0 0 0
26261448 -0.39715381194994476 0.06202184714124557 0.08696685880207973 0.026336751034628403 0 0 0 0
26294394 -0.39711894992837615 0.0618816088708472 0.0869540642120888 0.02640259360796994 0 0 0 0
26327340 -0.3973073117115654 0.062072333354676115 0.08700008675010752 0.02637366235149131 0 0 0 0
26360286 -0.3970056908575552 0.06205547629298971 0.08698628477758963 0.026399164767982763 0 0 0 0
26393232 -0.39705149513345156 0.06206405412694417 0.0870875101421859 0.026427694419294982 0 0 0 0
26426178 -0.3970570254728698 0.06224351735053039 0.08709688716800477 0.02649059832682807 0 0 0 0
26459124 -0.3973606916413988 0.062313960613134385 0.08706630665131387 0.026504065775441444 0 0 0 0
26492070 -0.3970456985101228 0.06234626323279956 0.08711909986143818 0.026558014674684962 0 0 0 0
26525016 -0.3972464023275666 0.062320302898970094 0.0871081987114728 0.02662489185705596 0 0 0 0
26557962 -0.3968875467713319 0.06250617653424945 0.08710222832513392 0.026594985459975993 0 0 0 0
26590908 -0.39729857558299514 0.06258229919571988 0.08718371689645772 0.026615722799086645 0 0 0 0
26623854 -0.39684730256769446 0.0627182615782004 0.08714287468450574 0.026643669284935948 0 0 0 0
26656800 -0.3972054624440661 0.0627169924621721 0.08722700173764181 0.026658891437993357 0 0 0 0
26689746 -0.3970094670912209 0.06257572067196555 0.08721001011439831 0.026731775259067826 0 0 0 0
26722692 -0.3970701006586089 0.06319084524286026 0.08726025143151973 0.026736708553683878 0 0 0 0
26755638 -0.39683634726164235 0.06302826121731267 0.08721380919340563 0.026804948827870927 0 0 0 0
26788584 -0.39679578844538804 0.06286534231130282 0.08724045943925648 0.026752166437342403 0 0 0 0
26821530 -0.3969346757788691 0.06306765245018334 0.08728790561074555 0.02683741171246954 0 0 0 0
26854476 -0.39661058078248446 0.06324065282519019 0.08726567886012845 0.026863878681365527 0 0 0 0
26887422 -0.39700700059268523 0.06313571108648526 0.08728645217382727 0.026889316080599298 0 0 0 0
26920368 -0.39663726230203966 0.06345039682136235 0.0873207852181989 0.026897982109021477 0 0 0 0
26953314 -0.39683559713869276 0.0637447771849719 0.08726515750313801 0.026940331095925 0 0 0 0
26986260 -0.39683352020678586 0.06322130042569432 0.08737280140479871 0.02699171830362533 0 0 0 0
27019206 -0.39702930439038875 0.0635754075233108 0.08735828156952176 0.026995316693579144 0 0 0 0
27052152 -0.39715974279634486 0.06355871320885542 0.08736662987297718 0.027020768414309625 0 0 0 0
27085098 -0.39676471618325465 0.06378484157797386 0.0874138705709665 0.027042967802560207 0 0 0 0
27118044 -0.39658238717025174 0.0640463233873038 0.08746947699117519 0.027094655951414214 0 0 0 0
27150990 -0.39667109560319735 0.06393417876966205 0.08744395033159631 0.027147694129716998 0 0 0 0
27183936 -0.3966437911330643 0.06410031137999299 0.08751356091585313 0.027119661264158695 0 0 0 0
27216882 -0.39663071836129093 0.06430294906205626 0.08745835088064231 0.027208577945334014 0 0 0 0
27249828 -0.3967194889865518 0.06393254045924883 0.08756803886528199 0.027244581794596098 0 0 0 0
27282774 -0.39683729863029243 0.06405084874976168 0.08750018813569899 0.027277754108496286 0 0 0 0
27315720 -0.39653372704830014 0.06417959747148134 0.0875623039604569 0.027262901682312993 0 0 0 0
27348666 -0.39648007130319707 0.06448632799373072 0.0875828528654764 0.027301679508451623 0 0 0 0
27381612 -0.396629570730777 0.06442857187390408 0.08759250282890746 0.02736059108369556 0 0 0 0
27414558 -0.39667772476085106 0.0646526407293138 0.08754425738910142 0.027339441135131322 0 0 0 0
27447504 -0.39640136428970546 0.06433830124933936 0.0876284031332072 0.027406336050139583 0 0 0 0
27480450 -0.39690084348701243 0.06447044866879797 0.087655732277111 0.027480113909474923 0 0 0 0
27513396 -0.39671443149083524 0.06461461171508566 0.08767930162114979 0.027456038043084916 0 0 0 0
27546342 -0.3964592007000801 0.06484468518886728 0.08767120140335154 0.02750322766922353 0 0 0 0
27579288 -0.396508870519979 0.06502787549881628 0.08772074531446136 0.02748481941388733 0 0 0 0
27612234 -0.39657589398057036 0.06481935167616046 0.08777684908613508 0.027532217449021727 0 0 0 0
27645180 -0.3966315761961344 0.06488070300039997 0.0877509572469979 0.027609444155262727 0 0 0 0
27678126 -0.3965111617265373 0.06514153302015412 0.08773959273491004 0.027673516150759733 0 0 0 0
27711072 -0.39631310819400545 0.06509960825532334 0.08774316394978864 0.02764765433441771 0 0 0 0
27744018 -0.3961570940325424 0.06524707912482848 0.08776860684816393 0.027621833335163944 0 0 0 0
27776964 -0.39670915579010063 0.0651786020405146 0.08782512299956427 0.02769158818485231 0 0 0 0
27809910 -0.3964298344833096 0.06546772953509862 0.0878204169988434 0.027744933733296555 0 0 0 0
27842856 -0.39625750597844417 0.06534111904010698 0.08790083887287725 0.027744422368442184 0 0 0 0
27875802 -0.3961236954672729 0.0652479860473983 0.0878283375858637 0.027760394218178802 0 0 0 0
27908748 -0.3964841068866479 0.06545093354900333 0.0879117984510482 0.027806827986674627 0 0 0 0
27941694 -0.3963372760929585 0.06578717037996043 0.08794029010914559 0.02781944626866492 0 0 0 0
27974640 -0.3963526784363585 0.06603395431300384 0.08797260003901725 0.027801289005573444 0 0 0 0
28007586 -0.3962446591332321 0.06581351998577827 0.08792483861738216 0.027858371849896868 0 0 0 0
28040532 -0.39618030129325427 0.0661350928495431 0.08791849903797402 0.02788699638151715 0 0 0 0
28073478 -0.3962046737986003 0.06577765130397996 0.08799851412531978 0.02792428543720293 0 0 0 0
28106424 -0.3962119599236698 0.06587235156183827 0.08798043765760867 0.027952184034159996 0 0 0 0
28139370 -0.3961214537195431 0.06640190889535454 0.08806650398185241 0.027983617224822285 0 0 0 0
28172316 -0.3959866366669183 0.06609865753810672 0.08799550031980204 0.02807091492077057 0 0 0 0
28205262 -0.39610639111338336 0.06639314767527318 0.08812036198723072 0.028052064771579482 0 0 0 0
28238208 -0.39617597501446716 0.06658478448113656 0.08813416396910824 0.02802944297909849 0 0 0 0
28271154 -0.3961790276097406 0.06631464615376721 0.08813615755204597 0.02813336341018754 0 0 0 0
28304100 -0.39630959743068483 0.06640998780998729 0.08811956564886396 0.028154448580637075 0 0 0 0
28337046 -0.3960812258381633 0.0667151524895728 0.08817334797981916 0.028123060736555617 0 0 0 0
28369992 -0.39603082591605315 0.06668659349377812 0.08821119179677626 0.02816595390075755 0 0 0 0
28402938 -0.3957338296325454 0.06668079044506611 0.08811147027856975 0.028280148432419 0 0 0 0
28435884 -0.39605646153018137 0.06671352770776329 0.08817414412983617 0.02823897121109196 0 0 0 0
28468830 -0.3960498887921727 0.06693522805879543 0.0882492953696591 0.028290707174274676 0 0 0 0
28501776 -0.3959882664531124 0.06667693025085908 0.08826522604442982 0.02832339193129055 0 0 0 0
28534722 -0.39610340948675693 0.06689800250381399 0.08829081323418374 0.028359618050895895 0 0 0 0
28567668 -0.3961259740256957 0.06711577641586466 0.08833757633395724 0.028414167328027606 0 0 0 0
28600614 -0.3958510337129556 0.06736718838016859 0.08832736798221305 0.028385823026708404 0 0 0 0
28633560 -0.3960630278126878 0.06689100332632851 0.08833520293777818 0.02842506371053964 0 0 0 0
28666506 -0.39563157075494343 0.06743944952721437 0.08836775183641937 0.02843482279783887 0 0 0 0
28699452 -0.39584730387885037 0.06743805882443343 0.08832519547085046 0.028510600036232032 0 0 0 0
28732398 -0.3957759732611459 0.06754864797095227 0.08834181691874406 0.028447565083144964 0 0 0 0
28765344 -0.3957017399768414 0.06727796096749729 0.08841269218467138 0.02849032763846543 0 0 0 0
28798290 -0.3960823739483448 0.06759814202889944 0.08845661494324737 0.02860795804011156 0 0 0 0
28831236 -0.39576837023720635 0.06771169637829576 0.0884747551922479 0.028596801620518753 0 0 0 0
28864182 -0.3957917575378245 0.06770570934607968 0.08841521567172647 0.028633578589355453 0 0 0 0
28897128 -0.3956332114297144 0.0676573238374212 0.08850028732208909 0.028615282508794943 0 0 0 0
28930074 -0.3959400252923752 0.06788297365698757 0.08849802061483572 0.028670867502920153 0 0 0 0
28963020 -0.3955000425237156 0.06800738330439973 0.08852177794008756 0.028690443202103347 0 0 0 0
28995966 -0.39565768296499526 0.06799173147686668 0.08851736154810524 0.02875225422592017 0 0 0 0
29028912 -0.39568962374423294 0.06817323804683974 0.0885647713990019 0.028749431087195885 0 0 0 0
29061858 -0.3957990124542034 0.06804949986214642 0.08860259412479393 0.028750327726940996 0 0 0 0
29094804 -0.39576933640193146 0.06818106637253331 0.08862828208189844 0.028817914217688534 0 0 0 0
29127750 -0.39545125416132637 0.06844476664771713 0.08864775446882671 0.028901594477276655 0 0 0 0
29160696 -0.3954637912776208 0.06839412035025828 0.08859557458936705 0.028892148785218154 0 0 0 0
29193642 -0.39560867873296135 0.06873084932488603 0.08872276135237682 0.028839262991834123 0 0 0 0
29226588 -0.39568807198133304 0.06851419529423007 0.08872764583436962 0.028911130270953697 0 0 0 0
29259534 -0.39551581383415374 0.06850287212455966 0.08873745749545653 0.028937129434701524 0 0 0 0
29292480 -0.395462047791119 0.06881602043078539 0.08870782829919478 0.028992041976730783 0 0 0 0
29325426 -0.3955837719979051 0.06865509067666058 0.08872621560546026 0.029040201821743505 0 0 0 0
29358372 -0.395443206124417 0.06890522510529665 0.08873657051246318 0.028969721381063934 0 0 0 0
29391318 -0.3952673595840833 0.06879758082827747 0.08877915775167632 0.029042589767425523 0 0 0 0
29424264 -0.3954308358085439 0.06889821813623961 0.08884488518097998 0.029089916490280907 0 0 0 0
29457210 -0.39552745832028113 0.06879007115731474 0.08885477286064979 0.029116883305198016 0 0 0 0
29490156 -0.39511207949327287 0.06940164946387949 0.08884715368869175 0.029115360837887634 0 0 0 0
29523102 -0.39536189017151213 0.06925709806556944 0.08890068539531454 0.029173742712703715 0 0 0 0
29556048 -0.3954347332572655 0.06932128018882996 0.08888706437617293 0.029210242640112596 0 0 0 0
29588994 -0.3953249279377715 0.0694862239984342 0.088865836898181 0.02922116639136536 0 0 0 0
29621940 -0.39530452169466734 0.06922504339705536 0.0888628193298458 0.02922501771631948 0 0 0 0
29654886 -0.39534397075704597 0.06950267498941189 0.08899477018276536 0.029299911266858103 0 0 0 0
29687832 -0.39510643933139233 0.0697341606679054 0.08900814191172307 0.029304067559114716 0 0 0 0
29720778 -0.39539116946722636 0.06985688012823513 0.08899766127141703 0.029316055847531924 0 0 0 0
29753724 -0.39491428835220205 0.06968230373476866 0.08901562300108135 0.0293140588026519 0 0 0 0
29786670 -0.3951464048842676 0.06965871486867072 0.08911247553851848 0.029415035743461514 0 0 0 0
29819616 -0.3952338633973856 0.06993479479796896 0.08905163962131595 0.029425752350941293 0 0 0 0
29852562 -0.39523363897275654 0.069994687812667 0.08902138898443855 0.029501551022488255 0 0 0 0
29885508 -0.3952664061842322 0.06987852053339323 0.08912008180393677 0.029445766392218034 0 0 0 0
29918454 -0.3951174429739216 0.07006941645676938 0.0891159425199013 0.029453502352212835 0 0 0 0
29951400 -0.39510752754571193 0.07006030001932412 0.0891694290411878 0.029538811628289845 0 0 0 0
29984346 -0.39509954232784866 0.07047494391720689 0.08918707778664844 0.029565147002170666 0 0 0 0
30017292 -0.3951517689230658 0.07015714758298854 0.08914959339696006 0.029617968241916218 0 0 0 0
30050238 -0.3948519628116884 0.07021765878369346 0.0891918255447111 0.02959589590295905 0 0 0 0
30083184 -0.3952179068384591 0.07037507551463838 0.08922095794559258 0.02961710544420717 0 0 0 0
30116130 -0.3950805746618458 0.07064233833674385 0.08923801278866061 0.029682796758686684 0 0 0 0
30149076 -0.3950736921830724 0.07038901183128025 0.08927501284551272 0.02973372580397952 0 0 0 0
30182022 -0.3950714528742215 0.0708571258697233 0.08931639362494581 0.029713329232488397 0 0 0 0
30214968 -0.3951670154906292 0.0709478538325768 0.08925241047964579 0.029762839263187558 0 0 0 0
30247914 -0.3945148301039222 0.0706036784548807 0.08930388303354302 0.029744183408131737 0 0 0 0
30280860 -0.39521284958853403 0.07100545380922464 0.08939931482121308 0.02976746343069529 0 0 0 0
30313806 -0.3948928661608929 0.0710503194399633 0.08938904096162731 0.02984079667455901 0 0 0 0
30346752 -0.39462676807876873 0.07110956824006918 0.08942549540696074 0.029874705507145848 0 0 0 0
30379698 -0.3949524218190904 0.07132697861786454 0.08943261671149248 0.029878917295460727 0 0 0 0
30412644 -0.3946253551612646 0.07101584961521386 0.08943170681323002 0.02992143150198234 0 0 0 0
30445590 -0.39486377962681585 0.071173707218005 0.08948289084250714 0.02991052591401367 0 0 0 0
30478536 -0.394638032396587 0.07115187020044549 0.08947633926400243 0.029905050371906102 0 0 0 0
30511482 -0.39484203073807106 0.07134848480413417 0.08951874230684383 0.029989751328604135 0 0 0 0
30544428 -0.3946214510541226 0.07141120407345566 0.08955014336046993 0.03002934962073638 0 0 0 0
30577374 -0.39456835787414873 0.07182798956583862 0.08952748585663828 0.030085945519279497 0 0 0 0
30610320 -0.394771053916336 0.07172402031981047 0.08955901389887616 0.030095441283255992 0 0 0 0
30643266 -0.3947742428041055 0.07195044621611958 0.08956020096188692 0.03005464985999291 0 0 0 0
30676212 -0.3945428286186582 0.07171515398027663 0.08960405637757686 0.030132992379660665 0 0 0 0
30709158 -0.39459998889148357 0.07186700614769186 0.08962910776852938 0.03013692717886745 0 0 0 0
30742104 -0.39474649326600436 0.07175399300665782 0.08967157924388122 0.030148534344751073 0 0 0 0
30775050 -0.3947920648986975 0.07184971730549479 0.08968176413004182 0.0302239657226033 0 0 0 0
30807996 -0.39462581818616177 0.07214410544351997 0.08975392886023693 0.030242675896841043 0 0 0 0
30840942 -0.39438353994604075 0.07242512995965997 0.08974857529526645 0.030248128831675002 0 0 0 0
30873888 -0.3943819507107573 0.07241490682424574 0.08974844733277822 0.030297799588097564 0 0 0 0
30906834 -0.39454526951893754 0.0724915114555165 0.08974499330674553 0.030291585732640916 0 0 0 0
30939780 -0.39457330218099723 0.07235845161688305 0.08983825551794801 0.030300264106910373 0 0 0 0
30972726 -0.39451672160861406 0.07245312344720649 0.08983366615401694 0.030390244511893524 0 0 0 0
31005672 -0.3942775926443615 0.0726749973312978 0.08990095174783636 0.030377156800995286 0 0 0 0
31038618 -0.3945390821754049 0.07276147574071344 0.08985044623617815 0.030468299994434272 0 0 0 0
31071564 -0.39425538385002956 0.07241982400744197 0.08978860194527509 0.03041196639020924 0 0 0 0
31104510 -0.3944287134041858 0.0726292787010198 0.08991188291937566 0.030448656415552507 0 0 0 0
31137456 -0.39419918903368684 0.07272359129551104 0.0899513596010968 0.03054094924848566 0 0 0 0
31170402 -0.3944338848401901 0.07312533698245678 0.08997265458619375 0.030517711590910393 0 0 0 0
31203348 -0.3945226337785194 0.07320204729053553 0.08994080320361149 0.030585627967055457 0 0 0 0
31236294 -0.39453182025446515 0.07307716360015543 0.08998863011911203 0.03052583322875258 0 0 0 0
31269240 -0.39421993355246265 0.07301120522805714 0.09004325563322045 0.03061010865404494 0 0 0 0
31302186 -0.3941777490980412 0.07333339707380654 0.08999369514746712 0.03065892434026003 0 0 0 0
31335132 -0.39434855257094426 0.07340026938766743 0.09008145903579604 0.030625426063503894 0 0 0 0
31368078 -0.39473183958583313 0.07335795819967741 0.09013963671680607 0.030670571980227206 0 0 0 0
31401024 -0.3943527759260441 0.07327695718195223 0.09008647208838154 0.030726688087639377 0 0 0 0
31433970 -0.39423064548263054 0.0736771320806141 0.09008350991258687 0.030743628369675487 0 0 0 0
31466916 -0.39413226960507486 0.07354179696599164 0.09009716532373968 0.030742320677596875 0 0 0 0
31499862 -0.3941702930150404 0.07361036658563413 0.09021403114494182 0.030704730687605826 0 0 0 0
31532808 -0.3943219330385111 0.07354434686823892 0.09018906657049133 0.030777848038669033 0 0 0 0
31565754 -0.39409681232350785 0.07399948218777588 0.0902481365405031 0.030804589892311007 0 0 0 0
31598700 -0.3937648441383428 0.07381397197958314 0.09024417814875023 0.030819697087305965 0 0 0 0
31631646 -0.3939621782428715 0.0738721108629468 0.09027046595657652 0.030791838581980147 0 0 0 0
31664592 -0.393845507603216 0.07383702930138192 0.09031323742131463 0.03082946778636403 0 0 0 0
31697538 -0.39382043790759963 0.0741036612751347 0.09029695784504728 0.03084365973263302 0 0 0 0
31730484 -0.3939434780907164 0.07440910494981524 0.09033151155008688 0.03090531923469116 0 0 0 0
31763430 -0.39396151882469616 0.07423846191716137 0.09034813413898524 0.031030541740754366 0 0 0 0
31796376 -0.39365125586795563 0.07426814024614624 0.090386335051778 0.030996810168017575 0 0 0 0
31829322 -0.3939766631455308 0.07430141459936725 0.09041507576715292 0.03098284480489507 0 0 0 0
31862268 -0.39371614430238155 0.07461590024084361 0.09048090824608283 0.031073036498942577 0 0 0 0
31895214 -0.3936758176346272 0.07456326813994082 0.09038222735733645 0.031044837360085283 0 0 0 0
31928160 -0.3937881739115818 0.0743785152183464 0.09045118243569177 0.03107625157536149 0 0 0 0
31961106 -0.3938560658743693 0.07469670047070298 0.09044776224681488 0.031141440539141804 0 0 0 0
31994052 -0.39389804606655776 0.07494459028795904 0.09047404284405243 0.031157229259498074 0 0 0 0
32026998 -0.3936285865239923 0.07462835300532554 0.09049353609843239 0.03112333321750951 0 0 0 0
32059944 -0.39380443934249815 0.07478230559268477 0.09056117556712373 0.031179725055500578 0 0 0 0
32092890 -0.39377294673307717 0.0749737880817805 0.09061126992683516 0.031242107097933475 0 0 0 0
32125836 -0.3936894615244297 0.07519757247076032 0.0905944863297327 0.03120087034897898 0 0 0 0
32158782 -0.39374266976819655 0.07494486090923665 0.09060961515485645 0.031289005030641075 0 0 0 0
32191728 -0.3935055910808907 0.07508013347282295 0.09060557896438312 0.031286109958063094 0 0 0 0
32224674 -0.3934106819747506 0.07509611480422748 0.09062375527429734 0.03127613768394296 0 0 0 0
32257620 -0.39357250318086506 0.07557951763845637 0.09074075766607727 0.03138280127248148 0 0 0 0
32290566 -0.39342433860824005 0.07529040236350772 0.0907067539150203 0.03138419567623477 0 0 0 0
32323512 -0.3935778104183736 0.07550705187084267 0.09068959570871679 0.031355854297001294 0 0 0 0
32356458 -0.3937788419987757 0.07550986817934448 0.09076080225027076 0.03139338051894317 0 0 0 0
32389404 -0.3935131913226744 0.07589126049913021 0.09081265395796385 0.031450833077469514 0 0 0 0
32422350 -0.393423448989068 0.075800012862658 0.09079354722310114 0.031448454775677655 0 0 0 0
32455296 -0.39345406053663046 0.0757213233210886 0.09083194504539548 0.03151077598458794 0 0 0 0
32488242 -0.3935513864173444 0.07561508775805711 0.09082651526545729 0.03148804232076019 0 0 0 0
32521188 -0.39323994073280705 0.07579987935285441 0.09082828210323089 0.0315281577527212 0 0 0 0
32554134 -0.39365221018784546 0.0759402073422951 0.09087484834375426 0.03151605222490431 0 0 0 0
32587080 -0.3935009294879814 0.07599052540518893 0.09096457096571185 0.03158828174146244 0 0 0 0
32620026 -0.3932474478883806 0.07622381382012285 0.09096964027077074 0.03164796796746475 0 0 0 0
32652972 -0.39343949269893486 0.07647371125701419 0.09096816494697296 0.031637859901131396 0 0 0 0
32685918 -0.39326005864240016 0.07621579196397057 0.09098674583866058 0.031660728496249936 0 0 0 0
32718864 -0.39329415888845515 0.07624025309927576 0.09096136944883623 0.03169301487005588 0 0 0 0
32751810 -0.3933242297837588 0.07628577545066402 0.09100545553644486 0.0316522692705446 0 0 0 0
32784756 -0.3933803567733659 0.07651493247707486 0.09109703077574656 0.03174120208059696 0 0 0 0
32817702 -0.39321312842576017 0.07660369544050163 0.09107226097135189 0.031744018522470344 0 0 0 0
32850648 -0.39313144648302084 0.07661028865802468 0.09108668124098375 0.03177580243642935 0 0 0 0
32883594 -0.39317814075833823 0.07649404383504348 0.09109656636948513 0.031802939032553226 0 0 0 0
32916540 -0.3931370248653748 0.07644899353680323 0.09113479130960399 0.03183438964786462 0 0 0 0
32949486 -0.39335444412121917 0.07680153420538363 0.0911837582082865 0.03180501003633767 0 0 0 0
32982432 -0.3930155754409695 0.07679990335550035 0.09120987644336694 0.03187078727175539 0 0 0 0
33015378 -0.3931135061681669 0.07712512404203159 0.09127875873739433 0.031906971729918604 0 0 0 0
33048324 -0.3929512587781615 0.07703262270840368 0.09121131233031833 0.03193058577324458 0 0 0 0
33081270 -0.39303649481379344 0.07694200498161798 0.09124201162458268 0.031929335365214945 0 0 0 0
33114216 -0.3928171532100996 0.07714797015045281 0.09123005043159592 0.031924345206278106 0 0 0 0
33147162 -0.39329704561768736 0.07710172751961884 0.09127278302170685 0.03197185255557377 0 0 0 0
33180108 -0.3931309133152601 0.07751198001839844 0.09141214057407453 0.03203052792441826 0 0 0 0
33213054 -0.3930012652050766 0.07745866644868084 0.09130161959760869 0.03203306882994738 0 0 0 0
33246000 -0.3928261479671196 0.07756419747054479 0.09136097476213854 0.03203015639966131 0 0 0 0
33278946 -0.39312654681321585 0.07754378548091218 0.09140622102425901 0.03205411644507982 0 0 0 0
33311892 -0.3931330194660625 0.07764643012393861 0.09140328947441648 0.03208539225561487 0 0 0 0
33344838 -0.3928175569611699 0.07746997332420275 0.09138159996200354 0.03213451561569492 0 0 0 0
33377784 -0.3928386066174312 0.07752863057874353 0.09145626743357455 0.03213203237553373 0 0 0 0
33410730 -0.3929312566190995 0.0775616281568754 0.09150036935975084 0.03210291839115086 0 0 0 0
33443676 -0.39284281214330186 0.07782914384634339 0.0915378710177044 0.03220646609147442 0 0 0 0
33476622 -0.3926843030526689 0.0781556910956065 0.09148037847799192 0.0322385985204563 0 0 0 0
33509568 -0.3925854258198253 0.07838567221516686 0.09158503910510016 0.03218393817465122 0 0 0 0
33542514 -0.3928781492071175 0.07817850204241869 0.0916208903919684 0.03226146996251083 0 0 0 0
33575460 -0.39282538867486305 0.07798486642843257 0.09161531663532808 0.032246031730464725 0 0 0 0
33608406 -0.392986377549475 0.07805405363740693 0.09163431843589262 0.032279300730525096 0 0 0 0
33641352 -0.39254800991879873 0.07828733426255652 0.09169724890691443 0.03233375010991431 0 0 0 0
33674298 -0.39264770261980386 0.07865917060849986 0.09166869450544698 0.032336008479193386 0 0 0 0
33707244 -0.39262080024988166 0.07846471528524696 0.0916270824820616 0.032371045067949585 0 0 0 0
33740190 -0.3925002644579836 0.07835914069491062 0.09170686294866454 0.032308685381906316 0 0 0 0
33773136 -0.39257034623746784 0.07847795526564219 0.09168282511978264 0.03239195965490567 0 0 0 0
33806082 -0.39266724156494337 0.07846676164023471 0.09179334801108736 0.032450266007823726 0 0 0 0
33839028 -0.3925608412678506 0.07907837175752332 0.09182125510511491 0.032418064859866966 0 0 0 0
33871974 -0.39255596429041023 0.07894761296025452 0.09173250714751041 0.032497252976145065 0 0 0 0
33904920 -0.39250355433572576 0.0787568918809639 0.09185638680608597 0.03242150489827613 0 0 0 0
33937866 -0.3923680305065585 0.07901564644502299 0.09181159862705539 0.03243336303330543 0 0 0 0
33970812 -0.392351603316786 0.0790213519378293 0.09180641981081483 0.03255035319755607 0 0 0 0
34003758 -0.3924926741655438 0.0793406956135327 0.09194318923087914 0.03252536840634327 0 0 0 0
34036704 -0.3925437925314587 0.0792990439501961 0.09187576586426814 0.032554097278654555 0 0 0 0
34069650 -0.39242046249789786 0.0791199795271968 0.09190734424660243 0.032605535432607864 0 0 0 0
34102596 -0.3924127618267419 0.07933512215658764 0.09194437249058143 0.03259431875395455 0 0 0 0
34135542 -0.39243852885266123 0.07917367689066022 0.0919804348207118 0.032576712814820094 0 0 0 0
34168488 -0.39268629511914027 0.07949952383288007 0.09202672901948712 0.03267074381847704 0 0 0 0
34201434 -0.3924864695791796 0.0794101435625277 0.09210516158487052 0.03264233567022943 0 0 0 0
34234380 -0.3922273377555284 0.07989119125116052 0.09210263578148169 0.032637949948259755 0 0 0 0
34267326 -0.3924801751419406 0.07980860749160794 0.09204633396199553 0.032712578025752365 0 0 0 0
34300272 -0.39253904537912976 0.07967278886747323 0.09207755338769708 0.0327456946102251 0 0 0 0
34333218 -0.3923566438007284 0.08001628772606455 0.09212530805409239 0.03274876165026594 0 0 0 0
34366164 -0.3921607134961605 0.08012255193671196 0.09216803024103604 0.032717473977919784 0 0 0 0
34399110 -0.39206256636312165 0.08019790113103818 0.09219958278518924 0.032785790526058005 0 0 0 0
34432056 -0.3922499031200171 0.07988231584019682 0.09215773833700794 0.03284432995455193 0 0 0 0
34465002 -0.39228091609486615 0.08005367562965257 0.09220540160619554 0.03280416673829109 0 0 0 0
34497948 -0.3921232612333906 0.08014957017859414 0.09226491652421488 0.0328663806335151 0 0 0 0
34530894 -0.3921671379320279 0.08025539967715861 0.09225631914432596 0.032896637455170435 0 0 0 0
34563840 -0.3921993053224213 0.08046531938601877 0.09226846079415627 0.03289238859921352 0 0 0 0
34596786 -0.39192834361247786 0.08033433208860237 0.09227347059224632 0.03291728331988331 0 0 0 0
34629732 -0.39205898255240307 0.0806846227062487 0.09232271617564006 0.03292811829382886 0 0 0 0
34662678 -0.39213446609864955 0.0804202932167416 0.09229584025865722 0.03301344885069011 0 0 0 0
34695624 -0.39216586523500857 0.0805683020932251 0.09234825708906905 0.032955660893681696 0 0 0 0
34728570 -0.3921453630278974 0.0805150954831307 0.09245256520471912 0.03298653824315822 0 0 0 0
34761516 -0.3918789557002474 0.08065984141806838 0.09234734398803733 0.033055348461043896 0 0 0 0
34794462 -0.391933401573175 0.08089931335607733 0.09240983775147543 0.032996686315245376 0 0 0 0
34827408 -0.3920578701825488 0.08080485021378772 0.09241665330879827 0.033075160571051164 0 0 0 0
34860354 -0.39208552537816654 0.08077574746711048 0.09242997388784661 0.03305575017186995 0 0 0 0
34893300 -0.39221580161080766 0.08082203868058277 0.09246243053953926 0.033081711579755146 0 0 0 0
34926246 -0.3919468692321625 0.08096845584776917 0.09242580584842883 0.03310258284454237 0 0 0 0
34959192 -0.3921301285302917 0.08107122745791624 0.0925426550601629 0.03315274514621631 0 0 0 0
34992138 -0.3919165650534263 0.08149776006387836 0.09254711772881019 0.03314743287220617 0 0 0 0
35025084 -0.391929624358043 0.08115971344935342 0.09253613769117033 0.0333031138132264 0 0 0 0
35058030 -0.3918052412314565 0.08138727971630984 0.09245895435455961 0.0332001524931933 0 0 0 0
35090976 -0.39196875653727026 0.0813726477724559 0.09260759485648566 0.03328224321023631 0 0 0 0
35123922 -0.3917647461857213 0.08159016566825303 0.09256382784762665 0.03325978646089716 0 0 0 0
35156868 -0.39174135726947557 0.0819441898762305 0.09263770726166587 0.03317331545295672 0 0 0 0
35189814 -0.3918569279388641 0.08175565625738909 0.0926085344202469 0.03325802530547465 0 0 0 0
35222760 -0.39188104786652544 0.0816183782445687 0.09268814194426367 0.0333610137614443 0 0 0 0
35255706 -0.3918541089844314 0.08152306552852324 0.0926511263602611 0.03326789434072173 0 0 0 0
35288652 -0.39168646201750834 0.08177573562708894 0.09269063242974974 0.03330042135891541 0 0 0 0
35321598 -0.3917205368498469 0.08211016037915171 0.09274161027735543 0.03335037148340256 0 0 0 0
35354544 -0.3919641429733085 0.08183599319815262 0.09279718164045568 0.03336074838046527 0 0 0 0
35387490 -0.3917309138771217 0.08212553030241904 0.09274442018408291 0.03341960150773975 0 0 0 0
35420436 -0.3914757848338032 0.0821308303450565 0.09277112115597537 0.03345305670471089 0 0 0 0
35453382 -0.3915256511784402 0.08258259180407912 0.09283058255077925 0.033418707329264254 0 0 0 0
35486328 -0.39196687587231377 0.08212024937018497 0.09282199506815156 0.033470820201107365 0 0 0 0
35519274 -0.3917420121099673 0.08217300470161369 0.09284790862696828 0.03352203884604817 0 0 0 0
35552220 -0.39165764358357325 0.0824390725037864 0.09291852240815326 0.03352848527150418 0 0 0 0
35585166 -0.39155155592288415 0.08265513365759748 0.09282209450538977 0.033494906127414376 0 0 0 0
35618112 -0.3916831691466927 0.08268059439046245 0.09288286093718973 0.033523736229566614 0 0 0 0
35651058 -0.3918903810855068 0.08255988035993579 0.09290009889239743 0.033569002492969235 0 0 0 0
35684004 -0.391736923822829 0.0825338079860132 0.09296249587507081 0.03365228769104243 0 0 0 0
35716950 -0.3912779722651741 0.08276804396958717 0.09288573158233296 0.03367446828782717 0 0 0 0
35749896 -0.3913204683416538 0.08302741906866905 0.09292497675790275 0.033611787053025935 0 0 0 0
35782842 -0.39170349696714174 0.08280936819842803 0.09301824746124383 0.033649351207127656 0 0 0 0
35815788 -0.3915811942518226 0.08306182083434209 0.09293939146113381 0.03369104019701105 0 0 0 0
35848734 -0.3915404918351473 0.08293351437953325 0.09299722284237126 0.03371049866878293 0 0 0 0
35881680 -0.39155241167784627 0.08329031681950559 0.09303795813596871 0.033742623916047876 0 0 0 0
35914626 -0.39140052357416033 0.08358017330141691 0.09309132451562924 0.03372797318516334 0 0 0 0
35947572 -0.39144640818063947 0.08351112615464508 0.09303631483274026 0.03377752211287211 0 0 0 0
35980518 -0.391258175121208 0.08330228546383975 0.09307127945552923 0.03380944201051604 0 0 0 0
36013464 -0.39144091516664503 0.08340808635755466 0.09312744164660954 0.0337662292727729 0 0 0 0
36046410 -0.3912819268596253 0.08331156819713015 0.09307344944877283 0.03384724359320613 0 0 0 0
36079356 -0.39143677680952904 0.08362828159206491 0.09320378875646763 0.033823574434594675 0 0 0 0
36112302 -0.39084386415722566 0.08358833351624911 0.09310187120328263 0.033898260052775075 0 0 0 0
36145248 -0.3909048637909659 0.08376363918838643 0.0931862711083795 0.03392622969205192 0 0 0 0
36178194 -0.39122641823069687 0.08385970291374542 0.09318977659604359 0.033948246767062776 0 0 0 0
36211140 -0.39140944583932946 0.08399410054062095 0.09325689336495403 0.03393485696074182 0 0 0 0
36244086 -0.3911372956346303 0.08387285974988411 0.09321201944536608 0.03398573060602847 0 0 0 0
36277032 -0.39158695319229825 0.08387611808885469 0.09332770551461188 0.034004254010028954 0 0 0 0
36309978 -0.39112832811946324 0.08440405638432211 0.09331136499308389 0.034035412778524086 0 0 0 0
36342924 -0.39133919477849627 0.08401969295533351 0.09328639043931844 0.034050506691332354 0 0 0 0
36375870 -0.39136405546351966 0.08443046326653283 0.09330640209885156 0.03401031678317796 0 0 0 0
36408816 -0.3912547204442192 0.08430697893277973 0.09332272397079436 0.03411933934503643 0 0 0 0
36441762 -0.3905727992775051 0.08426159635094324 0.09330888403777787 0.03416686422298791 0 0 0 0
36474708 -0.3909350177025148 0.08471597105220832 0.09342446180874225 0.034150346910052296 0 0 0 0
36507654 -0.3912660096054441 0.08430791846400354 0.09333511778041374 0.03419328667008417 0 0 0 0
36540600 -0.3907579834626345 0.08432515312416773 0.09338700296081737 0.03417592208586335 0 0 0 0
36573546 -0.3910847230191327 0.08439985649926925 0.09345682984351222 0.03423708296739445 0 0 0 0
36606492 -0.39093991380354387 0.08455251042128531 0.09342255672708859 0.03423981257710946 0 0 0 0
36639438 -0.39123933260171284 0.0845768873448403 0.09351141373063285 0.034269318164462687 0 0 0 0
36672384 -0.39064076830092703 0.0848925444010165 0.09351424827684121 0.034334251106117555 0 0 0 0
36705330 -0.39106989193842806 0.08536829372710178 0.0935546033821493 0.03431485871563094 0 0 0 0
36738276 -0.3907037916847568 0.08489208800912429 0.0935001682477629 0.03435862928253037 0 0 0 0
36771222 -0.3909813373083899 0.0852215065344584 0.09351619853823866 0.0343349560438252 0 0 0 0
36804168 -0.39089462819702164 0.08507967918263147 0.09353876898825733 0.03436087699372512 0 0 0 0
36837114 -0.3907922513311654 0.08545461379637209 0.09358600871256706 0.03443092619474628 0 0 0 0
36870060 -0.39080933695864273 0.08504402306139056 0.09356932785535609 0.03445324795124192 0 0 0 0
36903006 -0.39092830842741166 0.08546855401966603 0.09361301279261008 0.034452703087028934 0 0 0 0
36935952 -0.3907605576692337 0.08565205991519921 0.09368767334360097 0.03447585314440353 0 0 0 0
36968898 -0.39074122012421525 0.08559098138798867 0.09364420896413955 0.034517146575284145 0 0 0 0
37001844 -0.39066127000314566 0.08587476848422157 0.09371292756766389 0.03448900618564459 0 0 0 0
37034790 -0.39078834103817095 0.08567958553270213 0.09369228467693609 0.03458171725719421 0 0 0 0
37067736 -0.39074536347513145 0.08566694925687893 0.09366353923711072 0.03455352613588709 0 0 0 0
37100682 -0.39103390681019423 0.08580521467265036 0.09382693497309053 0.03461165577222173 0 0 0 0
37133628 -0.39048546334482737 0.08606158823993212 0.09372781834496188 0.03464125626949275 0 0 0 0
37166574 -0.3907545869777085 0.08595661086477731 0.09375902821956172 0.03470795437153307 0 0 0 0
37199520 -0.3908885598741343 0.08628931630395409 0.09381570533936208 0.03461419096395969 0 0 0 0
37232466 -0.3907934816884561 0.08615698102886246 0.09386745350627909 0.03473333708667628 0 0 0 0
37265412 -0.39025178216818496 0.08636379238028409 0.0937997001583561 0.034749831532519815 0 0 0 0
37298358 -0.3907440029981132 0.08662926440254223 0.09386476298739319 0.034719993904361986 0 0 0 0
37331304 -0.3905322794909276 0.08657201542117646 0.09392013356309728 0.034752029830595256 0 0 0 0
37364250 -0.39070926962935615 0.0865416971723576 0.09391142259325878 0.034788791922664125 0 0 0 0
37397196 -0.3907525836464017 0.08632789112260408 0.09397868255008912 0.034831869448292134 0 0 0 0
37430142 -0.3902761315238282 0.08678655590719908 0.09392800272382038 0.03488385179064476 0 0 0 0
37463088 -0.39042420267975936 0.08686942721809521 0.09394760468934034 0.03485165830660488 0 0 0 0
37496034 -0.3906827013293689 0.0869272849724725 0.09395297137113309 0.034934409582437945 0 0 0 0
37528980 -0.3905508163134324 0.08685556829784226 0.09401468503009919 0.03494696679595515 0 0 0 0
37561926 -0.3904314234072289 0.08675742087504201 0.09403441301495906 0.03491955434689403 0 0 0 0
37594872 -0.3904326470801102 0.08687400906225563 0.09397857372221627 0.03495275773155187 0 0 0 0
37627818 -0.3905353291886345 0.08698445777053986 0.09414178498853863 0.0350215284385375 0 0 0 0
37660764 -0.39032494991331823 0.08741737925444942 0.09413329289223017 0.03497192465271983 0 0 0 0
37693710 -0.39030808772497744 0.08716268943721102 0.09405748010742232 0.03503014945420237 0 0 0 0
37726656 -0.3904945403990585 0.08719186906167556 0.09415394776698778 0.03506471593251765 0 0 0 0
37759602 -0.39034313386779096 0.08733182749043471 0.09414353931724435 0.035088880845491374 0 0 0 0
37792548 -0.3902613983375061 0.08726211526794084 0.09408775081772386 0.03511499849386342 0 0 0 0
37825494 -0.3903397608258693 0.08765664739360153 0.09426309943186938 0.03517747388857544 0 0 0 0
37858440 -0.3902584791932774 0.0877214674517107 0.09416260842314146 0.035166007840536334 0 0 0 0
37891386 -0.39044379987934924 0.08795539496981614 0.09426356744749084 0.035151330066376794 0 0 0 0
37924332 -0.39020986514729106 0.08771375361068225 0.09426471281571794 0.03520093287950042 0 0 0 0
37957278 -0.3903363459263849 0.08792027497090474 0.09425506092613624 0.03524474716122798 0 0 0 0
37990224 -0.39033171424750707 0.08781862909207543 0.09431672604269659 0.035283809683203285 0 0 0 0
38023170 -0.3901349037799978 0.08786989776638204 0.09435904991196543 0.03530116087879975 0 0 0 0
38056116 -0.39006938085797865 0.08838909121009035 0.09439930642638858 0.035324125835607505 0 0 0 0
38089062 -0.39001552756198304 0.08819403618195518 0.09432908324575301 0.03532020749467081 0 0 0 0
38122008 -0.39004630830340237 0.08836919782043114 0.0943854400151282 0.03532561206499051 0 0 0 0
38154954 -0.39008140678805986 0.08808152647205053 0.09436283857515365 0.03542715000353962 0 0 0 0
38187900 -0.39019877454616103 0.08827146640803447 0.09443791747800556 0.03544332988392472 0 0 0 0
38220846 -0.3899641506553544 0.08822918942021002 0.09441825629762207 0.035464772800158646 0 0 0 0
38253792 -0.39014475502879226 0.08825566403542268 0.09444497118733547 0.035485534368348365 0 0 0 0
38286738 -0.39007795595410133 0.08864207832231547 0.09451693382112362 0.03548511086924032 0 0 0 0
38319684 -0.3900281558618007 0.08872718281316905 0.09454493998302846 0.03548304074356221 0 0 0 0
38352630 -0.39016273254509665 0.08902906170592849 0.09456157075654027 0.03547402408156819 0 0 0 0
38385576 -0.3901234804219796 0.0886174348309736 0.09455320178380223 0.03556387189539031 0 0 0 0
38418522 -0.38994216906832707 0.08871170776621905 0.09458681686319725 0.03555628816215532 0 0 0 0
38451468 -0.3897600010896024 0.08898327287901765 0.09458973974565801 0.0356089652334638 0 0 0 0
38484414 -0.38990474501324707 0.08915328041935636 0.09462490491031977 0.0356065570750012 0 0 0 0
38517360 -0.3898842197979714 0.08916511638784548 0.09470212771278418 0.0356314775977502 0 0 0 0
38550306 -0.389704043765655 0.08898420550578405 0.09463828975213986 0.03565054443071916 0 0 0 0
38583252 -0.389480571810231 0.0894844033619254 0.09469462117007497 0.03569651892579002 0 0 0 0
38616198 -0.39001088294440545 0.08959550762920915 0.09476280188415426 0.03573650584020701 0 0 0 0
38649144 -0.3898585000995261 0.08926120117142611 0.09475019038961997 0.035774461901515044 0 0 0 0
38682090 -0.38991091999343985 0.08948448878399852 0.09473000911199324 0.035723889403445445 0 0 0 0
38715036 -0.3898693891416132 0.0895942391732829 0.09480524891535756 0.035862641387983785 0 0 0 0
38747982 -0.38949811963726105 0.08971672657032338 0.09479542750815441 0.035890976140673714 0 0 0 0
38780928 -0.389755807567471 0.09002028138102104 0.09484938247113271 0.03585723373277876 0 0 0 0
38813874 -0.38973544077648753 0.08969617847760006 0.09486213385522645 0.035920424637988384 0 0 0 0
38846820 -0.38974842031566376 0.08991501123357071 0.0948979191540041 0.035899964093379144 0 0 0 0
38879766 -0.3897242633540221 0.09004167233177358 0.0949140330129935 0.03592705736413663 0 0 0 0
38912712 -0.3897376892825824 0.08993924823450788 0.09500029981167755 0.035949931157059384 0 0 0 0
38945658 -0.38953553468029806 0.09027638527932312 0.09497395393799171 0.03593600579898721 0 0 0 0
38978604 -0.3894868769057044 0.09000035560358169 0.09492659979461367 0.03605099751419952 0 0 0 0
39011550 -0.3895948121451298 0.09016379708735967 0.09499636182331021 0.036019725469838594 0 0 0 0
39044496 -0.38953390758573114 0.09031976445523507 0.09504212850002682 0.03605969418598276 0 0 0 0
39077442 -0.3895243774207586 0.09063915837313086 0.09509649357068033 0.03604812716467094 0 0 0 0
39110388 -0.3893671913759083 0.0902552868072315 0.09498532351881477 0.03615051693245812 0 0 0 0
39143334 -0.38942710053461826 0.09032510154411456 0.09501785751263378 0.03612289323076201 0 0 0 0
39176280 -0.3894260696112603 0.09060745124495082 0.09518165306164356 0.03620175576439562 0 0 0 0
39209226 -0.38934508863138584 0.09089390002798724 0.09514649368587202 0.03614832926322856 0 0 0 0
39242172 -0.38930952377300293 0.09063807917238452 0.095060848331571 0.03625361474405331 0 0 0 0
39275118 -0.38954583275698296 0.09097597537356857 0.0951706599994091 0.03619123164012553 0 0 0 0
39308064 -0.38938737155387915 0.0906916757979753 0.09513684520048676 0.036266276845503216 0 0 0 0
39341010 -0.38928080259742254 0.090823575417029 0.09524279937165103 0.03631941510717695 0 0 0 0
39373956 -0.38928696410223745 0.09126348183842879 0.0953579299555301 0.03629576077030227 0 0 0 0
39406902 -0.38924687658652146 0.09136512790783606 0.09532699440763169 0.036312898584190706 0 0 0 0
39439848 -0.38926154419274966 0.09113656740508141 0.0952407013866669 0.03640884834464832 0 0 0 0
39472794 -0.38910486104522607 0.09126802912244679 0.09530644540168125 0.03635997543936008 0 0 0 0
39505740 -0.3892629614203711 0.0910662373519528 0.0952655733697479 0.036401137722705465 0 0 0 0
39538686 -0.3891918556978033 0.09176470239726116 0.09543070058753801 0.03643216140033753 0 0 0 0
39571632 -0.3889041981708043 0.09171690730612805 0.09538941217252356 0.03644694387588671 0 0 0 0
39604578 -0.38924274341385434 0.09169020789988283 0.09544430281831814 0.03646403262273852 0 0 0 0
39637524 -0.3888864883415885 0.09155114501042858 0.09540818636109082 0.036491374944386076 0 0 0 0
39670470 -0.3890951216944139 0.0916400325229029 0.09542391072698175 0.03649598283025803 0 0 0 0
39703416 -0.3891907159166784 0.09184333781845722 0.09557756442402476 0.036603877428286954 0 0 0 0
39736362 -0.3886215771250758 0.0919870786700343 0.09546982090283657 0.03657940331844384 0 0 0 0
39769308 -0.38898814503360324 0.09179525532451963 0.0955253423774526 0.03662137199235003 0 0 0 0
39802254 -0.38924683366154145 0.09222879226821001 0.09564619098568439 0.036604793401095057 0 0 0 0
39835200 -0.3890817470610944 0.09187339555515792 0.09555881721222821 0.036672347551577944 0 0 0 0
39868146 -0.3891207260840683 0.09242495940339923 0.09572813397171358 0.03664016878423002 0 0 0 0
39901092 -0.3887247444006248 0.09238100058275829 0.09559682453596766 0.036690200633164805 0 0 0 0
39934038 -0.38885737149330446 0.09216248578995251 0.09563943705538486 0.036719484505049575 0 0 0 0
39966984 -0.38892471439303167 0.09241834606508144 0.09570637363623405 0.036714384395819255 0 0 0 0
39999930 -0.38886605054163664 0.09247609461564463 0.09565542993508618 0.03673949478695813 0 0 0 0
