# HZ S RI R 50
300000 -0.5617487782041191 -0.010583292717109187 -0.032657698421312116 -0.00970018086220326 0 0 0 0
332946 -0.5454938116329576 0.05559401974064948 -0.07945347256513906 -0.04349794874327425 0 0 0 0
365892 -0.5062301737346757 0.0836380531297515 -0.12264104427977865 -0.04170287411421947 0 0 0 0
398838 -0.4758229426363651 0.08694810115655469 -0.14913117699813766 -0.027060759911220342 0 0 0 0
431784 -0.4741015104095989 0.0644274228448118 -0.15764596833425779 -0.13157272678121215 0 0 0 0
464730 -0.4574355906479505 0.061231311670156885 -0.17602595288176107 -0.12312228689522252 0 0 0 0
497676 -0.45162490878616374 0.05503312445596306 -0.1889546478702156 -0.1148357274005011 0 0 0 0
530622 -0.444925250327349 0.050552652660488154 -0.1981384591899475 -0.10684915777894488 0 0 0 0
563568 -0.44075609606935784 0.04739981713750314 -0.2052231773076717 -0.09959096938566174 0 0 0 0
596514 -0.4368183575412591 0.044539868284825174 -0.2105308879020174 -0.09347022883051796 0 0 0 0
629460 -0.4340970838946656 0.042012153469452196 -0.2145791786724483 -0.08762026544153624 0 0 0 0
662406 -0.4317666740892273 0.03983830957612123 -0.21793831078832276 -0.08284117869777573 0 0 0 0
695352 -0.42945450469133406 0.038032293661115095 -0.2206378411544698 -0.07832818045897823 0 0 0 0
728298 -0.4279095822034424 0.03601676495139607 -0.2228690860686913 -0.07445417939676341 0 0 0 0
761244 -0.4261799630319546 0.034708124178234184 -0.22463746734615447 -0.07077696131213047 0 0 0 0
794190 -0.42464030362993643 0.03319276237605728 -0.22603932821126088 -0.06725927457762472 0 0 0 0
827136 -0.4234532022886517 0.031726472227040864 -0.22750857589531995 -0.06433522926722676 0 0 0 0
860082 -0.42251161413687166 0.030507513024998198 -0.22871995684370733 -0.06152896802816291 0 0 0 0
893028 -0.4212538389239843 0.02948198093659567 -0.22959702482824879 -0.058943876274725845 0 0 0 0
925974 -0.4203180416274991 0.02849654085510763 -0.23035744710071923 -0.056575842453193 0 0 0 0
958920 -0.4195454784051269 0.02699574899600116 -0.2312006950386196 -0.05459811596089557 0 0 0 0
991866 -0.4189357615981977 0.026156438003151542 -0.23173149182308686 -0.05244039033470132 0 0 0 0
1024812 -0.4183001732779632 0.02518886095648713 -0.23223615492242922 -0.05071491179351292 0 0 0 0
1057758 -0.41773283854159216 0.024270357555384644 -0.23289576875875548 -0.04890693172993623 0 0 0 0
1090704 -0.41769549746161394 0.0235157938298384 -0.23338863993154807 -0.04713285895799964 0 0 0 0
1123650 -0.41724969922820254 0.022927854607210706 -0.23376240314425828 -0.04578548748474113 0 0 0 0
1156596 -0.41664763822146134 0.02233529574156229 -0.23423899876552012 -0.04414381048582354 0 0 0 0
1189542 -0.4159084399863769 0.02155304786371143 -0.23445216350628187 -0.04295977189536675 0 0 0 0
1222488 -0.41504369546671216 0.021165760457632656 -0.23478255915115356 -0.04153038431936733 0 0 0 0
1255434 -0.41564119349950984 0.02015259410308894 -0.23520291272630844 -0.040403089012102204 0 0 0 0
1288380 -0.4153921395432844 0.019511462336333708 -0.23542262655838836 -0.03926776975364205 0 0 0 0
1321326 -0.41463783534284293 0.019192530672071426 -0.23559706436693995 -0.038058240487304267 0 0 0 0
1354272 -0.4147828055450231 0.019136441630748884 -0.2358255081384084 -0.037061432722657245 0 0 0 0
1387218 -0.41412483192934657 0.018283212900743098 -0.23596852120554593 -0.03582540559401503 0 0 0 0
1420164 -0.414025418089064 0.01802273548305728 -0.2361157037919399 -0.03486368114604145 0 0 0 0
1453110 -0.41409908750126606 0.017099196043883384 -0.23650724576729443 -0.03412850290844499 0 0 0 0
1486056 -0.4145847547164427 0.016633841643314624 -0.23667114858248248 -0.0333011482383072 0 0 0 0
1519002 -0.4143558636914162 0.016507605107007987 -0.23686755297249806 -0.03228042202373299 0 0 0 0
1551948 -0.4139142915901494 0.015956596155924544 -0.23693212363243246 -0.031489183653654336 0 0 0 0
1584894 -0.41418656539609267 0.01577626551793534 -0.23697046034062483 -0.03082619106579931 0 0 0 0
1617840 -0.413766879551346 0.015712481542300243 -0.23713264420819483 -0.029909173521026216 0 0 0 0
1650786 -0.4139707713206887 0.015095459368772313 -0.237357107815587 -0.029251234194595646 0 0 0 0
1683732 -0.4141332544154926 0.014727265001276826 -0.23752992708200954 -0.028510563400278046 0 0 0 0
1716678 -0.41387150610910856 0.01438197049646419 -0.23750363396553356 -0.027791155320498497 0 0 0 0
1749624 -0.41388894923252245 0.014385070266514838 -0.23759172256512381 -0.027232965194800677 0 0 0 0
1782570 -0.414049677224258 0.014123742371765818 -0.237742867831972 -0.02660824049008144 0 0 0 0
1815516 -0.41375499770761404 0.014022992350860953 -0.2377984502083402 -0.02587134513549699 0 0 0 0
1848462 -0.4137424011680953 0.013394524064852103 -0.2379098127760795 -0.025349260647329605 0 0 0 0
1881408 -0.41377751276844216 0.013067992465909502 -0.23804578670892318 -0.024790888512059617 0 0 0 0
1914354 -0.41412402949363886 0.013242354368908043 -0.23801106486615206 -0.0241386575824043 0 0 0 0
1947300 -0.4139187470482535 0.013062919887205858 -0.23804391053917928 -0.023668848801704324 0 0 0 0
1980246 -0.4141583456836392 0.012909001410852442 -0.23819150322730426 -0.023132890952648533 0 0 0 0
2013192 -0.4138522673317781 0.012525181156042548 -0.23837757100226095 -0.02264561131373517 0 0 0 0
2046138 -0.41382423031889926 0.012836922788863806 -0.23830307708703774 -0.022010318575811035 0 0 0 0
2079084 -0.41379284012981593 0.012455277756672125 -0.2383963550803907 -0.02149943819151607 0 0 0 0
2112030 -0.41405984824715364 0.01235686806399954 -0.23855566659722954 -0.02110316582468046 0 0 0 0
2144976 -0.4140417431065533 0.012400746345888922 -0.23855080742360749 -0.020570646846180013 0 0 0 0
2177922 -0.41423465554691163 0.012237715005966047 -0.23868093566986065 -0.020230416346743267 0 0 0 0
2210868 -0.4140866329485588 0.012376495653556358 -0.23856627228036906 -0.01968352765751033 0 0 0 0
2243814 -0.41422829899070307 0.012037643378996382 -0.23867565070177005 -0.019258457250552783 0 0 0 0
2276760 -0.41424470589905255 0.01189303714058966 -0.2388176358868856 -0.018821284971948023 0 0 0 0
2309706 -0.414330965329448 0.01187227610063385 -0.2388644356325783 -0.018492860093647485 0 0 0 0
2342652 -0.41426260648411345 0.011914359680187015 -0.23869626918993703 -0.01801065813804234 0 0 0 0
2375598 -0.4142178822897495 0.011846259387435344 -0.23891710323896986 -0.017451764387099854 0 0 0 0
2408544 -0.41434967643691967 0.011758544660826502 -0.2390435264913882 -0.017132610392516876 0 0 0 0
2441490 -0.414582182941439 0.011920779735293959 -0.23903921991358168 -0.016750783453444544 0 0 0 0
2474436 -0.4144556016754429 0.011851796460833201 -0.23897097155977495 -0.01633797320194462 0 0 0 0
2507382 -0.41434521107734246 0.011794495568782686 -0.2389373712559677 -0.015991154586804245 0 0 0 0
2540328 -0.41403856629732405 0.011676792412011307 -0.23904988006177044 -0.015644752672942498 0 0 0 0
2573274 -0.41444647784549105 0.011632026790489036 -0.23906454468393742 -0.015302300338436662 0 0 0 0
2606220 -0.4144187657475649 0.011629839090263902 -0.2390975720791827 -0.014961386594193328 0 0 0 0
2639166 -0.4147434578284502 0.0117616054915231 -0.23931133754011477 -0.014549197736171417 0 0 0 0
2672112 -0.41395836275457265 0.011515384498266121 -0.23905528731105954 -0.014045601158904308 0 0 0 0
2705058 -0.4143247088286408 0.011548011562835499 -0.23915365611691286 -0.013865676533608541 0 0 0 0
2738004 -0.4147277011740478 0.011931478944970614 -0.2393960183372078 -0.013612181323196679 0 0 0 0
2770950 -0.4142437834780629 0.0118173684943249 -0.23930113088865676 -0.013250880347438399 0 0 0 0
2803896 -0.4144713280614016 0.011701714206586661 -0.23918394309322466 -0.013089614385736357 0 0 0 0
2836842 -0.41458765373661743 0.011662408639039334 -0.23928729288734382 -0.012590969255546012 0 0 0 0
2869788 -0.41432259246980097 0.011999945345810989 -0.23929595514593205 -0.01210143190636275 0 0 0 0
2902734 -0.4146229480284965 0.01180135917621111 -0.23937968373024235 -0.011965081029602273 0 0 0 0
2935680 -0.41450624665726526 0.012020587459320884 -0.23939249274629334 -0.01150595590361699 0 0 0 0
2968626 -0.41485092316816197 0.012199426771510185 -0.2394086320136903 -0.011282753278655562 0 0 0 0
3001572 -0.4147366760046419 0.01202084164644286 -0.23941941721974686 -0.01092809258366887 0 0 0 0
3034518 -0.4145949759676265 0.012249181730246993 -0.23942034204466342 -0.010562138264418642 0 0 0 0
3067464 -0.41452697675684613 0.012496875096806906 -0.23941886164796866 -0.010307125577309317 0 0 0 0
3100410 -0.41457176482440755 0.011968836502383296 -0.2393767780855314 -0.010178146166407272 0 0 0 0
3133356 -0.4146155535423753 0.012256457683310977 -0.23956012275769067 -0.009739511170327364 0 0 0 0
3166302 -0.41463255894505296 0.012213362075840416 -0.23950989068012393 -0.0095387363985741 0 0 0 0
3199248 -0.41418936593294414 0.012303767790186416 -0.23942314131496997 -0.009295251694864056 0 0 0 0
3232194 -0.4142213342074931 0.012529332558318493 -0.23934955255218263 -0.008945494408935325 0 0 0 0
3265140 -0.4147908822557967 0.012475257735802417 -0.2395459264358284 -0.00867365819329993 0 0 0 0
3298086 -0.41446300199214253 0.012498341431526045 -0.23936934256717401 -0.008464168325114667 0 0 0 0
3331032 -0.4141683649834026 0.012441602320547312 -0.23946855323406901 -0.008179683116820852 0 0 0 0
3363978 -0.4142154292325014 0.01260994589344588 -0.23933220048687326 -0.007946782285428979 0 0 0 0
3396924 -0.41460165063805776 0.012646563067561921 -0.2395511258476175 -0.007786782403551384 0 0 0 0
3429870 -0.41467414923514573 0.012912277620331187 -0.23967076703951523 -0.0072940233932693044 0 0 0 0
3462816 -0.4144694350281247 0.012756624266368654 -0.23954011781791515 -0.007180600620152424 0 0 0 0
3495762 -0.41474973333813797 0.013015641757258584 -0.23969442120816697 -0.0068919533342231875 0 0 0 0
3528708 -0.41436045662863263 0.012779364537089763 -0.2394214391493454 -0.006583515619547415 0 0 0 0
3561654 -0.4143089294587174 0.01290752343209639 -0.23956088441226198 -0.006396092542896676 0 0 0 0
3594600 -0.41440572815469834 0.013259036617272865 -0.23949923457636105 -0.0061168083197623065 0 0 0 0
3627546 -0.41453278859896264 0.013200612652181101 -0.23972274260910034 -0.005791672711596876 0 0 0 0
3660492 -0.4145326853836219 0.013392341037868079 -0.23953685552940282 -0.005685642738542726 0 0 0 0
3693438 -0.4145280066243523 0.013428113743431492 -0.2397391510670901 -0.005411052648098954 0 0 0 0
3726384 -0.41410951509266813 0.013357438991857696 -0.2396398388470684 -0.0051930460123557785 0 0 0 0
3759330 -0.4142970580432545 0.013448424827861375 -0.23966676354352962 -0.004961479126355663 0 0 0 0
3792276 -0.4139533642618047 0.013320068149906836 -0.2395959504834278 -0.004742583090806867 0 0 0 0
3825222 -0.4140597343712334 0.0133995940103091 -0.23966605510713027 -0.0044371472294908905 0 0 0 0
3858168 -0.414258796056104 0.013705038916710243 -0.23956531823810684 -0.004313420569375379 0 0 0 0
3891114 -0.41411225979782534 0.013711694722498396 -0.23972896912864952 -0.003969825786018492 0 0 0 0
3924060 -0.41385576624588144 0.01381336841256239 -0.23948239280459474 -0.003759156953719864 0 0 0 0
3957006 -0.4141801039144683 0.013618708000195446 -0.23967652299397796 -0.0035274746992995515 0 0 0 0
3989952 -0.4139119013029378 0.013653403552203347 -0.23960017768792452 -0.003385841587784889 0 0 0 0
4022898 -0.4142088382008586 0.014180206055330493 -0.23968422168861608 -0.002968632397645302 0 0 0 0
4055844 -0.4137843227716082 0.013963984558974631 -0.23952999651513782 -0.0029268284243929034 0 0 0 0
4088790 -0.4142756999606031 0.014116583168349232 -0.23979223649995524 -0.002573809872637987 0 0 0 0
4121736 -0.4136920526906774 0.013983984276364906 -0.23946191213037274 -0.002542067669355001 0 0 0 0
4154682 -0.41378270825881436 0.01405890340719415 -0.23971465644599252 -0.002320287281570465 0 0 0 0
4187628 -0.4139367909477434 0.014408672413646656 -0.239619942662808 -0.002015226750977781 0 0 0 0
4220574 -0.4136185342814291 0.01433310319139466 -0.2395818811149088 -0.00188132150193337 0 0 0 0
4253520 -0.4135696950605802 0.014360773888102085 -0.2395516886543594 -0.0017366741960411513 0 0 0 0
4286466 -0.414050767025815 0.01469015053052481 -0.23988526924321615 -0.0012166173450811628 0 0 0 0
4319412 -0.4136935283083981 0.01467130122471983 -0.23951176798280424 -0.0011587197821293076 0 0 0 0
4352358 -0.4137772466979823 0.01474930171397487 -0.239751986189041 -0.0009745991376836686 0 0 0 0
4385304 -0.4140831711035629 0.014787583345517266 -0.2397892583052609 -0.0007514993824158392 0 0 0 0
4418250 -0.41357436335456005 0.01484261182105061 -0.23968104792526296 -0.0005172401414283412 0 0 0 0
4451196 -0.41346865236862335 0.014678586541714429 -0.2396602905932743 -0.0004708576023853941 0 0 0 0
4484142 -0.4137369750909108 0.015017703035046008 -0.23975229061442282 -0.00014235597943851222 0 0 0 0
4517088 -0.4136663610625841 0.015019720513726732 -0.23967655389469975 0.00011624500803489855 0 0 0 0
4550034 -0.41384094488951134 0.0150991801334667 -0.23971887926206142 0.00018457358118568383 0 0 0 0
4582980 -0.41351956057658085 0.015172173406934513 -0.23972690161809307 0.00044022818811497594 0 0 0 0
4615926 -0.4134673184847799 0.014964637320073452 -0.23980706087197123 0.0006394289261226454 0 0 0 0
4648872 -0.41350155752356 0.015217268385591173 -0.2396379104827464 0.0007059674564140652 0 0 0 0
4681818 -0.4133847599614319 0.015539099567914978 -0.2395925656542398 0.0010259151433392804 0 0 0 0
4714764 -0.4134860521960461 0.015493577148045027 -0.23965865613558449 0.0013092825916993 0 0 0 0
4747710 -0.41347262820333425 0.01537608556330058 -0.23977043795279362 0.0013442673311067264 0 0 0 0
4780656 -0.4136186360732811 0.015612875988231353 -0.2398408050122601 0.0016490334957176811 0 0 0 0
4813602 -0.41351508008627746 0.015617527012864708 -0.23986087074421567 0.0018289976968888073 0 0 0 0
4846548 -0.41334371634151784 0.01555463425277624 -0.23968035272114818 0.0019465856602470387 0 0 0 0
4879494 -0.4134658756995796 0.015794484331685375 -0.23980456553873777 0.002341704366356919 0 0 0 0
4912440 -0.4131422129049401 0.01579911698381752 -0.23963237809709054 0.0022895304311819995 0 0 0 0
4945386 -0.4132397557548966 0.015791637234924657 -0.23973690950267945 0.0025817801501006542 0 0 0 0
4978332 -0.41281009097196647 0.015976302445768944 -0.23965720162964702 0.002747750968053419 0 0 0 0
5011278 -0.4132271687405429 0.01591312610983534 -0.23965179569870995 0.0029246228225268773 0 0 0 0
5044224 -0.41301125605632627 0.016067572231181704 -0.2396567007962957 0.0031191836116760885 0 0 0 0
5077170 -0.41296398564493747 0.015946654501147794 -0.23961191049852545 0.0032198999178034565 0 0 0 0
5110116 -0.4130254287913517 0.01618091717222581 -0.23952008656875373 0.003471018755240163 0 0 0 0
5143062 -0.41288545394026477 0.01612925886110785 -0.23961761461305173 0.0035321132711832962 0 0 0 0
5176008 -0.4125201734258555 0.01603822729851363 -0.2395093181025738 0.003671149618179598 0 0 0 0
5208954 -0.4128577123049511 0.016329727108378128 -0.23962678407462384 0.003961552652520638 0 0 0 0
5241900 -0.4128041864285585 0.016193083178564733 -0.23955226133894664 0.004095955984689741 0 0 0 0
5274846 -0.4127657539040003 0.016400459975285116 -0.23961295158738008 0.004352764902390986 0 0 0 0
5307792 -0.4129600944433081 0.01635949082678135 -0.2396788149302472 0.004474865594578912 0 0 0 0
5340738 -0.4129733996443091 0.016610680933744206 -0.2397568753451522 0.004726725075821763 0 0 0 0
5373684 -0.41246549992761095 0.016483386733149207 -0.2395433190561764 0.004750686228179517 0 0 0 0
5406630 -0.41286258094777845 0.0166480013490139 -0.2397180242326272 0.0050466402929012204 0 0 0 0
5439576 -0.4128534168130428 0.01665062314583259 -0.23972036928636084 0.005150805945695971 0 0 0 0
5472522 -0.41248821693102306 0.01657310120433908 -0.23953463057563518 0.005410175568287212 0 0 0 0
5505468 -0.41252183024406475 0.016629977256444693 -0.2394628897278621 0.005570532750664458 0 0 0 0
5538414 -0.4127784961578332 0.01662410709493399 -0.2395767221853446 0.005899946961940091 0 0 0 0
5571360 -0.4124985055685622 0.017008792040225856 -0.23950687599129328 0.005807336961790214 0 0 0 0
5604306 -0.4124243810226208 0.016910543781563012 -0.2394720591263448 0.0059538486005395585 0 0 0 0
5637252 -0.4125384979809641 0.016871352899430498 -0.23952438953722527 0.0062927505436110465 0 0 0 0
5670198 -0.4120746770102792 0.01697832156162309 -0.2394917967862967 0.006376084420744568 0 0 0 0
5703144 -0.41231134814464526 0.017055313315462194 -0.239585852835751 0.006664506691084505 0 0 0 0
5736090 -0.4125220001456568 0.017032620604268647 -0.23963842726758727 0.006710676505455489 0 0 0 0
5769036 -0.4123221894919475 0.016956443493590132 -0.23942395281391496 0.006990965403362125 0 0 0 0
5801982 -0.4120214238633452 0.017046814888179405 -0.23943592174828476 0.0069838203287082125 0 0 0 0
5834928 -0.4125198886875844 0.017097681485463933 -0.23968311224626587 0.007463268648645677 0 0 0 0
5867874 -0.41223326063593746 0.017182902200117544 -0.23946301598666805 0.007488462673003712 0 0 0 0
5900820 -0.4123405199887664 0.017057130018773486 -0.23955349364373496 0.0076171838729431115 0 0 0 0
5933766 -0.41238068864109767 0.016957065680993328 -0.23947134558836386 0.0077427259560986315 0 0 0 0
5966712 -0.41242962426720003 0.016996427393366452 -0.2394080166505959 0.007967831746561021 0 0 0 0
5999658 -0.4122900362666316 0.01726944257161132 -0.2395804569263603 0.008173292582940438 0 0 0 0
6032604 -0.4121307798912962 0.01726115523961472 -0.2394249237614568 0.008209158821923745 0 0 0 0
6065550 -0.4121649221892596 0.017101079532874996 -0.23945225547892318 0.008437808373663704 0 0 0 0
6098496 -0.412260678895674 0.017508229713432875 -0.2394875960282246 0.008664635512353388 0 0 0 0
6131442 -0.4119704503196198 0.0171242168391534 -0.23949768559914783 0.008788658170982554 0 0 0 0
6164388 -0.4123645557054039 0.01700008706010121 -0.2393303468981159 0.009035604194556675 0 0 0 0
6197334 -0.412315491021538 0.01716327199669955 -0.23936128019191102 0.009006078551734445 0 0 0 0
6230280 -0.4121351277852188 0.017220992932915867 -0.23931860919046638 0.009102853419230707 0 0 0 0
6263226 -0.4122606650530738 0.017232114369278906 -0.2393683217398938 0.009471758628061095 0 0 0 0
6296172 -0.41217202410173176 0.01696580757187464 -0.23939495908606992 0.00952575728463436 0 0 0 0
6329118 -0.4123002302762858 0.01699609735688333 -0.23927387971197486 0.009777971974881559 0 0 0 0
6362064 -0.4121777493539917 0.016852258089005437 -0.23941987786107347 0.009902597234844645 0 0 0 0
6395010 -0.4122114256312378 0.016930395981367963 -0.23929609541504135 0.009898961946644198 0 0 0 0
6427956 -0.4122414177399213 0.01681225117919356 -0.23935028362560887 0.010081874391867526 0 0 0 0
6460902 -0.41253159350062873 0.01673749524436229 -0.2391700640928485 0.010345504386911944 0 0 0 0
6493848 -0.4124130292555166 0.016567831944747716 -0.23937145762173367 0.010535237058394162 0 0 0 0
6526794 -0.41258247528856373 0.016641342466456877 -0.2392835754319613 0.01066632236684239 0 0 0 0
6559740 -0.4128176439884741 0.016493020115234805 -0.23922184234460608 0.010880981763914152 0 0 0 0
6592686 -0.41295092919567405 0.016412952985791266 -0.23935104770736543 0.011057418355073113 0 0 0 0
6625632 -0.41297035160796225 0.01611288882581695 -0.23928539627269704 0.011002556276160213 0 0 0 0
6658578 -0.4133758017284455 0.01599738286625022 -0.23920233289460582 0.011326310703096613 0 0 0 0
6691524 -0.41328338643542223 0.015507941709532153 -0.23907905728620354 0.011456614078784951 0 0 0 0
6724470 -0.414020351735758 0.015513626619992539 -0.23924987271238413 0.011668957656627814 0 0 0 0
6757416 -0.41460597582214626 0.015215063704903692 -0.23924454586387459 0.011898982951546387 0 0 0 0
6790362 -0.41496321087914534 0.015126800931372829 -0.23908250000154516 0.011902268879478064 0 0 0 0
6823308 -0.4155708353058607 0.01483252171601018 -0.23914819389645367 0.012097639316312699 0 0 0 0
6856254 -0.41663991820501434 0.014553112199133075 -0.23908560785453528 0.012238207424124573 0 0 0 0
6889200 -0.4178591453759029 0.014586999998013248 -0.23918614776836764 0.012512609543431493 0 0 0 0
6922146 -0.4180333457899452 0.012362494910536403 -0.2400038430930477 0.01607013778307122 0 0 0 0
6955092 -0.4191029288829063 0.012735754719638009 -0.23985969765314488 0.016105682444168233 0 0 0 0
6988038 -0.4210546058643537 0.013715615637759648 -0.23982030182886316 0.016146996193392535 0 0 0 0
7020984 -0.4225847253467685 0.015619761653777257 -0.2398114280183308 0.016442810615823023 0 0 0 0
7053930 -0.42344756209782775 0.017772072969804407 -0.23954786463879588 0.016450691023053444 0 0 0 0
7086876 -0.42366983824350163 0.020938916587304124 -0.23975112990606928 0.01663534394081264 0 0 0 0
7119822 -0.4228684390730988 0.023731914670654948 -0.23974271935086333 0.016771949250879332 0 0 0 0
7152768 -0.421045025504687 0.02546205023406532 -0.2395429430710144 0.01657775178111427 0 0 0 0
7185714 -0.4193271919287786 0.027100890436719604 -0.23963022177450488 0.016903753760585314 0 0 0 0
7218660 -0.41736871100060824 0.027719016390511452 -0.2397667536779207 0.017191859075617967 0 0 0 0
7251606 -0.415840266574382 0.027635693122186406 -0.2397370318699104 0.017136990268619035 0 0 0 0
7284552 -0.41443899979426047 0.027497571442274316 -0.23976071126001583 0.017363736207976925 0 0 0 0
7317498 -0.4132071653163802 0.027231134264957234 -0.239622102917516 0.017443551691322903 0 0 0 0
7350444 -0.4123931535071975 0.026826267144638184 -0.23975168883980263 0.017590623008145356 0 0 0 0
7383390 -0.4117955366592084 0.026509962467282818 -0.239600710741779 0.017752624475299957 0 0 0 0
7416336 -0.4110932130173671 0.026235044208886404 -0.239773573452269 0.018024864167558857 0 0 0 0
7449282 -0.4108319822896708 0.025915472216025963 -0.23971954989606556 0.01804893088018761 0 0 0 0
7482228 -0.41030487384604075 0.025714805174092727 -0.2396939879241525 0.018174974491003113 0 0 0 0
7515174 -0.4102086663924443 0.0256163928716849 -0.2396783150818277 0.01851071185807734 0 0 0 0
7548120 -0.4099463244487706 0.025092690604973877 -0.23970063551421913 0.018506122624733737 0 0 0 0
7581066 -0.40952592063986465 0.025137424445953464 -0.23969599850418102 0.01881821410654263 0 0 0 0
7614012 -0.4093335061231883 0.024771200162237043 -0.23971936115896308 0.018869564229776696 0 0 0 0
7646958 -0.40944898538580243 0.02459405824696985 -0.23971081218855025 0.018968658812043484 0 0 0 0
7679904 -0.40916853276181003 0.024601255258239592 -0.23963250702111571 0.019086989311443044 0 0 0 0
7712850 -0.4092731523969676 0.024526057881900244 -0.23967251536223905 0.019234418620077427 0 0 0 0
7745796 -0.4087564105635632 0.024229527750452153 -0.23943823918063079 0.019285533210458467 0 0 0 0
7778742 -0.408917610157707 0.024170364371134845 -0.23961496697813348 0.019556350339146246 0 0 0 0
7811688 -0.4086285982220144 0.023909459733008582 -0.23955501949779306 0.019679305454870923 0 0 0 0
7844634 -0.4087632352704962 0.023680036643230592 -0.23954151491330064 0.019783529236314372 0 0 0 0
7877580 -0.4083307739460009 0.023681521891967018 -0.23943496421831825 0.01989886204523926 0 0 0 0
7910526 -0.408656340687012 0.02403249820529514 -0.23962435090283915 0.020209779215126313 0 0 0 0
7943472 -0.4087452100568109 0.02388411038425259 -0.2395860328141445 0.020209175452587234 0 0 0 0
7976418 -0.4083093271315474 0.023631190175080516 -0.2394336593228853 0.020272614491343766 0 0 0 0
8009364 -0.4081015864424341 0.023830024450516647 -0.23945721695237987 0.02060168518193707 0 0 0 0
8042310 -0.4081591342237919 0.02378510287997734 -0.23938284260737985 0.020718557510751696 0 0 0 0
8075256 -0.40824638702277566 0.02372763855379911 -0.23944071780860693 0.020706936803385586 0 0 0 0
8108202 -0.40815874740337676 0.023975663656248633 -0.23948744299060637 0.021036538730990543 0 0 0 0
8141148 -0.4081862723737788 0.0238449871003659 -0.23942063478087786 0.021084416610280574 0 0 0 0
8174094 -0.4080400959948924 0.023814621447491 -0.23945605147565546 0.021258792181970805 0 0 0 0
8207040 -0.40793423151379943 0.02385094130571857 -0.23941234675688258 0.02145762423820874 0 0 0 0
8239986 -0.4078804849569431 0.023621775830048524 -0.23938225694462523 0.021584053900994687 0 0 0 0
8272932 -0.40772735499425616 0.023686242452444505 -0.23929942427934892 0.02170026709749121 0 0 0 0
8305878 -0.407854701772978 0.023920968244014698 -0.23941616133324864 0.021987750556449404 0 0 0 0
8338824 -0.4080041291715565 0.023849146328656947 -0.23943812090505567 0.022025237504012488 0 0 0 0
8371770 -0.4079751650495321 0.023899860082376462 -0.23952548478517754 0.022061686503214693 0 0 0 0
8404716 -0.4076586122557307 0.023911992917894965 -0.23919726345015613 0.022176879562190423 0 0 0 0
8437662 -0.40765334854296176 0.02367272537035783 -0.23930472100976843 0.02227420136918195 0 0 0 0
8470608 -0.4075425820408739 0.023642365045379615 -0.23937475768727923 0.022542218614959007 0 0 0 0
8503554 -0.4076991587338142 0.023980727347903498 -0.23936053200672147 0.022844902154059713 0 0 0 0
8536500 -0.4076728116093753 0.023905426657167026 -0.23931441860494024 0.02289625925138045 0 0 0 0
8569446 -0.4075549994791232 0.023919587958985185 -0.2392740512626649 0.022950365088279093 0 0 0 0
8602392 -0.4073995904801953 0.023893511435880872 -0.23900650853073743 0.023108793597106318 0 0 0 0
8635338 -0.40758786939343195 0.024024756755696514 -0.23916501463381956 0.023227297839476826 0 0 0 0
8668284 -0.4073687183102286 0.02409943092424254 -0.23922500291026033 0.02351870395155369 0 0 0 0
8701230 -0.40742653233518233 0.024255359071637478 -0.23922523066774068 0.023561393617123276 0 0 0 0
8734176 -0.40744495773181616 0.024084086815554517 -0.23926127159097357 0.023675446527223892 0 0 0 0
8767122 -0.40736527141945555 0.024177134989080876 -0.2391920462178195 0.023773338356191512 0 0 0 0
8800068 -0.4072337744787069 0.02414574261850322 -0.2390899219440358 0.023904209139057653 0 0 0 0
8833014 -0.40737561583173165 0.024121579627847795 -0.23919426638160315 0.0240236541096569 0 0 0 0
8865960 -0.40708001493622564 0.024084496796335366 -0.23903508197262183 0.02422976667039208 0 0 0 0
8898906 -0.407403882891403 0.024352241398488433 -0.2391663424569674 0.024341115414246536 0 0 0 0
8931852 -0.4073253054169212 0.024327204418832495 -0.23912962392253093 0.024462495868181222 0 0 0 0
8964798 -0.40720147878320645 0.024422172084506186 -0.23908127508729768 0.02466596247794679 0 0 0 0
8997744 -0.4071018954821408 0.024322857435937036 -0.2389809779195729 0.024764355689799754 0 0 0 0
9030690 -0.40697666169507607 0.024205364148903456 -0.23896354404474968 0.02478370437506164 0 0 0 0
9063636 -0.40708586359665305 0.024432229912468757 -0.23895618508632804 0.0250994176517851 0 0 0 0
9096582 -0.40724461874805035 0.024746521853188343 -0.23909993397590437 0.025212691897587333 0 0 0 0
9129528 -0.4070583980205996 0.024723949924650913 -0.23891639434665557 0.025398896859126174 0 0 0 0
9162474 -0.4069087352554955 0.024371105866950373 -0.23904201766107946 0.02544533271281783 0 0 0 0
9195420 -0.40694071250656166 0.024615744341402415 -0.23897438726255818 0.02557592676207805 0 0 0 0
9228366 -0.4068245129801224 0.02455160809864609 -0.23886081116083432 0.025637490244139114 0 0 0 0
9261312 -0.40665343419972444 0.024633082004855002 -0.23886384885706885 0.025917298739449385 0 0 0 0
9294258 -0.4069463808100522 0.024919920590509 -0.2389232513198761 0.02617294307489075 0 0 0 0
9327204 -0.4069300870714489 0.024846399909630997 -0.23891898580751195 0.026190231202708476 0 0 0 0
9360150 -0.4069589510521336 0.024779516743925322 -0.2389840937965944 0.02618139954124428 0 0 0 0
9393096 -0.40677112452533737 0.024891479250967765 -0.23878837264374658 0.02637250551257088 0 0 0 0
9426042 -0.4065053498603719 0.02498400521186494 -0.2387797649592751 0.026515208199565196 0 0 0 0
9458988 -0.4066810192415871 0.025002314261231836 -0.23884484587729282 0.02670349812973011 0 0 0 0
9491934 -0.4064188056621411 0.025071542096391806 -0.23879863167842252 0.026997536827453948 0 0 0 0
9524880 -0.40689072046131675 0.02533253573007741 -0.23885478678150437 0.0270378370088863 0 0 0 0
9557826 -0.40672475239263634 0.025058915778290048 -0.23881016281624573 0.027038271429037995 0 0 0 0
9590772 -0.40670781375054404 0.02519337923574788 -0.2387575892707609 0.02723086525638851 0 0 0 0
9623718 -0.4064928255778399 0.025003259664604507 -0.2386449060018019 0.027366005633094714 0 0 0 0
9656664 -0.406516418397874 0.0255105880970286 -0.23871681204217665 0.027420490438160583 0 0 0 0
9689610 -0.4065445980016554 0.025498662031968645 -0.23867480737606808 0.027698878286466107 0 0 0 0
9722556 -0.4065815924570299 0.025366364463765 -0.23863794440972036 0.027759577506305918 0 0 0 0
9755502 -0.4064360879990404 0.025493436312788723 -0.23852047014952896 0.027860633062131965 0 0 0 0
9788448 -0.40636601093035285 0.02545236231110942 -0.23853547657838303 0.028011798605707634 0 0 0 0
9821394 -0.4062562291805286 0.025484851681759128 -0.23842442715915652 0.028120892437607497 0 0 0 0
9854340 -0.40622061320121866 0.025568818269197095 -0.23855938935706594 0.028323957533018466 0 0 0 0
9887286 -0.4064682996206398 0.025751964879009364 -0.23853889543716442 0.028357469889554253 0 0 0 0
9920232 -0.40628173137296164 0.025699005386986794 -0.23859226543939904 0.028496069103465187 0 0 0 0
9953178 -0.4063959796817346 0.025622659814814517 -0.23852798733043223 0.028692028131575065 0 0 0 0
9986124 -0.40635578030659586 0.025756463971258345 -0.2385508138932982 0.02885931597970512 0 0 0 0
10019070 -0.4063630544889066 0.02574842380997079 -0.23843237208833074 0.028943446380890598 0 0 0 0
10052016 -0.40597640163798016 0.025821537876554605 -0.23829082604294594 0.029072678941203526 0 0 0 0
10084962 -0.406259747623209 0.02597905246209472 -0.23836407816647281 0.0291614411450564 0 0 0 0
10117908 -0.4063750169873807 0.02593626157268701 -0.23852157572200255 0.02937335971117196 0 0 0 0
10150854 -0.40615136954411224 0.026130863555357917 -0.23831809912631827 0.029518004316708788 0 0 0 0
10183800 -0.4061718294644057 0.02605956351797228 -0.23833923593553655 0.029656043819139343 0 0 0 0
10216746 -0.40629479239714217 0.026357323790001674 -0.2385064149881018 0.02983260180429284 0 0 0 0
10249692 -0.4061041288715811 0.02630362169009412 -0.23835341815976796 0.02983903456692432 0 0 0 0
10282638 -0.4062312476129383 0.026444064818845623 -0.23831419045678826 0.03004597313999398 0 0 0 0
10315584 -0.4061269814957909 0.026398957670120227 -0.23840432923893057 0.030101053869130038 0 0 0 0
10348530 -0.40616196459950193 0.02626306467482077 -0.23837158720854779 0.030249435229717958 0 0 0 0
10381476 -0.4059718925913218 0.026409404070856114 -0.2381667544432117 0.030407720742058036 0 0 0 0
10414422 -0.4059601830736815 0.02647877639225944 -0.23818121277454302 0.030598863740680406 0 0 0 0
10447368 -0.40582029194535885 0.026500404197296268 -0.23821680905504353 0.030763342419855098 0 0 0 0
10480314 -0.4059873345691142 0.02667637301707496 -0.23825510588691678 0.030819173674230895 0 0 0 0
10513260 -0.40615458859170506 0.02661202217634104 -0.23818851803840677 0.030948568317145448 0 0 0 0
10546206 -0.40570444514177084 0.02659900624872728 -0.23799328240604858 0.03109075947478926 0 0 0 0
10579152 -0.40589370194992863 0.026798744882967542 -0.23820767903359577 0.03115580666622927 0 0 0 0
10612098 -0.4060077555681286 0.027011772686942558 -0.23816806909425084 0.03135270115932442 0 0 0 0
10645044 -0.4060316260201749 0.027100638340995634 -0.2381392783086428 0.0315614735815917 0 0 0 0
10677990 -0.40572884187656083 0.027068743024571833 -0.2380972288826108 0.03155415573071376 0 0 0 0
10710936 -0.4056493542608777 0.026978256622334138 -0.23788126710037344 0.03179571564499053 0 0 0 0
10743882 -0.40585276624464817 0.027233314930754735 -0.23813173285815217 0.03200645332650403 0 0 0 0
10776828 -0.40581870931653874 0.027220519607244066 -0.23807713205202738 0.03205144462008843 0 0 0 0
10809774 -0.4056981905329809 0.02721674666932509 -0.23804771344150485 0.03207244168084451 0 0 0 0
10842720 -0.4056473524593797 0.02724848499535313 -0.23801942158251035 0.0321930879209707 0 0 0 0
10875666 -0.40557377393159433 0.027242470314784634 -0.2378269157649698 0.032411631989492394 0 0 0 0
10908612 -0.4058596387329519 0.02725948156525615 -0.23791028166490613 0.03248154146241743 0 0 0 0
10941558 -0.40568441609496253 0.027508641089567937 -0.23787525060600118 0.032660347307442696 0 0 0 0
10974504 -0.40580500356356886 0.027672114106008422 -0.23792615602165643 0.032859565709304615 0 0 0 0
11007450 -0.40559896636037346 0.027540365037715807 -0.23787684132990472 0.032837196970942006 0 0 0 0
11040396 -0.40574313721866356 0.02755111184288734 -0.2377880626495619 0.033023436342095966 0 0 0 0
11073342 -0.40541734566576787 0.027539979203789713 -0.23777251398186522 0.03308754621014841 0 0 0 0
11106288 -0.4053349877110842 0.027620062525359486 -0.23771640013574338 0.03324543365251284 0 0 0 0
11139234 -0.40555339144424074 0.02789196105358439 -0.23786207672652077 0.033459019176787445 0 0 0 0
11172180 -0.4053642078712085 0.027680097924165915 -0.23767596464695173 0.03349820009409368 0 0 0 0
11205126 -0.4054309728428457 0.027997379242664076 -0.23764693685686647 0.033718102465012195 0 0 0 0
11238072 -0.4056577611691648 0.027963971466898694 -0.23765055183150682 0.03384236225270715 0 0 0 0
11271018 -0.40549831725102187 0.02792836761788368 -0.23773099322262214 0.033839573988373436 0 0 0 0
11303964 -0.405497340351305 0.02802825410549514 -0.2376726523732433 0.034066255510863896 0 0 0 0
11336910 -0.4053557508678326 0.02813311308705152 -0.23753042819952283 0.03418880491546853 0 0 0 0
11369856 -0.4054531754864632 0.02816012528877771 -0.23756271034336499 0.034305453097134064 0 0 0 0
11402802 -0.40528615699521253 0.027959531025046114 -0.23758468482451217 0.03441006687960766 0 0 0 0
11435748 -0.40510905827604815 0.028128673625220348 -0.2375035622087772 0.03460181387350629 0 0 0 0
11468694 -0.4055857077096762 0.028613568380526054 -0.23761712487082506 0.034785743020282166 0 0 0 0
11501640 -0.40535712985659517 0.028383192925592462 -0.23754133494459395 0.034812325139545734 0 0 0 0
11534586 -0.40517581501521394 0.02852465364228178 -0.23750670227582252 0.03498465964311358 0 0 0 0
11567532 -0.4053193213672505 0.02866943101157994 -0.2375225427192673 0.03517282192930193 0 0 0 0
11600478 -0.4051785598091517 0.028480881832215216 -0.23741344728931144 0.0353234776866869 0 0 0 0
11633424 -0.4052590467250256 0.028592531960164636 -0.23747653391123594 0.03538047770620358 0 0 0 0
11666370 -0.4052404993852236 0.02904800418751567 -0.23756236571421396 0.03558327940264588 0 0 0 0
11699316 -0.4051945668216757 0.028771555621120794 -0.23742926822004978 0.03560491858295341 0 0 0 0
11732262 -0.4052816767998319 0.02878749717340046 -0.23745122578287356 0.03574089993171246 0 0 0 0
11765208 -0.4053002713563011 0.02900237178461961 -0.23745389047223844 0.03590483850242686 0 0 0 0
11798154 -0.40502759611607153 0.028846753687126806 -0.2373123825528529 0.03604726909638703 0 0 0 0
11831100 -0.40526578449563416 0.02928587893278681 -0.23725876874681612 0.03619203695897704 0 0 0 0
11864046 -0.40511396672954547 0.029029390698855215 -0.23731205052954094 0.036201389949353596 0 0 0 0
11896992 -0.4053212708010258 0.02898836248860272 -0.23734617820605267 0.03635232825599742 0 0 0 0
11929938 -0.40492380656040305 0.029173703397994917 -0.23717813533043589 0.036392921485404205 0 0 0 0
11962884 -0.40515841336750164 0.029354660560433725 -0.23723304985475732 0.03672640611741776 0 0 0 0
11995830 -0.40490452240119645 0.02907408494861071 -0.23701934442008613 0.03674223851203302 0 0 0 0
12028776 -0.40510423169008936 0.029470137067312833 -0.23726736444379493 0.03698084804196169 0 0 0 0
12061722 -0.40495704862701765 0.029463145864631175 -0.23717259213411815 0.03690317059405992 0 0 0 0
12094668 -0.40504112329286474 0.02969132161565336 -0.2371328238707302 0.03713804642770078 0 0 0 0
12127614 -0.40493220470892866 0.02967239756468491 -0.2371192970567309 0.037215511875333666 0 0 0 0
12160560 -0.40533038151505446 0.029455990902901692 -0.23721978035712032 0.03737323621401699 0 0 0 0
12193506 -0.4047878357337591 0.029697595901694858 -0.23699685695371692 0.03766103504526843 0 0 0 0
12226452 -0.4046187706500844 0.029650010008703955 -0.2369333109110973 0.037691574930661186 0 0 0 0
12259398 -0.404883290189751 0.02974758817179277 -0.23700987065036008 0.03766842382612582 0 0 0 0
12292344 -0.4051775187818869 0.030008588238879107 -0.2369295544203858 0.03783404636658989 0 0 0 0
12325290 -0.4049002457933897 0.029876834475270064 -0.23697936784055132 0.038009955163641786 0 0 0 0
12358236 -0.4047043939367506 0.029844821445324028 -0.23689945235053644 0.038147117924314154 0 0 0 0
12391182 -0.4048014525562907 0.029981459426442945 -0.23698942620335797 0.038303697027934645 0 0 0 0
12424128 -0.40491017666041457 0.030144536482354344 -0.2368610707300011 0.03846119602916971 0 0 0 0
12457074 -0.4050390032942563 0.02993569371809497 -0.23691623470652895 0.03849768398802406 0 0 0 0
12490020 -0.4047293328871923 0.03031342481109433 -0.23673293697468842 0.03871124472902668 0 0 0 0
12522966 -0.40465337546181396 0.030272271436955933 -0.23668198868179519 0.038754179749113896 0 0 0 0
12555912 -0.4048560640861153 0.030432666399339097 -0.23666966142880705 0.03889704259622069 0 0 0 0
12588858 -0.40494558352360616 0.03040139386793227 -0.2366553180048186 0.03905135400146051 0 0 0 0
12621804 -0.40482241330227237 0.03041871853765164 -0.2367419962928496 0.039249555781938394 0 0 0 0
12654750 -0.40468203656934676 0.030610652219634576 -0.2366660218891 0.0393327852069326 0 0 0 0
12687696 -0.40475907484318074 0.030652777671283802 -0.2366645742816701 0.03942335026191913 0 0 0 0
12720642 -0.4047631123565863 0.03081936398327476 -0.23675519263800637 0.039587555632760896 0 0 0 0
12753588 -0.40456678840018223 0.030659525407533823 -0.23663213616353398 0.03965975424290916 0 0 0 0
12786534 -0.4045353630982121 0.030806964192424388 -0.23646015435598122 0.03984286321794282 0 0 0 0
12819480 -0.40452983763293776 0.030943332778890404 -0.23650131866363364 0.03988586504894083 0 0 0 0
12852426 -0.40432487839336717 0.030876659391604357 -0.2365963332355809 0.04006865774677473 0 0 0 0
12885372 -0.4044377960309995 0.030964423467036508 -0.23656952780886015 0.04015658143812874 0 0 0 0
12918318 -0.4047193482304072 0.031473567037760844 -0.2365492130573407 0.04046596087949725 0 0 0 0
12951264 -0.40481664656399025 0.031117059818653186 -0.2365251325835788 0.04041850466766146 0 0 0 0
12984210 -0.4046113220001066 0.030915156849531212 -0.23651777421232287 0.040460155409394405 0 0 0 0
13017156 -0.40456445616520836 0.03128284226946886 -0.23636128067794623 0.040760557553770935 0 0 0 0
13050102 -0.40462701163488635 0.031394043891389195 -0.23652156926321433 0.04085319397692012 0 0 0 0
13083048 -0.4044868383947609 0.031181257425630573 -0.2364260808361378 0.04082071592360081 0 0 0 0
13115994 -0.4045017239350427 0.0314799087477634 -0.23649803870127403 0.041116100791607886 0 0 0 0
13148940 -0.4045118835184541 0.031205206759180922 -0.2363347032726301 0.041060343059729824 0 0 0 0
13181886 -0.4045751378626882 0.03146949207507128 -0.23641197343043777 0.04140206074656262 0 0 0 0
13214832 -0.40452134506242343 0.03170122673563595 -0.23639616499054483 0.0415113619481541 0 0 0 0
13247778 -0.4045377281594264 0.03141607962896095 -0.23628272264999536 0.04142246031676916 0 0 0 0
13280724 -0.4043507384727509 0.03174503995736161 -0.23629510070265175 0.04163328888160339 0 0 0 0
13313670 -0.4042078021608298 0.03178875944007491 -0.2360725032301568 0.04172285358715794 0 0 0 0
13346616 -0.40445634810347186 0.031950101994835486 -0.23629993539962338 0.0418911200236219 0 0 0 0
13379562 -0.404270736187858 0.03190211270120673 -0.2360403894122063 0.04192644856553372 0 0 0 0
13412508 -0.4043003762486996 0.031947938030531774 -0.23616895128536822 0.042176681461481 0 0 0 0
13445454 -0.4039797162145577 0.03198637769950384 -0.23597235791964052 0.042199955918464 0 0 0 0
13478400 -0.40448111857419455 0.03200604080687263 -0.23611730223287955 0.042495151874865106 0 0 0 0
13511346 -0.40416168786621737 0.03218991799868535 -0.23606317266374285 0.042528414389031044 0 0 0 0
13544292 -0.40436570594028753 0.032045397303575 -0.23601883133254725 0.04268970773016735 0 0 0 0
13577238 -0.4040574294466535 0.03221209954464549 -0.23601719984164207 0.042837668418001684 0 0 0 0
13610184 -0.4042102929093423 0.03234333251772039 -0.23597484790446063 0.042870072699609296 0 0 0 0
13643130 -0.40423608613392265 0.03250939620049607 -0.23591504768795798 0.043072096589162855 0 0 0 0
13676076 -0.4041192876184846 0.032414924013065775 -0.23601715504521753 0.043126944971143374 0 0 0 0
13709022 -0.40418807547543895 0.032662541303475776 -0.2359589545842981 0.04324796373606578 0 0 0 0
13741968 -0.4041758563535106 0.0324238279272118 -0.2358783812991109 0.043208363520339396 0 0 0 0
13774914 -0.4042734632730678 0.032479809189033 -0.23590262925705616 0.04342652943677399 0 0 0 0
13807860 -0.4040353822775694 0.03268196771214276 -0.23575114899578226 0.04363955194272703 0 0 0 0
13840806 -0.4041613327318865 0.032799016308467224 -0.23590693628961076 0.043923356587621525 0 0 0 0
13873752 -0.4041595176954162 0.03298208793244838 -0.23572714142475018 0.04380472671514496 0 0 0 0
13906698 -0.40400314538895427 0.03289333909803255 -0.23566873410314038 0.04390025711367848 0 0 0 0
13939644 -0.4038518511714927 0.03284567322513605 -0.2356723332490834 0.044121434555016284 0 0 0 0
13972590 -0.40401138026238975 0.03291637183432045 -0.2356283872833457 0.044213023547525224 0 0 0 0
14005536 -0.404235250052939 0.033153572089581904 -0.2357034294284565 0.044496375458056944 0 0 0 0
14038482 -0.40399372528014527 0.03346418925691162 -0.23568931611654176 0.04455661292622234 0 0 0 0
14071428 -0.4043376260013543 0.03328695238751748 -0.23588818555100846 0.044600892401120355 0 0 0 0
14104374 -0.4040307438715484 0.033173745860221496 -0.23551935997459134 0.044639809496100934 0 0 0 0
14137320 -0.40411941622029673 0.03327715538611954 -0.23551851901305992 0.04486630248751048 0 0 0 0
14170266 -0.40387107643416775 0.03355566363439822 -0.23551535268890494 0.04499429631181284 0 0 0 0
14203212 -0.4038277874445207 0.03345379775140187 -0.23541583989289866 0.04507834845854159 0 0 0 0
14236158 -0.4039690572099535 0.03371516872362202 -0.23547307582072127 0.04545032307152599 0 0 0 0
14269104 -0.40381213421826073 0.03385873016941428 -0.23540233336729335 0.04543709687596982 0 0 0 0
14302050 -0.4041518848691867 0.033862610702625286 -0.23551068773672712 0.045550342337666985 0 0 0 0
14334996 -0.404012173306549 0.03384308534561045 -0.2353933359183767 0.04559556152650459 0 0 0 0
14367942 -0.4036942020900609 0.033700185814182736 -0.23528029904645253 0.045651475759935355 0 0 0 0
14400888 -0.40384565600292144 0.03375325522614509 -0.23536136649323292 0.04588933739154494 0 0 0 0
14433834 -0.40365842756314796 0.03397501720439388 -0.23517003213039442 0.046030611914281 0 0 0 0
14466780 -0.4040151781634228 0.03424046675653889 -0.23544304164446253 0.046162650592358564 0 0 0 0
14499726 -0.4041711048843879 0.034192175935474335 -0.23553152730872684 0.04622464375132516 0 0 0 0
14532672 -0.4039580668744799 0.0343827167166142 -0.2354238585511994 0.04638171595920043 0 0 0 0
14565618 -0.40367365891203544 0.03395066691250329 -0.23517804343972765 0.046288765444879476 0 0 0 0
14598564 -0.40379499572688343 0.034125929394503214 -0.23509061549484137 0.04661010724991641 0 0 0 0
14631510 -0.4037730892834205 0.03433738106132277 -0.2352759546917349 0.04676146274752767 0 0 0 0
14664456 -0.40365093677309766 0.034343892414593104 -0.2350587980567912 0.04688782113523306 0 0 0 0
14697402 -0.4039380908189887 0.03477215119672043 -0.23533357642417613 0.04689405207666169 0 0 0 0
14730348 -0.40360485574969296 0.03443417911707934 -0.23494877695218927 0.047057555350758624 0 0 0 0
14763294 -0.40356802884128296 0.03433586682693624 -0.23492890565856706 0.04715571677129281 0 0 0 0
14796240 -0.40417024268908136 0.034778605917830045 -0.23513988010344786 0.04737994434782287 0 0 0 0
14829186 -0.40325154064742436 0.03467257218830295 -0.2348494711008386 0.047429574717485184 0 0 0 0
14862132 -0.4037401684605828 0.03488099545274513 -0.23489510593411436 0.04766450423175968 0 0 0 0
14895078 -0.40392764892760735 0.03498124427135845 -0.23504553382081025 0.047651534287819784 0 0 0 0
14928024 -0.40350924228367496 0.034700824684148486 -0.2348283182030595 0.04771350120832467 0 0 0 0
14960970 -0.40384732298916165 0.03488397519290533 -0.23489832066100483 0.047978077669666094 0 0 0 0
14993916 -0.40357654002671667 0.035019543255888255 -0.2347425536366356 0.048128239103165334 0 0 0 0
15026862 -0.40356233976549927 0.0350664127354557 -0.23487504741866147 0.04830122915167946 0 0 0 0
15059808 -0.4038516698112046 0.035319854200308524 -0.23478546781356677 0.04835943442374807 0 0 0 0
15092754 -0.4036945726104295 0.0353595189218662 -0.2348580364698179 0.04839790417437076 0 0 0 0
15125700 -0.4036764742554308 0.035428420974354634 -0.2348659412756944 0.048554286938689024 0 0 0 0
15158646 -0.40363667918431057 0.035179781233043814 -0.23473838962049617 0.048558644752599064 0 0 0 0
15191592 -0.4035785941980773 0.035317172439494525 -0.2347162492500722 0.04870734062334218 0 0 0 0
15224538 -0.4036189787580157 0.03528971186673302 -0.23451570720630416 0.0489233010320282 0 0 0 0
15257484 -0.40365815652213916 0.03562319932327837 -0.23473660263358792 0.04913048840004401 0 0 0 0
15290430 -0.4033893557498201 0.035571979587142005 -0.23446717392903735 0.0490748548834499 0 0 0 0
15323376 -0.40360151427957514 0.035876433575845516 -0.23458495203399557 0.04924073739943916 0 0 0 0
15356322 -0.40342926078946906 0.035550639598090586 -0.23440237515224627 0.049314063989756636 0 0 0 0
15389268 -0.4035394168097987 0.03570383380778914 -0.23445089331739918 0.04944456194143717 0 0 0 0
15422214 -0.4033127306854274 0.035670529399469734 -0.23446030559271402 0.04951735839829069 0 0 0 0
15455160 -0.40329601421467615 0.03602849575352022 -0.23448875420365597 0.0497561347352929 0 0 0 0
15488106 -0.40320822850899274 0.03613903724786657 -0.23428253199034282 0.04984408162199114 0 0 0 0
15521052 -0.4035212686329871 0.03619723845082605 -0.23434045961890612 0.04995694590398892 0 0 0 0
15553998 -0.4034357980704603 0.03618069281018284 -0.234331351631612 0.05017354941293012 0 0 0 0
15586944 -0.4031832075862385 0.03608033993363237 -0.23427062394905523 0.05029945058854502 0 0 0 0
15619890 -0.4034968741302468 0.03646973134096849 -0.23431466402092413 0.050472335787115956 0 0 0 0
15652836 -0.40338916550679116 0.03646511097574606 -0.23440831971796583 0.0504623757852702 0 0 0 0
15685782 -0.403417017858299 0.036575039572332275 -0.23436519235300005 0.0505967529824723 0 0 0 0
15718728 -0.40338713813671606 0.03631506982602416 -0.23418555420195739 0.0507085917220269 0 0 0 0
15751674 -0.4032075093200937 0.03639253796023896 -0.23411790079462835 0.050897730735455914 0 0 0 0
15784620 -0.4033985681286029 0.03674826153787429 -0.23417179860495524 0.05123878136122957 0 0 0 0
15817566 -0.40336691164087096 0.036777916612426347 -0.23444854460314365 0.05091925878748667 0 0 0 0
15850512 -0.4033278473404059 0.03650680723344092 -0.23408198662909013 0.051130266584339334 0 0 0 0
15883458 -0.4035374771194521 0.0369701987851403 -0.23400992612291738 0.05142241609492497 0 0 0 0
15916404 -0.4030173065924503 0.03674735045794009 -0.23382921752429028 0.051276968489002935 0 0 0 0
15949350 -0.4033811186892169 0.037011947449068966 -0.23395133647737676 0.05160148782954134 0 0 0 0
15982296 -0.4030141589757929 0.03708754293419228 -0.2340888902976714 0.051695276036863025 0 0 0 0
16015242 -0.40328004203199375 0.03723985167089897 -0.233972181306814 0.05175821348048917 0 0 0 0
16048188 -0.4031271349328488 0.03698462472650991 -0.23379652311469698 0.05187760155112163 0 0 0 0
16081134 -0.40302166806092427 0.037265504935119764 -0.23377597166467903 0.05205554869846324 0 0 0 0
16114080 -0.4029008305865517 0.03716249053415366 -0.2339012216824518 0.052148172892527475 0 0 0 0
16147026 -0.40326329456596366 0.03734694087325837 -0.23376558278576542 0.052373470288587035 0 0 0 0
16179972 -0.4030386386005722 0.03757088349960345 -0.23369431078590958 0.05237961024717143 0 0 0 0
16212918 -0.4033296900703353 0.03763358023817052 -0.23384429273051763 0.05251597328589428 0 0 0 0
16245864 -0.4030856072536244 0.037218417737143725 -0.23373726677208956 0.05252953712677848 0 0 0 0
16278810 -0.40306626180701727 0.03752518828902231 -0.23383223994409463 0.052787026138324214 0 0 0 0
16311756 -0.4031463013536843 0.037657926510735976 -0.23361379644561844 0.05301220187912208 0 0 0 0
16344702 -0.4031246853164816 0.037783129647279624 -0.2335471890816737 0.052887172562254996 0 0 0 0
16377648 -0.4033909351412268 0.037767856146842804 -0.23363453752201102 0.05309785773084876 0 0 0 0
16410594 -0.4029566103017752 0.037863045972966684 -0.2334961322302823 0.05330983552242594 0 0 0 0
16443540 -0.4028998029859985 0.038017890801312196 -0.23345052909439296 0.053293897320441055 0 0 0 0
16476486 -0.40300118329857126 0.0379401239316987 -0.23340207556604095 0.05357393014066192 0 0 0 0
16509432 -0.4029304575580607 0.03806018442426168 -0.23356834766732826 0.05361484381800682 0 0 0 0
16542378 -0.40309624088580964 0.03804937796528138 -0.23346787093647103 0.053635073393521256 0 0 0 0
16575324 -0.40299763216232043 0.038211305632594346 -0.23334397512718386 0.053806580432273696 0 0 0 0
16608270 -0.4027751813765869 0.0384143676587067 -0.23331389671078806 0.05400257409604247 0 0 0 0
16641216 -0.40288430832904926 0.03851738557821372 -0.2333327653559893 0.05421752655476794 0 0 0 0
16674162 -0.4028871341744388 0.038636968294924266 -0.2333537468021886 0.054147213236638396 0 0 0 0
16707108 -0.4028545230996493 0.0388379565613825 -0.23332542132162165 0.0542571801548625 0 0 0 0
16740054 -0.40297595951214127 0.03844207508521618 -0.23324772148828116 0.054426517299585364 0 0 0 0
16773000 -0.403084695471322 0.038455470324615146 -0.23305912931728665 0.054450126571492403 0 0 0 0
16805946 -0.4026300867338843 0.038675004549614936 -0.23321420997450223 0.05466249840530558 0 0 0 0
16838892 -0.4030507095108857 0.038490813490022056 -0.2332342581970114 0.054884995285245215 0 0 0 0
16871838 -0.4031574292388384 0.038734006610782905 -0.23303615331954486 0.05488333370128598 0 0 0 0
16904784 -0.4029722792571794 0.03903575986668963 -0.2330873522700121 0.054979133021487325 0 0 0 0
16937730 -0.4028789404622697 0.03873572542402035 -0.2330394670875152 0.05514517190551375 0 0 0 0
16970676 -0.4029040356380627 0.03897288871853774 -0.233084727048374 0.055215679446990316 0 0 0 0
17003622 -0.4027155002706312 0.03912261058630016 -0.23289035724566787 0.05544930135435417 0 0 0 0
17036568 -0.4029015178075009 0.03908922070316752 -0.2329545842891724 0.055655176152337844 0 0 0 0
17069514 -0.4025851783482505 0.03942766961073775 -0.23297245670442798 0.055589459046368694 0 0 0 0
17102460 -0.4026176078918483 0.03929989591952555 -0.23284401970064 0.055759163969493146 0 0 0 0
17135406 -0.40254033689925267 0.039485352127172364 -0.23279870760066126 0.055922100947656976 0 0 0 0
17168352 -0.40256103348366773 0.03931848077404591 -0.23287305711548806 0.056118207282045814 0 0 0 0
17201298 -0.4026824028651143 0.039436873612078115 -0.23298044730406728 0.055964807015856266 0 0 0 0
17234244 -0.4029990994069355 0.0394203818817096 -0.23271838522414884 0.05615848210099165 0 0 0 0
17267190 -0.40282441857660867 0.03953308371058197 -0.23274690202712747 0.05630960725813039 0 0 0 0
17300136 -0.4026439438215234 0.03976298928044749 -0.23262992876996005 0.05645487063514491 0 0 0 0
17333082 -0.4024797185804369 0.040012681095108325 -0.23256161382231078 0.05651299433295298 0 0 0 0
17366028 -0.4027328430775201 0.03984368327299318 -0.23255928336405673 0.05684957933550698 0 0 0 0
17398974 -0.40259884056700546 0.040277181362453 -0.2325886995648989 0.05668452785501259 0 0 0 0
17431920 -0.402846015858613 0.04013522781053781 -0.23268189160688257 0.057004972292323916 0 0 0 0
17464866 -0.4028193816031034 0.03992940121554071 -0.23269812656680916 0.057140652646858546 0 0 0 0
17497812 -0.40250055954980224 0.04016637842859967 -0.23247593055558693 0.057253975098735164 0 0 0 0
17530758 -0.4019879903527729 0.04027959080006393 -0.2326272262553827 0.05753692843639305 0 0 0 0
17563704 -0.4025704199415129 0.040320961908865985 -0.23221735774858945 0.05772928153332138 0 0 0 0
17596650 -0.40250448526975247 0.040163267284788744 -0.23238572847869554 0.057305483842610715 0 0 0 0
17629596 -0.4027065579823664 0.04007310977857985 -0.23212096526733986 0.05749724941358469 0 0 0 0
17662542 -0.4026140767979927 0.040669715534090906 -0.23226487191467776 0.05764998265257881 0 0 0 0
17695488 -0.4027967049962883 0.04062049693815904 -0.23237235259924827 0.05788381516687596 0 0 0 0
17728434 -0.40247403454468444 0.040756207257107 -0.2322018172488008 0.05787593312283891 0 0 0 0
17761380 -0.4026104869090481 0.040583281248122764 -0.23223354396990198 0.05812805771943478 0 0 0 0
17794326 -0.40234489369228893 0.04083067758777957 -0.23233235643674227 0.058108686271183436 0 0 0 0
17827272 -0.40246480867764917 0.040901529305592536 -0.2322786980233183 0.05831366591822028 0 0 0 0
17860218 -0.4025206881781686 0.04104001404028217 -0.23230636244368114 0.05838543861063777 0 0 0 0
17893164 -0.40260659021943085 0.0408759686108187 -0.2321018994839648 0.05845443297877895 0 0 0 0
17926110 -0.4024915073331058 0.04106439652015252 -0.23208273055450387 0.05873494008076901 0 0 0 0
17959056 -0.4021897737196536 0.04100314979534681 -0.23194583870877966 0.058915745286775956 0 0 0 0
17992002 -0.40254365911952705 0.04132449158688157 -0.23200337866128748 0.05886850961840005 0 0 0 0
18024948 -0.40282694929698076 0.041121377455263175 -0.23200064449325267 0.058913176780813134 0 0 0 0
18057894 -0.40219169133193655 0.041066691476249355 -0.2318864553766737 0.05916960858460123 0 0 0 0
18090840 -0.40249508532220035 0.041459984028138344 -0.23186057468398874 0.05926953205177197 0 0 0 0
18123786 -0.4022521270206281 0.04155886688784408 -0.23175644935037937 0.05927606538489164 0 0 0 0
18156732 -0.4025525578995112 0.04168082607551504 -0.23193737191512773 0.05954259936567442 0 0 0 0
18189678 -0.402581509051997 0.041422209215845024 -0.23185973801618323 0.059510020107268795 0 0 0 0
18222624 -0.40217850763926893 0.0412211044341128 -0.23177890383715558 0.059711955982667334 0 0 0 0
18255570 -0.40243424908812886 0.041657843979941954 -0.23161388908228808 0.059810976933459534 0 0 0 0
18288516 -0.40180277098781536 0.041549701466058964 -0.23156226490787132 0.0601594323662087 0 0 0 0
18321462 -0.4026751907598075 0.04193166994671443 -0.2317015644530074 0.060202167955440616 0 0 0 0
18354408 -0.4021610524461409 0.04194095097232508 -0.231657897131704 0.06007198864473588 0 0 0 0
18387354 -0.4025061791886441 0.04200349055678831 -0.23165327999258345 0.06029516644528418 0 0 0 0
18420300 -0.40224872965927794 0.041795683013027614 -0.23134166375097054 0.0602075667061363 0 0 0 0
18453246 -0.40194247712719483 0.042191715416624316 -0.23140533544318298 0.06070470429777053 0 0 0 0
18486192 -0.4023675988142763 0.042111810930794816 -0.23158527736365878 0.06079288034158634 0 0 0 0
18519138 -0.4022939784756376 0.04232236194313395 -0.2314730418043177 0.060700890718872226 0 0 0 0
18552084 -0.40257292110123577 0.04222354609084794 -0.23142244897744388 0.06087275082967352 0 0 0 0
18585030 -0.40204922805334387 0.04227730883435786 -0.2313072272194518 0.06098699738265207 0 0 0 0
18617976 -0.40218689422511616 0.04229956867357231 -0.2314468398798836 0.06115502138355721 0 0 0 0
18650922 -0.4021111615463894 0.04254491466874037 -0.2311424708833195 0.06134882555010269 0 0 0 0
18683868 -0.4021975296669782 0.042629583942954956 -0.23132928500426497 0.06147073547519852 0 0 0 0
18716814 -0.4020515839214137 0.04271538313756954 -0.23125068890368988 0.061279534645391535 0 0 0 0
18749760 -0.4022475603017004 0.04286244238949599 -0.23111237944332813 0.061470498083454395 0 0 0 0
18782706 -0.40204053598510503 0.04274376767607447 -0.23125586346023105 0.06179127885407224 0 0 0 0
18815652 -0.40235561478804177 0.042981174429602365 -0.23116986855916796 0.061773845146929324 0 0 0 0
18848598 -0.40216215677718276 0.04282262640115498 -0.2310543922689499 0.06191371094487403 0 0 0 0
18881544 -0.40197046687332855 0.043111281416499204 -0.23101899156804526 0.06203499435791464 0 0 0 0
18914490 -0.40210421451576606 0.0429635669441234 -0.23127022693167912 0.062337614402679944 0 0 0 0
18947436 -0.40192699079036615 0.04319182359262548 -0.2311185516268111 0.062205131562658646 0 0 0 0
18980382 -0.4023865992113714 0.04306161156672512 -0.23093856480740932 0.0622456572664193 0 0 0 0
19013328 -0.40204753374335345 0.043248604741599854 -0.2310754677615293 0.06253987221922072 0 0 0 0
19046274 -0.40212811413236765 0.04348394816809031 -0.23086824214293478 0.06268582099566196 0 0 0 0
19079220 -0.40176315098971915 0.043299806531301575 -0.23091579454957947 0.06288027000770115 0 0 0 0
19112166 -0.40204756273558456 0.043637157559933 -0.23085014762476633 0.06285781785878268 0 0 0 0
19145112 -0.4019319596514801 0.043550350579485995 -0.23098571672345336 0.06299148231175006 0 0 0 0
19178058 -0.40209128113199794 0.043559732879490304 -0.23071014520282665 0.06311963756177365 0 0 0 0
19211004 -0.4019327561049446 0.043753327385525675 -0.23065427694729698 0.06327470832874685 0 0 0 0
19243950 -0.40206239588156945 0.0438249894166085 -0.23068863903320294 0.0634093426720494 0 0 0 0
19276896 -0.40186849487845744 0.04383458290664266 -0.23068942499332384 0.06357711398056608 0 0 0 0
19309842 -0.4019566718154096 0.043951450480522486 -0.23068448682218926 0.06352623290574176 0 0 0 0
19342788 -0.4020068259812566 0.044016367416495256 -0.23058495213341457 0.06368171574042843 0 0 0 0
19375734 -0.40183678043759236 0.04393675658435408 -0.2305280831489861 0.06377059613484691 0 0 0 0
19408680 -0.40176930543163164 0.044125738650239006 -0.23044582482408257 0.06399200510992933 0 0 0 0
19441626 -0.4020115367167449 0.044242950843159275 -0.2304884411253751 0.06396362975799458 0 0 0 0
19474572 -0.4018110800684307 0.04426000544564923 -0.2305723467013704 0.06414509730583175 0 0 0 0
19507518 -0.4020208847058565 0.04439083304324332 -0.23036921229829424 0.06428450078584856 0 0 0 0
19540464 -0.4019444001061073 0.04427797747794702 -0.2304106282809688 0.06447265732765665 0 0 0 0
19573410 -0.40178782047891864 0.04459065051650131 -0.23025643116868774 0.06449279258284744 0 0 0 0
19606356 -0.4019981912316719 0.04455139461399444 -0.23026087119879224 0.06465345103824953 0 0 0 0
19639302 -0.4018937877956412 0.04455367038556409 -0.23029650394885412 0.0647894201718508 0 0 0 0
19672248 -0.401933780698433 0.04485199977174999 -0.23022018019305043 0.06473276437885812 0 0 0 0
19705194 -0.40190382339522024 0.04469455070390761 -0.23019537329294382 0.06495951244173671 0 0 0 0
19738140 -0.40204443614019475 0.04485690222939045 -0.2300286948960944 0.0650013149160773 0 0 0 0
19771086 -0.4015633355510341 0.044691252531606177 -0.23016275623308377 0.06521954883070762 0 0 0 0
19804032 -0.40169980397685506 0.04505855954217589 -0.22998792778252705 0.06534615888679282 0 0 0 0
19836978 -0.4019013072714426 0.045271572197504634 -0.2300513281655714 0.06530028769640214 0 0 0 0
19869924 -0.40198881701424144 0.04530372480260092 -0.2300667206548356 0.06556457441884916 0 0 0 0
19902870 -0.4015809685954297 0.044954346863281563 -0.23009229314077118 0.06568627163962937 0 0 0 0
19935816 -0.40173974827278924 0.04537589429593981 -0.22993314655898026 0.06581803050076959 0 0 0 0
19968762 -0.4017991681946441 0.045349818506409664 -0.22993855264202265 0.06593296326726528 0 0 0 0
20001708 -0.40168244614350135 0.04542107464532631 -0.22995830971596679 0.06591065883953379 0 0 0 0
20034654 -0.4016252578553648 0.04530396754712672 -0.22986613015069973 0.06605678598492058 0 0 0 0
20067600 -0.4019267548923549 0.045291392119119776 -0.22974685898818972 0.06609209215075197 0 0 0 0
20100546 -0.40160346593036406 0.04563493064332382 -0.2298052545795369 0.06637182735713659 0 0 0 0
20133492 -0.4015166013180098 0.0457030647363863 -0.2296389383660424 0.06655535274524707 0 0 0 0
20166438 -0.40163660939215634 0.04569483704076835 -0.22966399858096948 0.06667669912436613 0 0 0 0
20199384 -0.4016074926315943 0.045851429629758994 -0.2295689682429685 0.06673094286118142 0 0 0 0
20232330 -0.4015966620420229 0.045924357060027905 -0.22959655971533469 0.0667587294637076 0 0 0 0
20265276 -0.4015795578596153 0.04595893620478271 -0.2294926793868534 0.06690153261330528 0 0 0 0
20298222 -0.40168376217776725 0.045833400437826126 -0.2296415566403708 0.06706699461237878 0 0 0 0
20331168 -0.40163499824222454 0.04617513860728434 -0.22939134113373158 0.06724648602861885 0 0 0 0
20364114 -0.4015183484548636 0.04592959469316401 -0.22946841998036233 0.06732469300740868 0 0 0 0
20397060 -0.40135554656256245 0.04635485468013342 -0.22940372571119347 0.06734885400524225 0 0 0 0
20430006 -0.4016560084004277 0.04615376991699665 -0.22940404492609087 0.06749420250826407 0 0 0 0
20462952 -0.4015096724099739 0.046183443235050914 -0.22911222470190065 0.06768035185320156 0 0 0 0
20495898 -0.40162018170114705 0.04644367212716247 -0.22943270749334835 0.06777012848664975 0 0 0 0
20528844 -0.4013241848202365 0.04645644763717418 -0.22933445931856353 0.06795680642393882 0 0 0 0
20561790 -0.4013135798282328 0.0466143998000137 -0.22926216319136258 0.0679707735159309 0 0 0 0
20594736 -0.4015772389770274 0.046750725090834236 -0.22911336689317796 0.06810536673216604 0 0 0 0
20627682 -0.40161610079696214 0.046630726010650464 -0.2291228387444029 0.06823819582902439 0 0 0 0
20660628 -0.4014052412347307 0.04664948702980551 -0.22907972344993147 0.0683528990608959 0 0 0 0
20693574 -0.4012104562759724 0.046787998015798776 -0.2291479817740201 0.06847619803746813 0 0 0 0
20726520 -0.40118353440728216 0.046837882912729764 -0.22903337055636946 0.06869065144619257 0 0 0 0
20759466 -0.4012042727933214 0.046835508151860716 -0.22890010128542748 0.06864786031072762 0 0 0 0
20792412 -0.40138604127052036 0.04722779335501677 -0.2290193250307362 0.06878510336479851 0 0 0 0
20825358 -0.4014340563394409 0.046915548229016266 -0.22883371973996877 0.06879846007335949 0 0 0 0
20858304 -0.40154839289957156 0.047125737091887096 -0.2288380629610332 0.0690095861636383 0 0 0 0
20891250 -0.40150201076845077 0.04720402598637156 -0.22882165097913446 0.06918396312297921 0 0 0 0
20924196 -0.4012117424428055 0.047188851213303004 -0.22870750042681245 0.06931517326448736 0 0 0 0
20957142 -0.40149473662289137 0.047762818405504004 -0.22888127228647026 0.06933992299168167 0 0 0 0
20990088 -0.4016530595066901 0.04752545133466081 -0.22869689612010968 0.06950291493852176 0 0 0 0
21023034 -0.4014325576680538 0.04731378644485041 -0.2286010811227662 0.06966159215680856 0 0 0 0
21055980 -0.40131046135092263 0.047524811382007925 -0.22869695499733647 0.06963980159270347 0 0 0 0
21088926 -0.4010691479129247 0.04766704242386978 -0.2286978697142667 0.06994299014655751 0 0 0 0
21121872 -0.40113002377924617 0.047719362256685605 -0.22856334533031847 0.06986078251946848 0 0 0 0
21154818 -0.40121175187100017 0.04790316560510176 -0.2285856417224163 0.06993791376281573 0 0 0 0
21187764 -0.40114887956357115 0.04812082522528182 -0.22852720355391923 0.07021266354110912 0 0 0 0
21220710 -0.4011619703679428 0.04814791577113387 -0.22847734458841323 0.0700572147709213 0 0 0 0
21253656 -0.4014870259072485 0.0480001060864167 -0.2284748471103267 0.07031213192870625 0 0 0 0
21286602 -0.40138698576767523 0.04792572725838147 -0.22831011846241722 0.07057659707167287 0 0 0 0
21319548 -0.4010004182121532 0.04820250722308277 -0.22836661314102816 0.0705691741322622 0 0 0 0
21352494 -0.4011055108321443 0.04831096859914235 -0.22828393279122317 0.07060895886611646 0 0 0 0
21385440 -0.40089165518761216 0.0483396019044977 -0.22813735716835665 0.07067083438540916 0 0 0 0
21418386 -0.4012678287263662 0.0486202346874153 -0.22828239386119017 0.07094159766841784 0 0 0 0
21451332 -0.4011851059223722 0.04860317484756356 -0.2281911139007129 0.07087870653489789 0 0 0 0
21484278 -0.401429338927371 0.048490847650538994 -0.228187625326201 0.07111868904385688 0 0 0 0
21517224 -0.4013305015528387 0.04864155834490131 -0.2280739887485134 0.07145935618447508 0 0 0 0
21550170 -0.4010715769574324 0.04863244765358725 -0.2280851168793537 0.07142776279294234 0 0 0 0
21583116 -0.4009748913713353 0.0488071016966886 -0.22793210792812407 0.07140087914403138 0 0 0 0
21616062 -0.40112435986455713 0.049148912509284035 -0.228154121137305 0.07166481846805568 0 0 0 0
21649008 -0.4011650342445945 0.048868900811056444 -0.22783809900817975 0.07157916428485296 0 0 0 0
21681954 -0.40104642050163347 0.04877767302225716 -0.22782991357773583 0.07172384613722114 0 0 0 0
21714900 -0.40113496121937464 0.04893396301014296 -0.22786916455746786 0.07205528127141589 0 0 0 0
21747846 -0.4007772848707222 0.04904848006294434 -0.2277395789622358 0.07216597690735826 0 0 0 0
21780792 -0.4011352126727138 0.049496253347904424 -0.2278527193649651 0.07212938223729966 0 0 0 0
21813738 -0.4009956503117438 0.049013493525032065 -0.22770375038894528 0.07210621344630631 0 0 0 0
21846684 -0.4011984490663187 0.0493269257422509 -0.2275648396900202 0.07239088173173075 0 0 0 0
21879630 -0.4007508143788531 0.049353992236575356 -0.2275533396298587 0.07248952279265117 0 0 0 0
21912576 -0.4008517187694214 0.0493128783339547 -0.22757812312601955 0.07270151684109476 0 0 0 0
21945522 -0.40075761705106905 0.049480153108897695 -0.22748675207745656 0.07268761964076814 0 0 0 0
21978468 -0.4008274700541826 0.049482013200412844 -0.2274844311698801 0.07272984323786975 0 0 0 0
22011414 -0.4009402647162866 0.049743417469122676 -0.22754539773785973 0.07303472847761086 0 0 0 0
22044360 -0.40080979391660515 0.04942727778279276 -0.22737807799842 0.07290921657084394 0 0 0 0
22077306 -0.4013513274077112 0.04989093580492234 -0.22738883285956515 0.07324094755599028 0 0 0 0
22110252 -0.4008988402427659 0.04992657015686032 -0.22742544845531112 0.07343557116992927 0 0 0 0
22143198 -0.4008497518878982 0.05013945319497057 -0.22741067280997956 0.0735581600748287 0 0 0 0
22176144 -0.40098155640319555 0.05021986245849392 -0.22737798853322522 0.07350785538684083 0 0 0 0
22209090 -0.40116226641843983 0.05000590464990453 -0.22727150019596748 0.07364677225120045 0 0 0 0
22242036 -0.40077179378695815 0.05009646504465559 -0.22716116236874934 0.07385262616138646 0 0 0 0
22274982 -0.4006716861994043 0.05010609359458889 -0.22711347091547104 0.07383447854354952 0 0 0 0
22307928 -0.40078663870156034 0.05026444346902164 -0.22712358893059734 0.07414339330238756 0 0 0 0
22340874 -0.4006560578386855 0.05051725407089082 -0.22701113258375746 0.07405046772883843 0 0 0 0
22373820 -0.4007886581207422 0.050480809812300985 -0.22704708201431062 0.07403242931843843 0 0 0 0
22406766 -0.4006112578299884 0.050447814455282056 -0.2269377026710361 0.07411891461903712 0 0 0 0
22439712 -0.40091538696632695 0.05041363849463647 -0.22698940541961143 0.07440078379342725 0 0 0 0
22472658 -0.4007789321569158 0.05049391528459613 -0.22687533248822 0.07467649736491874 0 0 0 0
22505604 -0.4005460006752284 0.050537305806096465 -0.22676583629452512 0.07462200648832736 0 0 0 0
22538550 -0.40059072941072593 0.05071676230334649 -0.2268489541099592 0.07482828726143806 0 0 0 0
22571496 -0.40054446035613944 0.05071017943266834 -0.22670897952731742 0.07476499801091908 0 0 0 0
22604442 -0.4008414741179837 0.051291400515465636 -0.22682671516945113 0.07497329629615455 0 0 0 0
22637388 -0.40053723849496264 0.050979866803769716 -0.2266285905515161 0.07502345448119443 0 0 0 0
22670334 -0.40097674282673734 0.05117004342266312 -0.2265660896667555 0.0753323331375208 0 0 0 0
22703280 -0.40064447258877467 0.051019233311336676 -0.22662171402425849 0.07541693543387504 0 0 0 0
22736226 -0.4006595462296309 0.05126610546185621 -0.22651703344642263 0.07547878874000179 0 0 0 0
22769172 -0.40032829826218813 0.0511895274663382 -0.2265018638247007 0.07546963452783344 0 0 0 0
22802118 -0.4005940128906325 0.05140977746143905 -0.22655190528185604 0.0756560751367234 0 0 0 0
22835064 -0.4009048736694045 0.051496681474118365 -0.2263182690260894 0.07589305288768329 0 0 0 0
22868010 -0.40055947513679263 0.05160595873639051 -0.22633422289361746 0.07581504564774909 0 0 0 0
22900956 -0.40041953835559946 0.051385193669193675 -0.22639241095625268 0.0759687923518497 0 0 0 0
22933902 -0.4002083552220901 0.05160457182089786 -0.22628337331570428 0.07610421817507974 0 0 0 0
22966848 -0.4005767785570584 0.05198529494993598 -0.22640873981163187 0.07626659652090287 0 0 0 0
22999794 -0.40051478359767123 0.051847463356338115 -0.2262458667900557 0.07621379716529758 0 0 0 0
23032740 -0.4008091902268309 0.05197857834340889 -0.2261216733333876 0.0765612826600766 0 0 0 0
23065686 -0.4002827934344452 0.05181990215110333 -0.2261454034803875 0.0765703901722723 0 0 0 0
23098632 -0.4003675520603741 0.051988165510730405 -0.22615094109112951 0.0767116488883217 0 0 0 0
23131578 -0.40042871277681785 0.052192051395310204 -0.22618390863675222 0.0768587548680471 0 0 0 0
23164524 -0.40034209855332903 0.052184793571657666 -0.22603463472751423 0.07694770050105595 0 0 0 0
23197470 -0.4003665955407615 0.05221305743423531 -0.2259572249785855 0.07688865817470483 0 0 0 0
23230416 -0.40057299632095017 0.052346345936835494 -0.2260426881260652 0.07702558149923748 0 0 0 0
23263362 -0.40030874272587397 0.05223651943930562 -0.22584290384628805 0.07710815597771944 0 0 0 0
23296308 -0.4003893839859231 0.052337996668022004 -0.2257989530474447 0.07729320257136996 0 0 0 0
23329254 -0.40050240250650526 0.052447377075967666 -0.22584339426765365 0.07755361906211916 0 0 0 0
23362200 -0.4000141154370887 0.052498337475574704 -0.22577258783495135 0.07758560384710866 0 0 0 0
23395146 -0.4001491141467254 0.05264332391791582 -0.22570113470938083 0.07769168118147936 0 0 0 0
23428092 -0.40046166048324777 0.05269491967697222 -0.22584581275899168 0.07775271572235627 0 0 0 0
23461038 -0.4006970064104041 0.05268763914937741 -0.225621512621666 0.07799480844964397 0 0 0 0
23493984 -0.40001306712558726 0.052690590462734416 -0.22557381558745293 0.07794812587728589 0 0 0 0
23526930 -0.4003054254004122 0.053133273630412786 -0.22565575834056195 0.07820259442124046 0 0 0 0
23559876 -0.40025923631355365 0.053189321932825225 -0.2255835991048697 0.0782672244377251 0 0 0 0
23592822 -0.40052962134046527 0.052895557868367485 -0.22543403391081668 0.07835703174232578 0 0 0 0
23625768 -0.40033715231209466 0.05313652202532144 -0.22541721330756015 0.07857138783859348 0 0 0 0
23658714 -0.40021279377726027 0.05314619949789354 -0.22532813826699818 0.07859156334580444 0 0 0 0
23691660 -0.400132773636795 0.05324247181486927 -0.22525094029275583 0.0786508690978024 0 0 0 0
23724606 -0.4001985493746057 0.05337031431950128 -0.22534627761025702 0.0789031075642617 0 0 0 0
23757552 -0.40011663331086067 0.0534907619489487 -0.22525382297936836 0.07877919059463298 0 0 0 0
23790498 -0.40020913804966823 0.0536299469574148 -0.2253372459270368 0.07896880315924297 0 0 0 0
23823444 -0.40045732223230995 0.05353869858224866 -0.22522976797294725 0.07921683112671088 0 0 0 0
23856390 -0.400103081098761 0.05369815910941677 -0.22520915497737065 0.07924196765697641 0 0 0 0
23889336 -0.40008281056889444 0.05364489104522511 -0.2250716726129345 0.07934332389535098 0 0 0 0
23922282 -0.4000194275608259 0.053950658287680336 -0.22501407738293594 0.07937874443234806 0 0 0 0
23955228 -0.39997925109648774 0.05381490946977062 -0.22491167977426166 0.07949978542884503 0 0 0 0
23988174 -0.4003105139360209 0.05407355965395479 -0.22492753254010076 0.07985261925532723 0 0 0 0
24021120 -0.4002329719025987 0.05394978636328625 -0.22496976049102288 0.07981595298130198 0 0 0 0
24054066 -0.40006024250974587 0.05401516735915637 -0.22494666185217613 0.07990666303174565 0 0 0 0
24087012 -0.3999426188064187 0.05408348766590422 -0.22478261775018168 0.07990575223076375 0 0 0 0
24119958 -0.40030597844653637 0.05441033995540907 -0.2249414384939134 0.08011084298531031 0 0 0 0
24152904 -0.4000107519939785 0.0540742024295011 -0.22468057126848873 0.08017251313370567 0 0 0 0
24185850 -0.40021070709654644 0.054345491814884954 -0.22466060593907403 0.08049101297511466 0 0 0 0
24218796 -0.3999669859660647 0.05438403974958038 -0.2246681855020927 0.08052401885816343 0 0 0 0
24251742 -0.4001029143615874 0.054434107795176934 -0.224632344398017 0.08047461459174958 0 0 0 0
24284688 -0.39991054902215445 0.05475250522443557 -0.22466746216266809 0.08059823262439657 0 0 0 0
24317634 -0.3999697763693821 0.05432955276275872 -0.22438458898487046 0.08067391526157688 0 0 0 0
24350580 -0.4002831233377751 0.054876373994272 -0.22452529340198618 0.08096419819971357 0 0 0 0
24383526 -0.3998763544828804 0.05478734287245654 -0.22444490114226476 0.0809870453335628 0 0 0 0
24416472 -0.39984915765509976 0.0548007205990433 -0.22432059593541576 0.08096699295018028 0 0 0 0
24449418 -0.4001572606691582 0.054923335793702364 -0.22453274208655216 0.08132492367276944 0 0 0 0
24482364 -0.3999392102915851 0.055085022144750063 -0.22432889804714376 0.08130556314422835 0 0 0 0
24515310 -0.40020249596623714 0.055061273557321114 -0.22424685223542629 0.08157318460310585 0 0 0 0
24548256 -0.4000086777947603 0.05515543399407586 -0.2242290446251069 0.08162925306174133 0 0 0 0
24581202 -0.399573133761365 0.05506487952297259 -0.22414233601853728 0.08165627280927203 0 0 0 0
24614148 -0.39987679620915473 0.05526220943351537 -0.22419912196130073 0.08178313728949589 0 0 0 0
24647094 -0.39965971555699314 0.05541842587069167 -0.22405951450619882 0.08180197259551791 0 0 0 0
24680040 -0.39971269419138716 0.055592328146048746 -0.22403286524965993 0.08184902786690886 0 0 0 0
24712986 -0.3997422227623824 0.05576151688189224 -0.2240498854636468 0.0819765066301037 0 0 0 0
24745932 -0.3999317544655199 0.05566290201718122 -0.2240607826370062 0.08216539763712558 0 0 0 0
24778878 -0.3999599116061688 0.055288355594842416 -0.22380541538650367 0.0822446567912215 0 0 0 0
24811824 -0.4000181262927251 0.0556053522924272 -0.2238655278857682 0.08260003816589866 0 0 0 0
24844770 -0.39955469325198734 0.0558236109503621 -0.22374017175671523 0.08257888951824524 0 0 0 0
24877716 -0.3998054888357869 0.055848589226640634 -0.22381265311805917 0.08257216559568002 0 0 0 0
24910662 -0.399854389861529 0.056051392901565376 -0.22378631083858788 0.08272520069676007 0 0 0 0
24943608 -0.3996957589132322 0.0559306320466379 -0.22347564534211053 0.0828419922576672 0 0 0 0
24976554 -0.39984962436020555 0.055835123074430046 -0.22361084233054532 0.08291968803562133 0 0 0 0
25009500 -0.3997103531241583 0.055848980647010896 -0.2234866402612753 0.08302844301240331 0 0 0 0
25042446 -0.3999056997213029 0.05630675332742386 -0.22349450784889544 0.08318046084087652 0 0 0 0
25075392 -0.3997612189399036 0.05626016817429134 -0.22355544310453918 0.08346269253625618 0 0 0 0
25108338 -0.3995350325850202 0.05622616019520167 -0.22342957310330325 0.08324722798596162 0 0 0 0
25141284 -0.39947680258545426 0.05638167537157029 -0.22328832345815922 0.08344680960121569 0 0 0 0
25174230 -0.3998737159340135 0.05636408504373674 -0.22328280599115247 0.08367920945019731 0 0 0 0
25207176 -0.3998408688941354 0.0565814262556118 -0.2233188473100484 0.08372807676139209 0 0 0 0
25240122 -0.3993142504639224 0.056564990163749655 -0.22326131185767725 0.08387292457237307 0 0 0 0
25273068 -0.39952224468830894 0.05671728375696307 -0.22329511405176983 0.08406448650024405 0 0 0 0
25306014 -0.39951791529530534 0.05669377394201409 -0.223246644542997 0.08398920603712848 0 0 0 0
25338960 -0.3995921294364483 0.05690633279899513 -0.22323321207092217 0.08422972114209387 0 0 0 0
25371906 -0.399688549971443 0.056638951243519135 -0.22292372198744928 0.08424165824598943 0 0 0 0
25404852 -0.3998912217415961 0.057132411651657514 -0.2230361568278499 0.08455773413267849 0 0 0 0
25437798 -0.39950365965411133 0.05701798913299022 -0.22315456560244445 0.08458949559332474 0 0 0 0
25470744 -0.3995058327465938 0.05706876840716583 -0.22295486079146012 0.08445057000484901 0 0 0 0
25503690 -0.39978668986780025 0.0572295977295907 -0.22300969330366827 0.0846993830175047 0 0 0 0
25536636 -0.399633375930566 0.05700779491862877 -0.22278855906773537 0.0847703686191568 0 0 0 0
25569582 -0.3996808656993417 0.05705725557734562 -0.22271789504539424 0.08490041289925818 0 0 0 0
25602528 -0.39987948263712514 0.05742643659969464 -0.22287544953933694 0.08522535712614168 0 0 0 0
25635474 -0.39916827091619905 0.057385319517612984 -0.22259468332699503 0.08516363068360022 0 0 0 0
25668420 -0.3993453089944493 0.05750186901142463 -0.22270760377550441 0.0852344720579335 0 0 0 0
25701366 -0.3992298808210891 0.057680288245677266 -0.22265973775545975 0.08529752797439637 0 0 0 0
25734312 -0.39952260842967374 0.05762263815902286 -0.22256895917406175 0.08545693700565922 0 0 0 0
25767258 -0.39960219630791427 0.057709231441875994 -0.2224958394648167 0.08564687295881737 0 0 0 0
25800204 -0.399126172596124 0.057878543410652045 -0.22250582824919857 0.08579940892875278 0 0 0 0
25833150 -0.399299007929815 0.05792720584237819 -0.22235160048852737 0.08569316476956104 0 0 0 0
25866096 -0.3992050024974838 0.05786872640371214 -0.22237689297864727 0.08583830356647401 0 0 0 0
25899042 -0.39931120865416186 0.05808896333950297 -0.22233824596642102 0.0860298525864485 0 0 0 0
25931988 -0.39958609652942234 0.05815297591609118 -0.2222839823775389 0.08614112749073104 0 0 0 0
25964934 -0.3993686144470353 0.05828377321028273 -0.22240072195937907 0.08627741385326725 0 0 0 0
25997880 -0.39953177909933935 0.058394139817846684 -0.22236845557219032 0.08636395047988923 0 0 0 0
26030826 -0.3993006135740811 0.0580241713578796 -0.22208060303116806 0.08634100228785703 0 0 0 0
26063772 -0.39957348953928934 0.058443761134139204 -0.22216261724422784 0.08664479088818657 0 0 0 0
26096718 -0.39909144390730755 0.058547335554377244 -0.22199023093893733 0.08681560860464166 0 0 0 0
26129664 -0.3989490315075043 0.05851523944911925 -0.22202592292650497 0.086856866950033 0 0 0 0
26162610 -0.3990999211646734 0.058607237855615675 -0.22202649736044902 0.08684983830715476 0 0 0 0
26195556 -0.39924180361785544 0.05872096559068883 -0.22190425057272845 0.08686500200218199 0 0 0 0
26228502 -0.39945027672475625 0.058944809387389156 -0.22190400181008732 0.0871581275144546 0 0 0 0
26261448 -0.3990555284355827 0.058686484956417435 -0.22177024910796878 0.08718858320684925 0 0 0 0
26294394 -0.3991667081699031 0.05859363361796413 -0.2216384238228403 0.08730273802670305 0 0 0 0
26327340 -0.3994952604211349 0.05888124379759499 -0.22168671815431892 0.08748810776890374 0 0 0 0
26360286 -0.39888261341671427 0.05888941715654726 -0.22162063885966005 0.08765107969214167 0 0 0 0
26393232 -0.39914696488600615 0.059185878695299475 -0.2217028112625352 0.08775832236164019 0 0 0 0
26426178 -0.3991932211123945 0.059237769872478155 -0.2217331432012329 0.08788605885868674 0 0 0 0
26459124 -0.3991045435144662 0.05924367714004177 -0.22150955107104608 0.08790839911271218 0 0 0 0
26492070 -0.39888954633827395 0.05941423781714273 -0.2215875898987648 0.08785781957809544 0 0 0 0
26525016 -0.39912892692099067 0.05939223361847623 -0.2215769793193491 0.08811156062074778 0 0 0 0
26557962 -0.3990425323657725 0.05927744174463044 -0.22131378520098638 0.08819931542355944 0 0 0 0
26590908 -0.3993826961409157 0.05959624083292123 -0.22134309832543567 0.08845290318279492 0 0 0 0
26623854 -0.3988220218433492 0.059441107975522156 -0.22129252662907004 0.08848254233230606 0 0 0 0
26656800 -0.399188479768716 0.059771945077635676 -0.2213402752819538 0.08857143599705981 0 0 0 0
26689746 -0.3988727648777984 0.05977891837283144 -0.221250679578567 0.08855746185520001 0 0 0 0
26722692 -0.3990751437501393 0.059813409249855724 -0.2211689201019735 0.08873796802227332 0 0 0 0
26755638 -0.39910390983638017 0.05973766978711422 -0.22109733503140316 0.08881978311302838 0 0 0 0
26788584 -0.39884566056000265 0.05986599684275528 -0.22109740564382385 0.08908111448912386 0 0 0 0
26821530 -0.39884009901697837 0.059819565064239265 -0.22103465694641433 0.08897558652838895 0 0 0 0
26854476 -0.3987949261789837 0.059839243648609736 -0.2208720069110311 0.08914899226759325 0 0 0 0
26887422 -0.3991870122895675 0.05991870749038105 -0.22098083986809317 0.0893431320046365 0 0 0 0
26920368 -0.39885109851879447 0.06023547287910484 -0.2208017587459397 0.08951030058805153 0 0 0 0
26953314 -0.3989388624647965 0.06040630283050182 -0.22077007395919632 0.08949667108965649 0 0 0 0
26986260 -0.3989725289007575 0.06024632826482671 -0.2209584786068637 0.0895933014545365 0 0 0 0
27019206 -0.3988559519683509 0.060644540711905455 -0.22072758192626987 0.08961318276992172 0 0 0 0
27052152 -0.39888638530028475 0.060608729078867433 -0.2206540191999739 0.08979487843709691 0 0 0 0
27085098 -0.3988386062324793 0.060596552807917925 -0.22067276498975277 0.08994613265271319 0 0 0 0
27118044 -0.3988295590133218 0.06043046134559688 -0.2205882359230027 0.09007934345196547 0 0 0 0
27150990 -0.3989166464614976 0.06042789864187531 -0.22055537576831727 0.09005839646111452 0 0 0 0
27183936 -0.39875967162019094 0.060872212677486 -0.22046102094877226 0.09043833136250866 0 0 0 0
27216882 -0.39867841990410646 0.06108027706155718 -0.22036700636666517 0.09046055805113323 0 0 0 0
27249828 -0.39883770819128567 0.06090785881417262 -0.22061765958937854 0.09045281748007057 0 0 0 0
27282774 -0.3988446250218746 0.06104763755039202 -0.22043107858251795 0.09045960383966357 0 0 0 0
27315720 -0.3987118104323899 0.06076704022460901 -0.22024863837955083 0.09064998841550875 0 0 0 0
27348666 -0.39879415552274583 0.06097677077451125 -0.22035002210139065 0.09078158771878779 0 0 0 0
27381612 -0.39893485721614846 0.06105740338004742 -0.2201604897623561 0.09085138056229072 0 0 0 0
27414558 -0.39863577699333 0.06140941418403354 -0.22000501441625916 0.09105316381895961 0 0 0 0
27447504 -0.39857103290939017 0.06139624705754507 -0.22021946247186602 0.09102480762501577 0 0 0 0
27480450 -0.39879473514425545 0.06171052853486616 -0.22014872405364266 0.09110195902608176 0 0 0 0
27513396 -0.39852662998550054 0.06149066980400662 -0.220052173774144 0.09125631951781772 0 0 0 0
27546342 -0.398878813963307 0.061532147567618246 -0.21990954874714475 0.09136756905183367 0 0 0 0
27579288 -0.39860194787512276 0.0618573479706922 -0.2198635250019469 0.09167875757832245 0 0 0 0
27612234 -0.39870155194159734 0.06173037186317903 -0.22003427678660764 0.09170363241049156 0 0 0 0
27645180 -0.3984106265415413 0.06179510354129973 -0.21977159708261193 0.09169872156528851 0 0 0 0
27678126 -0.3987974003972661 0.061858706161702845 -0.21972497075291014 0.09173376332556679 0 0 0 0
27711072 -0.3987796230463283 0.06175214424303966 -0.2197407384170527 0.09191823644556908 0 0 0 0
27744018 -0.3983649984456656 0.06202658268462702 -0.21962956757635071 0.09208668860089265 0 0 0 0
27776964 -0.39864149155945783 0.06225049206702369 -0.2196109279242492 0.09207273643926958 0 0 0 0
27809910 -0.3987054341043519 0.061979981734803756 -0.21955103114163513 0.09215692949760437 0 0 0 0
27842856 -0.39851351994665096 0.06221406935030136 -0.21950101080524484 0.09255373358845936 0 0 0 0
27875802 -0.3985490362025638 0.062186116804533155 -0.21948021789821975 0.09244611410562867 0 0 0 0
27908748 -0.3986020919172317 0.06224532243814438 -0.21959239481247533 0.09258823165629577 0 0 0 0
27941694 -0.3984072279785079 0.0627217948766458 -0.21939630614876549 0.09273125551575442 0 0 0 0
27974640 -0.39876863403766577 0.06256042910916773 -0.2192237883768296 0.09290319193343156 0 0 0 0
28007586 -0.3985532495969742 0.06253748521860862 -0.21921062391382523 0.09302155165080019 0 0 0 0
28040532 -0.39848008657965295 0.06264676821926582 -0.21911745725155815 0.0930291958127849 0 0 0 0
28073478 -0.39849165734737335 0.06265199484502082 -0.2193217898076835 0.09311346946425378 0 0 0 0
28106424 -0.39808832748181666 0.0625671564090798 -0.21911445316024572 0.09312434101938175 0 0 0 0
28139370 -0.39865399763801374 0.06276089681411391 -0.2191630764795128 0.09349355457242702 0 0 0 0
28172316 -0.3984645163855992 0.06258058260879096 -0.2190124492525711 0.09324967312174924 0 0 0 0
28205262 -0.3983418023713169 0.06322766300920839 -0.21894129331977336 0.09382316711485147 0 0 0 0
28238208 -0.3984418737312522 0.06329514689126733 -0.21892140575054114 0.09387610965477913 0 0 0 0
28271154 -0.3983693712014493 0.06330926878133135 -0.2190779314271601 0.09374615462987057 0 0 0 0
28304100 -0.3983672897207282 0.06330679897765218 -0.21872560238983163 0.09385258624917849 0 0 0 0
28337046 -0.3987069001282471 0.06310041430755113 -0.21875855838647065 0.09401821256187935 0 0 0 0
28369992 -0.39847386458527145 0.06329798784777928 -0.2186074223717188 0.09418071583652539 0 0 0 0
28402938 -0.39813513559466507 0.06338119317047392 -0.21862819177500348 0.09414522283969921 0 0 0 0
28435884 -0.39834543594275784 0.06355369053353452 -0.21857616193120738 0.09433213330923251 0 0 0 0
28468830 -0.3981856305232227 0.06377945276860127 -0.21864236621998007 0.09459513310121796 0 0 0 0
28501776 -0.39826856200308286 0.06360248224313772 -0.21861295347112608 0.09444738522905605 0 0 0 0
28534722 -0.3982456095433713 0.06372655526854931 -0.21840548180552605 0.09457629158338 0 0 0 0
28567668 -0.39862597872404637 0.06370179922986415 -0.21845386700293346 0.09475275346972102 0 0 0 0
28600614 -0.398303707934508 0.06388658819832975 -0.21839228775713587 0.09498452351575432 0 0 0 0
28633560 -0.39844334836844264 0.06384595242510949 -0.21842065454533066 0.09486051722249848 0 0 0 0
28666506 -0.39820916275203405 0.06368112188827084 -0.2182451787857717 0.09507623494348584 0 0 0 0
28699452 -0.3983025569787663 0.06402225214926292 -0.2181290964987442 0.09499597148492119 0 0 0 0
28732398 -0.39824542243847283 0.06421134089644794 -0.2181915642299486 0.09537463567990079 0 0 0 0
28765344 -0.39800491447430875 0.06418298191787644 -0.21803610924154265 0.09533445847342055 0 0 0 0
28798290 -0.39837939629238583 0.06449429311756362 -0.2183668410386798 0.09551359827368905 0 0 0 0
28831236 -0.39837353205750303 0.06407908832009962 -0.21803935147571832 0.0956000244195067 0 0 0 0
28864182 -0.39811840668866355 0.0643997235090572 -0.21792592560941226 0.09579192677801181 0 0 0 0
28897128 -0.39780472278780665 0.06447546409999098 -0.21787178949475747 0.09572602710992498 0 0 0 0
28930074 -0.3979190838399071 0.06452387096204891 -0.21769954576660222 0.09585304791621593 0 0 0 0
28963020 -0.3981282012560503 0.06445362332483504 -0.21777466136062248 0.09612580766312111 0 0 0 0
28995966 -0.398242938262022 0.06451375307027021 -0.21776651271602776 0.09592046267526684 0 0 0 0
29028912 -0.39812371540634 0.0649047390740952 -0.217650145096244 0.09630283574141861 0 0 0 0
29061858 -0.39805104073715014 0.06466937292269016 -0.2176252205212857 0.09624297176014124 0 0 0 0
29094804 -0.398053686578021 0.06493814512262237 -0.21754811500652038 0.0963580682186017 0 0 0 0
29127750 -0.3977743663896464 0.06486334687195346 -0.21744169907748695 0.09641368847255186 0 0 0 0
29160696 -0.3983059370570298 0.0648964729644263 -0.21746619324480357 0.09661207568963646 0 0 0 0
29193642 -0.39803196679428177 0.0654238597800872 -0.21747731725956587 0.09704728002678459 0 0 0 0
29226588 -0.39808637725445184 0.06537397544171406 -0.21766951596437645 0.09694594343807389 0 0 0 0
29259534 -0.3978824502752043 0.065410781167931 -0.21733125967733125 0.097054178717569 0 0 0 0
29292480 -0.39802517338527826 0.0652223979535542 -0.21727445100631745 0.0971104032107862 0 0 0 0
29325426 -0.39793003639357183 0.06501328621364559 -0.21718141512155956 0.09703034995192289 0 0 0 0
29358372 -0.3979008773431834 0.06565389192595603 -0.21712217710482673 0.09748166965862809 0 0 0 0
29391318 -0.3977646951532781 0.06558597460067338 -0.21710079806660218 0.09742299995242572 0 0 0 0
29424264 -0.3979102512831612 0.0656569385152613 -0.217138080446341 0.09745454257959899 0 0 0 0
29457210 -0.3980263089845858 0.06569000278088687 -0.21723744487872615 0.0976333280686663 0 0 0 0
29490156 -0.3977017607250015 0.06566804848199222 -0.21682943233464916 0.09760947396675078 0 0 0 0
29523102 -0.39790029512578245 0.06577965299459029 -0.21693513547228319 0.09793384799916016 0 0 0 0
29556048 -0.39815367170830873 0.06586016342929796 -0.21682008699318667 0.09788793124384246 0 0 0 0
29588994 -0.39786018720362004 0.06607889057279247 -0.21675581962432713 0.09801313326794132 0 0 0 0
29621940 -0.39785774074694374 0.06625930525754942 -0.2167150458926525 0.09816385341456388 0 0 0 0
29654886 -0.39782128961734 0.06640007159802296 -0.21693968785692183 0.09829249463013136 0 0 0 0
29687832 -0.3979455830540157 0.06614906182522604 -0.21671127156041037 0.09841253983591777 0 0 0 0
29720778 -0.3977793597037806 0.06654322019733654 -0.2165945796498455 0.09861112958137606 0 0 0 0
29753724 -0.397683146971461 0.0667037452304984 -0.21659236621158023 0.09869106960247072 0 0 0 0
29786670 -0.39763239966442204 0.06646470811597606 -0.21663331773397118 0.09874504476319795 0 0 0 0
29819616 -0.3979293011704702 0.06647367108747654 -0.21645951303631192 0.09881679330570714 0 0 0 0
29852562 -0.39790880381947624 0.06641808269901255 -0.21643413116723736 0.09880709748364606 0 0 0 0
29885508 -0.397661223636831 0.06656673131547859 -0.2162432762431891 0.09891639441108739 0 0 0 0
29918454 -0.39759882665373186 0.06661555306829599 -0.21631185009576376 0.0989514808404391 0 0 0 0
29951400 -0.3976273129165615 0.06695063326503949 -0.21632259519213715 0.0991682124339842 0 0 0 0
29984346 -0.39789478758524793 0.06684867252071827 -0.21615147381068295 0.09932021612024819 0 0 0 0
30017292 -0.3975972572010662 0.06659171656387852 -0.2160993354295444 0.09920646370119862 0 0 0 0
30050238 -0.39744595876617067 0.06691800923931006 -0.21603177365708 0.09950440403638663 0 0 0 0
30083184 -0.3977436353313598 0.06709046939354252 -0.21612057233845106 0.09962156599116365 0 0 0 0
30116130 -0.39777482792842844 0.06730939771969754 -0.2161198569602674 0.09973457188735281 0 0 0 0
30149076 -0.39766834528414374 0.06745116071583085 -0.21607910547047218 0.09981631864790808 0 0 0 0
30182022 -0.3979593812894069 0.06722343413404926 -0.21593630571993505 0.0999550818642721 0 0 0 0
30214968 -0.3976588897638429 0.06760493253509682 -0.21580728945142139 0.10008937405545114 0 0 0 0
30247914 -0.3972741162128442 0.06746066269591731 -0.21574036135518737 0.1000903118341181 0 0 0 0
30280860 -0.39763371073707365 0.0677148897858695 -0.21582284540437177 0.10021848638978775 0 0 0 0
30313806 -0.39751724057188226 0.06769754958678353 -0.21571701873236004 0.10035811499220325 0 0 0 0
30346752 -0.3972006951955581 0.06744446116835699 -0.21544252917259848 0.10035069631849357 0 0 0 0
30379698 -0.39783656163484643 0.0678088436257062 -0.2156245929682071 0.10062012613972598 0 0 0 0
30412644 -0.3976247127704106 0.06748139995819495 -0.21562288256165646 0.1007262684092311 0 0 0 0
30445590 -0.39751244538478453 0.06810340951769832 -0.2154896919164214 0.10097097227030295 0 0 0 0
30478536 -0.39721314825095005 0.06785275286474904 -0.21531465491672724 0.10080036721267543 0 0 0 0
30511482 -0.39762481901023683 0.0681765540439595 -0.2154613759089034 0.10098101430013215 0 0 0 0
30544428 -0.3971904791247213 0.06784269984394799 -0.21529265549725277 0.10106158684730053 0 0 0 0
30577374 -0.39733605841639347 0.06817284047338058 -0.21520751981741665 0.10113511242248718 0 0 0 0
30610320 -0.39775155612637064 0.0682652295130098 -0.21531222007350062 0.10127344754580339 0 0 0 0
30643266 -0.3975046299532142 0.06819378728124954 -0.21503283823159292 0.1012458604707802 0 0 0 0
30676212 -0.3972547410156738 0.06811962157514095 -0.21496874432165605 0.10132011518122458 0 0 0 0
30709158 -0.3974224771668583 0.06861151912997164 -0.2150152747167358 0.10170033289486369 0 0 0 0
30742104 -0.3971768893397835 0.06843582774098979 -0.21481277312224145 0.10159364184764401 0 0 0 0
30775050 -0.3974879509415139 0.06869443749276068 -0.21501999166426855 0.1017869083941362 0 0 0 0
30807996 -0.3973536970359512 0.06875858766098548 -0.2150159746585954 0.10199063759633784 0 0 0 0
30840942 -0.39715276576086633 0.0686915887133463 -0.2147455498077997 0.10190394598111972 0 0 0 0
30873888 -0.3970169104491728 0.06862669246382377 -0.21468586733471906 0.10200169846809895 0 0 0 0
30906834 -0.3973542248361737 0.0688102121164966 -0.21468149253163027 0.10219876015321706 0 0 0 0
30939780 -0.39716486122122713 0.0687984515183631 -0.21461036003574116 0.10219173032422647 0 0 0 0
30972726 -0.3973226262471201 0.06915206229420769 -0.2148335129965616 0.10241166145799446 0 0 0 0
31005672 -0.3969800276455866 0.06898904350615001 -0.2145320786808165 0.10253935125271661 0 0 0 0
31038618 -0.3974519147011961 0.06903551349362373 -0.2144997459668047 0.10262262517256993 0 0 0 0
31071564 -0.39717589284533283 0.06944456652137372 -0.21436576773570676 0.10286238918015503 0 0 0 0
31104510 -0.3971233555475314 0.06933444357125118 -0.21440126943908255 0.10285094724580164 0 0 0 0
31137456 -0.3971411198794651 0.06945389887084064 -0.21448475559604982 0.10295091219190598 0 0 0 0
31170402 -0.39728252898429867 0.06932020361527065 -0.21428057232097322 0.10299455952436111 0 0 0 0
31203348 -0.397215777949724 0.06943019849951551 -0.21408378036150952 0.10297659494697786 0 0 0 0
31236294 -0.397208913826013 0.06966969864953224 -0.2141096338610176 0.1031591911001622 0 0 0 0
31269240 -0.3971651073045371 0.06972266042543528 -0.2142985140390193 0.10342515710617994 0 0 0 0
31302186 -0.39693804221881474 0.06957071124110757 -0.21389198293533287 0.10335737074438343 0 0 0 0
31335132 -0.39699356928617446 0.07011225203961798 -0.213960481603987 0.10356809225380548 0 0 0 0
31368078 -0.3971623407207927 0.0699046745351372 -0.21396769438919327 0.1036514372629106 0 0 0 0
31401024 -0.3970349599701399 0.06983345636188783 -0.2138809788215446 0.10354784626476057 0 0 0 0
31433970 -0.39695801223046356 0.06979236116720136 -0.21370123807033953 0.10376106080912412 0 0 0 0
31466916 -0.3971953172402881 0.06991244678490909 -0.2137972660966319 0.10387144857738743 0 0 0 0
31499862 -0.3969495622781162 0.07019297010958143 -0.213610488835849 0.10397122973856014 0 0 0 0
31532808 -0.397146566734473 0.07023600683472782 -0.21380579288602392 0.10411431918416367 0 0 0 0
31565754 -0.396743408269447 0.07011709395913168 -0.21337346060903095 0.10414726182190716 0 0 0 0
31598700 -0.3970234046697637 0.07026693041307505 -0.21361374509752296 0.10439201993835999 0 0 0 0
31631646 -0.39695086947119185 0.0706313924979633 -0.2135193452055176 0.1046691248558561 0 0 0 0
31664592 -0.39681468233483835 0.07059113620125965 -0.21336767845369295 0.10457130712824185 0 0 0 0
31697538 -0.3968800502264013 0.07062119625141323 -0.21342025708634227 0.10483015572025134 0 0 0 0
31730484 -0.39698227252475193 0.07059088230199906 -0.2133044127404619 0.10468845924473112 0 0 0 0
31763430 -0.39711608059068554 0.07044428029813933 -0.2132857370503755 0.10489594093503841 0 0 0 0
31796376 -0.39675390958880175 0.07100498637547285 -0.21327327761630469 0.10512806222025373 0 0 0 0
31829322 -0.39684704860643677 0.0709422579547022 -0.2133071209925818 0.10509439714355141 0 0 0 0
31862268 -0.3967832544878864 0.07072714530953055 -0.21308457266607866 0.10510724474681493 0 0 0 0
31895214 -0.39701021169228656 0.07104195317045271 -0.21312015720401284 0.10543963110627781 0 0 0 0
31928160 -0.3971135516585438 0.07084372503613641 -0.21303704169501295 0.10555281404516763 0 0 0 0
31961106 -0.3967831954282354 0.0711468698893989 -0.21293631049477643 0.10532406085459192 0 0 0 0
31994052 -0.39686521227012883 0.07118414686093255 -0.21283548340098551 0.10558072302874763 0 0 0 0
32026998 -0.3967359150013711 0.0714583550719624 -0.2128201291101121 0.10589039964820193 0 0 0 0
32059944 -0.3966312055932834 0.07151248987108695 -0.21278958451122362 0.1057985327555366 0 0 0 0
32092890 -0.3967826050252353 0.07154235074932186 -0.21286347672493836 0.10600943969177838 0 0 0 0
32125836 -0.3970518125210895 0.07153241639423012 -0.21275771433558993 0.106148117316687 0 0 0 0
32158782 -0.3967303706940788 0.0716942711113959 -0.21262801111198715 0.10623807154849908 0 0 0 0
32191728 -0.3966345974775227 0.07193725742295994 -0.21253924215832606 0.10618300237485641 0 0 0 0
32224674 -0.3964852610226913 0.07177874654430269 -0.2124129388059668 0.10632994258235803 0 0 0 0
32257620 -0.39658157536362126 0.07172643815423166 -0.21245132157928687 0.10643808511795486 0 0 0 0
32290566 -0.3969233593220013 0.07173954567208397 -0.21244711064565105 0.10656509814946837 0 0 0 0
32323512 -0.39639799790246233 0.07199650326266424 -0.21226382551384435 0.10665951589300417 0 0 0 0
32356458 -0.39661415879143214 0.07202924512761243 -0.21229800286989495 0.1066750597542736 0 0 0 0
32389404 -0.39661733862002607 0.07203650704332512 -0.21218449073045623 0.10675709141038227 0 0 0 0
32422350 -0.39683807295734885 0.07208193904606283 -0.2122213128659518 0.1070110748111762 0 0 0 0
32455296 -0.3968005139413307 0.07211121887739319 -0.21214808586369147 0.10710397174749457 0 0 0 0
32488242 -0.39663587847892406 0.07251418926094022 -0.21202801977615346 0.10721525645779574 0 0 0 0
32521188 -0.3964556994369662 0.072507637473549 -0.2120369092114416 0.10722967646314838 0 0 0 0
32554134 -0.39647212641013324 0.07242417605223311 -0.2119034556429908 0.1072519478666408 0 0 0 0
32587080 -0.39666914628397637 0.07272320647442282 -0.21199942457611703 0.1075154516790891 0 0 0 0
32620026 -0.3964109581157387 0.07256816113866497 -0.21184087905980606 0.10754207816250409 0 0 0 0
32652972 -0.3964695197434148 0.07252263846690686 -0.21165044594369212 0.10756289897736276 0 0 0 0
32685918 -0.3968835065428102 0.07258565149903294 -0.21185798254712832 0.10783569835553038 0 0 0 0
32718864 -0.3962789542802458 0.07268620771932169 -0.2115365696633721 0.10777439766605386 0 0 0 0
32751810 -0.3963989409928204 0.07286660344180365 -0.21163813656646777 0.1079326838377335 0 0 0 0
32784756 -0.3966560918643297 0.07315507663326323 -0.21177181646007578 0.10811626362515736 0 0 0 0
32817702 -0.3961659643930941 0.07277393796489096 -0.2113655707464261 0.1080777428491061 0 0 0 0
32850648 -0.39672544072327437 0.07297265647585773 -0.21150744065958904 0.10837248996788179 0 0 0 0
32883594 -0.39620237878524905 0.0732415589702617 -0.21140306518075846 0.10836128002200023 0 0 0 0
32916540 -0.3962195067551602 0.07309814475151258 -0.21140479188530228 0.1084515986355385 0 0 0 0
32949486 -0.3964514121484232 0.07336709471372346 -0.21129574906533075 0.10855580639230175 0 0 0 0
32982432 -0.396400851760987 0.0734593591369009 -0.21126720923419237 0.10873064110473857 0 0 0 0
33015378 -0.3963306070941493 0.073221736582372 -0.21113869178197786 0.10874383182693388 0 0 0 0
33048324 -0.3966713837224136 0.0734932096683354 -0.2111086437499204 0.1088966821648329 0 0 0 0
33081270 -0.3963422819783149 0.07359942816819891 -0.21107271053317023 0.10907847183294979 0 0 0 0
33114216 -0.3962450777348311 0.0738808453103065 -0.21100955914091515 0.10907157353642205 0 0 0 0
33147162 -0.39619171685223176 0.07369982999192644 -0.21093570270477405 0.10905624516913255 0 0 0 0
33180108 -0.3961817582012076 0.0736295082455211 -0.2108127851682263 0.10923452506349618 0 0 0 0
33213054 -0.39659155918652816 0.07393854029938703 -0.21075019799614733 0.10939792743912163 0 0 0 0
33246000 -0.39647733452352274 0.0739870180460249 -0.21079582534096442 0.1095487537059925 0 0 0 0
33278946 -0.3961908522339972 0.0739868863949955 -0.2106093663167103 0.10960943960691544 0 0 0 0
33311892 -0.3959148033490835 0.07420803130553309 -0.21048649182824036 0.10964729838014835 0 0 0 0
33344838 -0.39604904037906147 0.07412063573457629 -0.21061885004319725 0.10971835382203714 0 0 0 0
33377784 -0.39616660963981776 0.074326861274471 -0.21050722268288938 0.10999226957761184 0 0 0 0
33410730 -0.3958758902191191 0.07414384479370857 -0.21045986821243304 0.11003503527387896 0 0 0 0
33443676 -0.3962169582907862 0.07425479586644008 -0.2104586067622838 0.11024065851535346 0 0 0 0
33476622 -0.39635922143810287 0.07456997937571047 -0.21031019949336646 0.11016759826993411 0 0 0 0
33509568 -0.39583946834158207 0.0745238833694975 -0.21033682161590161 0.11038920344658401 0 0 0 0
33542514 -0.3959857186321772 0.07463540483080866 -0.21034405160508762 0.11030377904589114 0 0 0 0
33575460 -0.3961823334493174 0.07470480739907473 -0.2103079050417587 0.11043561553211007 0 0 0 0
33608406 -0.3960579404285028 0.07447972510772458 -0.20997443000344268 0.11053835188797019 0 0 0 0
33641352 -0.39633289721942516 0.07476908262702604 -0.21014041184440987 0.11081388237897723 0 0 0 0
33674298 -0.39578081633136436 0.07480035061742514 -0.21003639413357483 0.11083940123227468 0 0 0 0
33707244 -0.39596126503296153 0.0751361112628416 -0.20986763132207317 0.11080854166882752 0 0 0 0
33740190 -0.3959115550159834 0.07499354326208645 -0.20992621944472836 0.110967784406602 0 0 0 0
33773136 -0.3960488415731022 0.07487930065608198 -0.2097187622398965 0.11100940244241297 0 0 0 0
33806082 -0.39627428724892905 0.07502738306053514 -0.20984142343890305 0.11130648677320429 0 0 0 0
33839028 -0.3959262929462546 0.07546821192538923 -0.2096221239862887 0.11150927397617633 0 0 0 0
33871974 -0.39609597261214585 0.07560140320237332 -0.20959875812242296 0.11125557703569587 0 0 0 0
33904920 -0.39582032312537185 0.07528259662974325 -0.20963625647148673 0.11159383537172256 0 0 0 0
33937866 -0.3958911029681435 0.07538613554120378 -0.2094427618398199 0.11159600902480499 0 0 0 0
33970812 -0.3961566358933137 0.07567093089681419 -0.20937362802198722 0.11166789973411108 0 0 0 0
34003758 -0.39563513691747865 0.07551107196403652 -0.20946914912199588 0.11185952448588041 0 0 0 0
34036704 -0.3959062452767202 0.07598197152440161 -0.20931061547982724 0.11186930268923467 0 0 0 0
34069650 -0.3959719658901561 0.0758616302953151 -0.20931940136743626 0.1119875543592691 0 0 0 0
34102596 -0.39588627620322564 0.07598494148352633 -0.20933156173955994 0.11200656140068604 0 0 0 0
34135542 -0.39577017232123046 0.07577963489650341 -0.20919109804703312 0.1122170787529353 0 0 0 0
34168488 -0.395818932414414 0.07588417349498264 -0.20910244533659314 0.1122961344162919 0 0 0 0
34201434 -0.39588105429946013 0.07584697175176029 -0.20914404631134917 0.11250941986038747 0 0 0 0
34234380 -0.39554456912913727 0.07593521445360396 -0.20902720229479935 0.11250620351382346 0 0 0 0
34267326 -0.3957869528174224 0.07629033077332077 -0.2090815030137648 0.11248476904844593 0 0 0 0
34300272 -0.39574302946614726 0.07621996902935059 -0.20884846975556864 0.1126253039061865 0 0 0 0
34333218 -0.3956582911842599 0.07624064833836756 -0.20884949507890307 0.11280763483655654 0 0 0 0
34366164 -0.3954953762519046 0.07635596151660566 -0.2088380072154428 0.11287724454395097 0 0 0 0
34399110 -0.3955111275187792 0.07646633523398341 -0.20883554587044953 0.11311733303978774 0 0 0 0
34432056 -0.39565101251123597 0.0766115012140285 -0.20875070813515093 0.11306483383453644 0 0 0 0
34465002 -0.3957260182580355 0.07643918762624999 -0.20859492732157797 0.11322761192917 0 0 0 0
34497948 -0.3958587692406461 0.07660310848647008 -0.20862510449621258 0.11335550531776889 0 0 0 0
34530894 -0.3955948395945174 0.0765650239433379 -0.2083919303350556 0.11350591793158452 0 0 0 0
34563840 -0.39564280326077367 0.07677579940281369 -0.20833877274005497 0.11356207281955984 0 0 0 0
34596786 -0.39562885283350846 0.07681661708858513 -0.20834089378189025 0.11369195362917216 0 0 0 0
34629732 -0.39555265713660753 0.07710701901227872 -0.20833472226006206 0.11372858141848374 0 0 0 0
34662678 -0.39557794220360926 0.07706334001097706 -0.2083138932288282 0.1137767898375176 0 0 0 0
34695624 -0.3956991965004998 0.0768752647141076 -0.20818549590998428 0.11396406604930646 0 0 0 0
34728570 -0.39577339432129804 0.07700028419576914 -0.20821318340713466 0.11410891374915107 0 0 0 0
34761516 -0.3958344009631695 0.07722055287276454 -0.20809590808828565 0.11409591122050923 0 0 0 0
34794462 -0.39530338995731573 0.07732786124057112 -0.20807646011477038 0.11415848970605592 0 0 0 0
34827408 -0.3955269460780277 0.07756972691271638 -0.207981683968253 0.1142509112737175 0 0 0 0
34860354 -0.39557879966472337 0.07761642198215925 -0.20793095207539963 0.11439451731157585 0 0 0 0
34893300 -0.3955629204359065 0.07759341903471995 -0.20785697309960977 0.11449609224026185 0 0 0 0
34926246 -0.3956370039110881 0.07750730983419406 -0.2077058727520046 0.11454207513572354 0 0 0 0
34959192 -0.39531270998427526 0.07736264935088284 -0.20765202229821256 0.11473785417571213 0 0 0 0
34992138 -0.3954185699458269 0.07784893617801544 -0.2075775962173546 0.1149557105100205 0 0 0 0
35025084 -0.3954232698263902 0.07801196168200819 -0.20773625896086895 0.11494280232396313 0 0 0 0
35058030 -0.3954931118797924 0.07786493066792824 -0.2075687925737654 0.11492568538842739 0 0 0 0
35090976 -0.3952965731177627 0.07776995181730109 -0.20745460705416452 0.1152109805411218 0 0 0 0
35123922 -0.39561611343112973 0.0779502212124393 -0.20753691818254713 0.11521757486471414 0 0 0 0
35156868 -0.39507007398034366 0.0780494349538359 -0.20732810511993444 0.11512580903198325 0 0 0 0
35189814 -0.3954429893643816 0.07848089882558101 -0.20738173280174052 0.11543271504251122 0 0 0 0
35222760 -0.395413279666303 0.07830877083309226 -0.2071350756963009 0.11552387774896526 0 0 0 0
35255706 -0.3954703620217899 0.07817470260871946 -0.20722673748006645 0.11562040266774744 0 0 0 0
35288652 -0.3954609757821304 0.078019623589754 -0.20702688368080854 0.11570414646328912 0 0 0 0
35321598 -0.39483589070990105 0.0785178716185556 -0.20699067210975067 0.11569748875605695 0 0 0 0
35354544 -0.39501744800274696 0.07843332741927972 -0.20706285246640832 0.11595074515896249 0 0 0 0
35387490 -0.3952930313622719 0.07838514271622025 -0.2069568755998085 0.1159543453338205 0 0 0 0
35420436 -0.3954726595089089 0.07881998436039435 -0.20692408644269195 0.11619177427781846 0 0 0 0
35453382 -0.394981178175296 0.07882160347242372 -0.20681910004333295 0.11611641523869051 0 0 0 0
35486328 -0.39537412522707116 0.07876540074722092 -0.20678840746578947 0.11617325199438569 0 0 0 0
35519274 -0.3950825405216748 0.07878354855653201 -0.20667046225667227 0.1164481296466568 0 0 0 0
35552220 -0.39512191911252686 0.07880512241318101 -0.2066260030339146 0.11646445754997375 0 0 0 0
35585166 -0.3951523829308054 0.07938956333637155 -0.20650850064373313 0.1165737741099013 0 0 0 0
35618112 -0.39528267265559036 0.07915373807571235 -0.20642980484557474 0.1168065628654793 0 0 0 0
35651058 -0.39522198101411693 0.07906342639794188 -0.20637769078236176 0.11675029607306409 0 0 0 0
35684004 -0.3953907372356205 0.0790597054822616 -0.2064426375739245 0.11687193948523118 0 0 0 0
35716950 -0.39515756437788113 0.0792787977956208 -0.20621631060063017 0.11704957303556389 0 0 0 0
35749896 -0.3950343706780703 0.07969150712571174 -0.2062417680789231 0.11697495068754014 0 0 0 0
35782842 -0.39504215648098606 0.07935972947785076 -0.20622988318715765 0.11727587640155887 0 0 0 0
35815788 -0.39524726738122684 0.0794638375357853 -0.20607378375991664 0.11722465801577732 0 0 0 0
35848734 -0.3948792326582575 0.07951628661198817 -0.2060010047379993 0.11728531351545682 0 0 0 0
35881680 -0.3953601142351823 0.07973986288028001 -0.20608433779786306 0.1174725820748336 0 0 0 0
35914626 -0.3949200945969525 0.07984242241130936 -0.20602154722134344 0.11763505389097072 0 0 0 0
35947572 -0.3950355192124656 0.08016101808346861 -0.20596405880217608 0.11762691351619553 0 0 0 0
35980518 -0.39491994333434693 0.0800860203536372 -0.20587302317687287 0.11777033619138036 0 0 0 0
36013464 -0.3948938611693032 0.07983760331753184 -0.2056889810739681 0.11791118609795982 0 0 0 0
36046410 -0.3948439177579885 0.07972293923117764 -0.20567203508985996 0.11789726760671869 0 0 0 0
36079356 -0.39487261907521914 0.08013243189668817 -0.20561288980679485 0.118028592386062 0 0 0 0
36112302 -0.3947978749871305 0.08009485798693286 -0.20559339458483164 0.11815003018374391 0 0 0 0
36145248 -0.3946725741512092 0.08035407775166355 -0.2055081321593229 0.11837783613113988 0 0 0 0
36178194 -0.3949470579411455 0.08051047727943356 -0.20561066717083126 0.11845598915391967 0 0 0 0
36211140 -0.3950652848972998 0.08047811869568554 -0.2052963265782363 0.11847192525835575 0 0 0 0
36244086 -0.39483114412989595 0.08028972565715076 -0.20534303492340764 0.11863192831879718 0 0 0 0
36277032 -0.39489856086445885 0.08028508990579714 -0.20524058609130402 0.11863873231989162 0 0 0 0
36309978 -0.3945852683184146 0.08064430692508348 -0.2053295035702835 0.11863486511531084 0 0 0 0
36342924 -0.39488181973744274 0.08080682630938983 -0.20511855787104313 0.11889259536465231 0 0 0 0
36375870 -0.39500428831968665 0.080879877054678 -0.20506659796504081 0.11896872157034787 0 0 0 0
36408816 -0.39486738532938453 0.0808969110947189 -0.2050314381638258 0.11905497774125623 0 0 0 0
36441762 -0.3945323387485638 0.08081219202787199 -0.2049397529783281 0.1192251224099924 0 0 0 0
36474708 -0.39453861020938275 0.08093348929979019 -0.20491968053872292 0.11918831904448263 0 0 0 0
36507654 -0.3947914822443994 0.08114076954049851 -0.20499876644705575 0.11929480851557892 0 0 0 0
36540600 -0.39453326917154424 0.08137308580494043 -0.2047824090811397 0.11946607921346906 0 0 0 0
36573546 -0.3947228795848009 0.08120047289310772 -0.2046898351205734 0.11955012563857687 0 0 0 0
36606492 -0.3946316004488197 0.08109504513523803 -0.2046473179570661 0.11964413357733097 0 0 0 0
36639438 -0.39442537614971274 0.08097562954533011 -0.2046230035163519 0.11974573870194793 0 0 0 0
36672384 -0.39432491554088933 0.08147362429155564 -0.20457501028188693 0.11994239572873726 0 0 0 0
36705330 -0.3945631736717073 0.08157047743039211 -0.20461380543833277 0.11996942026053252 0 0 0 0
36738276 -0.3946017839389709 0.08165396775414553 -0.20441836906227462 0.11998751470774646 0 0 0 0
36771222 -0.39474680186362626 0.08166019606427302 -0.20434691640927066 0.12016537300062623 0 0 0 0
36804168 -0.39466203623828217 0.0814132049593112 -0.20421571473482705 0.12027880685263037 0 0 0 0
36837114 -0.3942556342055974 0.08168069666929197 -0.20425489729563806 0.12025215437340869 0 0 0 0
36870060 -0.3945721211921299 0.08184920971087306 -0.20416503412208362 0.12037568572406898 0 0 0 0
36903006 -0.394532267492331 0.08182349361463323 -0.20412919190660814 0.120567130246049 0 0 0 0
36935952 -0.3945927048931209 0.08213325061203681 -0.2040424200814109 0.1207222508529043 0 0 0 0
36968898 -0.3943912020906987 0.0820659031339655 -0.20393995192747563 0.12065631175976847 0 0 0 0
37001844 -0.39437105686365875 0.0823852143344452 -0.20400703009772497 0.12084094265410064 0 0 0 0
37034790 -0.39444863086592774 0.0822898443539039 -0.2039702955206897 0.12083540823017933 0 0 0 0
37067736 -0.39446093988101677 0.08205138308449976 -0.20379065542883978 0.12095657062730376 0 0 0 0
37100682 -0.39473812891163074 0.08243073898527628 -0.203723315681794 0.12124142367512777 0 0 0 0
37133628 -0.3942007994735998 0.08236676342791317 -0.20366315847023794 0.12106623535941682 0 0 0 0
37166574 -0.39457750739041764 0.08268475000298316 -0.20373244878828134 0.12127848497856009 0 0 0 0
37199520 -0.3945874641857815 0.08268987052379208 -0.203459269024514 0.12153139433371062 0 0 0 0
37232466 -0.39459399025392605 0.08242217083661153 -0.20356385380177935 0.1215633199629162 0 0 0 0
37265412 -0.39414739380333935 0.0827601718158319 -0.20333235761232282 0.12147105241605884 0 0 0 0
37298358 -0.3944028451092841 0.08314862657454676 -0.20339714974255463 0.12181688879328004 0 0 0 0
37331304 -0.394413928886699 0.0829899202682929 -0.20327148681499288 0.12182828112618944 0 0 0 0
37364250 -0.39441629809216583 0.08312928408622529 -0.20323859423618845 0.12196324418532241 0 0 0 0
37397196 -0.39435335316235587 0.08280900852486292 -0.20320045777204798 0.1220705143991988 0 0 0 0
37430142 -0.39388998233065936 0.08301859818483234 -0.2031248201568335 0.12195399118734757 0 0 0 0
37463088 -0.3941112611743358 0.08321341742283432 -0.2030747407359833 0.12213099482759876 0 0 0 0
37496034 -0.3943261336604412 0.08356914846335475 -0.20290426858769106 0.12234984572964555 0 0 0 0
37528980 -0.3943251549200776 0.08342650883022867 -0.20295433811638627 0.12240512236124813 0 0 0 0
37561926 -0.3941129054411458 0.08317264423537993 -0.20273361108618965 0.12247693667787143 0 0 0 0
37594872 -0.3942037818201807 0.0833830472001173 -0.20263085416551965 0.12250579746795318 0 0 0 0
37627818 -0.39413156876789157 0.08331487669830304 -0.20271416850684137 0.1226858321882112 0 0 0 0
37660764 -0.3939302236675103 0.08345365681702985 -0.20274178582607882 0.12268000211357062 0 0 0 0
37693710 -0.39435188290246986 0.0839502770818364 -0.20262589070668702 0.12282389587798116 0 0 0 0
37726656 -0.3940869489243127 0.08350047237180803 -0.20246758316985525 0.1229258645871488 0 0 0 0
37759602 -0.39409807952396636 0.08376982273714266 -0.20242897014357736 0.12302077327981706 0 0 0 0
37792548 -0.3941439132959758 0.08368695171776232 -0.20232682535733512 0.12314020800327904 0 0 0 0
37825494 -0.3942252592727839 0.08407546903431062 -0.202364977357462 0.12347784287901925 0 0 0 0
37858440 -0.39401540305045374 0.08402194295356227 -0.20222396028086043 0.12328911997561809 0 0 0 0
37891386 -0.3941787774508013 0.0842336534807484 -0.20227562452886072 0.12349697806139129 0 0 0 0
37924332 -0.39382519424963836 0.08389411024481783 -0.2020159034340763 0.12349397777124436 0 0 0 0
37957278 -0.39425583804363845 0.08420645579264215 -0.20206214396826136 0.1236604767197515 0 0 0 0
37990224 -0.3939517554093143 0.08409416613526503 -0.2019434592776834 0.1237219710461353 0 0 0 0
38023170 -0.3941696366050234 0.08429162885058443 -0.2019515908375151 0.12392292222926905 0 0 0 0
38056116 -0.3941782505923277 0.08471090031170667 -0.20196575776628203 0.12417833581412083 0 0 0 0
38089062 -0.39386659097796056 0.08467328112499552 -0.20178602734874676 0.12405291668652059 0 0 0 0
38122008 -0.3937690291793788 0.0846899309761255 -0.20167117834226136 0.12410715474515445 0 0 0 0
38154954 -0.39392752894565397 0.08470893093725038 -0.20169538918975413 0.12412922783236856 0 0 0 0
38187900 -0.3940844922117715 0.08502526563685905 -0.20160841053025963 0.12435105113616017 0 0 0 0
38220846 -0.3937869239778813 0.08467222317778651 -0.20148945250870576 0.1243302905987063 0 0 0 0
38253792 -0.3938357829701619 0.08476023169215381 -0.20150512954837302 0.12446830864009051 0 0 0 0
38286738 -0.39370252226326036 0.08476859770554626 -0.20123734254879416 0.1245083875849312 0 0 0 0
38319684 -0.39377753389911646 0.08481251926031307 -0.20117224914746198 0.12463717963966409 0 0 0 0
38352630 -0.39404511118354746 0.08517545535478563 -0.20124874239048354 0.12493103825574198 0 0 0 0
38385576 -0.39398024440114043 0.08507074961060397 -0.2012690636994269 0.1249984651721211 0 0 0 0
38418522 -0.39390256438337484 0.0851362328311653 -0.2012138740129871 0.1250398083343258 0 0 0 0
38451468 -0.3937795966228579 0.08538933805480121 -0.2010727850985205 0.12513881191964632 0 0 0 0
38484414 -0.39360828879337645 0.08542176125029459 -0.20110128932740154 0.125148078495761 0 0 0 0
38517360 -0.39352353624608616 0.08532465755141526 -0.20085334134364463 0.12524573472540376 0 0 0 0
38550306 -0.3937334577394405 0.08525180002016751 -0.20085031249869026 0.12533760012607478 0 0 0 0
38583252 -0.3934731732035871 0.08569242015839765 -0.2008768476910185 0.1253223780727022 0 0 0 0
38616198 -0.39375642963024515 0.08605044229855867 -0.2009435047192959 0.125714588904942 0 0 0 0
38649144 -0.39356231607962605 0.085446603785867 -0.20061484552499606 0.12558023348606598 0 0 0 0
38682090 -0.39382577733185165 0.08568272835474396 -0.20066273519643066 0.12579953670541402 0 0 0 0
38715036 -0.39364961479105814 0.0857708375810289 -0.20056317842366167 0.1258685387977242 0 0 0 0
38747982 -0.3933936214643994 0.08587762343089347 -0.20048897020508136 0.12588597159616696 0 0 0 0
38780928 -0.39370401100271324 0.08624543415942297 -0.20043458003749703 0.12611501400534655 0 0 0 0
38813874 -0.39381393554882155 0.08655030328730985 -0.20050251783437817 0.1262084884862237 0 0 0 0
38846820 -0.3934272020861391 0.0861393560746274 -0.20015008318498717 0.1262207662255657 0 0 0 0
38879766 -0.39352614379888184 0.08622947585701181 -0.20027805305854146 0.1263768206634183 0 0 0 0
38912712 -0.3934872723460948 0.08614647689427347 -0.20017404939951677 0.12642839084141327 0 0 0 0
38945658 -0.3932752359955169 0.08637103114328826 -0.20007373927771846 0.12642298983272843 0 0 0 0
38978604 -0.39342368648377235 0.08651309442764828 -0.2000682511399938 0.1266316110384976 0 0 0 0
39011550 -0.39350466422401725 0.0864105283501387 -0.2000345770752011 0.1268123388256353 0 0 0 0
39044496 -0.3934909634719527 0.08649707993122233 -0.19993082993478797 0.12681282099637248 0 0 0 0
39077442 -0.3933411105866643 0.08687584086991644 -0.19991438112445695 0.126971460876793 0 0 0 0
39110388 -0.39330143649609767 0.08683392706539846 -0.1997476824107528 0.12693420343991724 0 0 0 0
39143334 -0.3934942332497805 0.08656932711770254 -0.19966225580238747 0.12701510691713344 0 0 0 0
39176280 -0.3933983988649579 0.08680612083902851 -0.19972440967125993 0.12731292208334163 0 0 0 0
39209226 -0.39305518233964565 0.08685788238065999 -0.19959122475493862 0.12718034695040129 0 0 0 0
39242172 -0.3933966339148807 0.08712193029089763 -0.19954879711862478 0.1272376418706515 0 0 0 0
39275118 -0.3934531910827249 0.08707839430119928 -0.1994985742212999 0.12754882122570949 0 0 0 0
39308064 -0.3933974097075233 0.08700672050111027 -0.1994640419957134 0.12751225567741328 0 0 0 0
39341010 -0.39337981600724825 0.08721956971845923 -0.19936243233748188 0.1277084590481248 0 0 0 0
39373956 -0.3933493325107568 0.08726384411687083 -0.1991905321275309 0.12779531468398012 0 0 0 0
39406902 -0.393237416924412 0.08753773425397103 -0.19909639447453395 0.12788824185489758 0 0 0 0
39439848 -0.3933813658958671 0.08785971996589369 -0.19918480973310276 0.12787047623594225 0 0 0 0
39472794 -0.3930322281430597 0.0875734550303728 -0.19894657439689994 0.12809430760569412 0 0 0 0
39505740 -0.39331931227762795 0.08746551003951544 -0.1989016960907564 0.12802916470406 0 0 0 0
39538686 -0.39327139040982284 0.0878397336818254 -0.1988431138331231 0.1282811316694611 0 0 0 0
39571632 -0.3930325695294035 0.08774540789739171 -0.19892836475442122 0.12828884989787095 0 0 0 0
39604578 -0.39331688460197256 0.08800887192976375 -0.19884355210554655 0.12840107563287229 0 0 0 0
39637524 -0.3929929897238529 0.08791920702475906 -0.19871627921699864 0.12851273481248712 0 0 0 0
39670470 -0.3932853259061776 0.08778600870260345 -0.19866878901190319 0.1285072493482033 0 0 0 0
39703416 -0.39321519798979554 0.0880910619136565 -0.19869436356888007 0.1287447579270847 0 0 0 0
39736362 -0.392790695254613 0.08817616363178922 -0.19853809917782156 0.12872590777096998 0 0 0 0
39769308 -0.39312424011172475 0.0883165731884873 -0.19859192046772833 0.1288967331877726 0 0 0 0
39802254 -0.39308128651851104 0.08822757974192827 -0.19839885721491035 0.12912784527133997 0 0 0 0
39835200 -0.393101509262106 0.08803515927936766 -0.1983919508232364 0.1289574931232155 0 0 0 0
39868146 -0.39314595464585317 0.08847190914331357 -0.19824140573990343 0.12928035167160737 0 0 0 0
39901092 -0.39273582655213973 0.08860333478970836 -0.19822156280185751 0.12923345381525872 0 0 0 0
39934038 -0.39304537997192884 0.08863490397301554 -0.19818913154806883 0.12930070373074617 0 0 0 0
39966984 -0.3929100731949897 0.08840026924031119 -0.1980636738688467 0.12938249672615204 0 0 0 0
39999930 -0.393026901389201 0.08854982888254613 -0.1980141501923092 0.1295394742484922 0 0 0 0
