# HZ S RI R 50
300000 -0.5658780989934422 -0.027311107617693803 0.0005852313430284037 -0.0004599466923737134 0 0 0 0
332946 -0.5483626350125074 0.05084793836972808 0.0006723338466091799 -0.0003375760426093748 0 0 0 0
365892 -0.5078272591424838 0.0945122667514867 0.000807534934517532 -0.0003212974018125557 0 0 0 0
398838 -0.4686806576848605 0.11116823647308087 0.0009026363375982219 -0.0003796540186025532 0 0 0 0
431784 -0.459751434423812 0.0966888524497432 0.0013316362001012548 0.0003385070269364006 0 0 0 0
464730 -0.43576288151695547 0.09628065040824833 0.0014097127856844227 0.00034625124369196516 0 0 0 0
497676 -0.4194007841713829 0.09319872337078908 0.0014622687592466181 0.0003076011284926845 0 0 0 0
530622 -0.40668506735741533 0.08894374109937402 0.0015028798905996994 0.000284367468382932 0 0 0 0
563568 -0.39715843013390967 0.08524613678676687 0.0015528673355540332 0.00026554718228814154 0 0 0 0
596514 -0.3888456711225863 0.08143502506593468 0.001565824956832629 0.00023744995468713356 0 0 0 0
629460 -0.38239913157210215 0.07740354746423558 0.0015785306274434972 0.00025107008505902953 0 0 0 0
662406 -0.37706651887420023 0.07375266610777965 0.001590084462224661 0.0002342023442991242 0 0 0 0
695352 -0.3726762195157226 0.07097761763046687 0.0016151532177692829 0.0001844059203151854 0 0 0 0
728298 -0.3688247668700358 0.0675057003902785 0.0016327648132918073 0.00022158030872410962 0 0 0 0
761244 -0.3651581713973922 0.06456909843450943 0.001636580976817294 0.00014419517888802983 0 0 0 0
794190 -0.3623839881278107 0.06192813754954269 0.0016592247385464449 0.00018006783744118618 0 0 0 0
827136 -0.359799495629586 0.05954375271844831 0.0016678674985593951 0.00016089120659249826 0 0 0 0
860082 -0.3577161573474802 0.05715896983554683 0.001649762471891764 0.0001383140447730847 0 0 0 0
893028 -0.35574288190633024 0.05522074235366722 0.0016751174998243493 0.00012798200954195984 0 0 0 0
925974 -0.3539938245182077 0.05317286531975746 0.001672081557633735 0.00010961599298551503 0 0 0 0
958920 -0.3527324107106632 0.050945416384640556 0.001678591715521347 8.396891090604801e-05 0 0 0 0
991866 -0.3514698534317665 0.04935174396924722 0.0017101372620408786 0.00010607765389637942 0 0 0 0
1024812 -0.34992185041955176 0.04771990916926726 0.001709632538734342 9.157858212321806e-05 0 0 0 0
1057758 -0.3488797423845163 0.04622956926150314 0.0017094442701525605 8.142314534321629e-05 0 0 0 0
1090704 -0.3482122420532034 0.044714762524765 0.001694400597912665 5.4766858956011445e-05 0 0 0 0
1123650 -0.34702317673820415 0.04337108184310247 0.0017291634937304646 4.163104135155604e-05 0 0 0 0
1156596 -0.3461408272954719 0.04225113690964877 0.0017551287825284334 6.086097294786364e-05 0 0 0 0
1189542 -0.3452471262955191 0.040624188738676605 0.0017207069380372317 1.9857360292565476e-05 0 0 0 0
1222488 -0.34459746048769213 0.03937634752232086 0.0017590131817387573 3.6590118828786295e-05 0 0 0 0
1255434 -0.3446047872107861 0.0382308277805883 0.0017581379403970806 1.871807286132125e-05 0 0 0 0
1288380 -0.34377144297710627 0.037068960015094486 0.0017425833516177408 -3.206890876748006e-05 0 0 0 0
1321326 -0.3428202768206544 0.03623917227410931 0.0017718435474621077 -1.998812664396498e-05 0 0 0 0
1354272 -0.34277741708071136 0.03536754172167296 0.0017916635820575436 -3.2241527471174274e-05 0 0 0 0
1387218 -0.3421137825627934 0.03426494592556363 0.0017637684372138207 -1.4638181310585795e-05 0 0 0 0
1420164 -0.3418173884979527 0.03345517773623234 0.0017681742711494325 -4.2892139647893735e-05 0 0 0 0
1453110 -0.34157080657697764 0.0323350281995008 0.0018103372828381157 -5.855189116297779e-05 0 0 0 0
1486056 -0.3418130181263527 0.031441523618571575 0.0017891764810959124 -7.362612302362548e-05 0 0 0 0
1519002 -0.34124282221517654 0.03104252392227446 0.0017843477403964604 -9.25532414167434e-05 0 0 0 0
1551948 -0.34092302748503917 0.030319517965312213 0.0017891276455730416 -8.536118783414491e-05 0 0 0 0
1584894 -0.3408300950319551 0.029527693699328516 0.0018190113202241711 -0.00010677108814589978 0 0 0 0
1617840 -0.34054517896504094 0.028662392292975 0.0018325547277677932 -0.0001341754851960568 0 0 0 0
1650786 -0.34056950882310527 0.028275706254233902 0.0018013446215832897 -0.00013153027194616013 0 0 0 0
1683732 -0.34048151681876737 0.027289428696069373 0.0018309657224623989 -0.00011793325028477721 0 0 0 0
1716678 -0.3399985256197156 0.026882812278451775 0.0018251680308584823 -0.00013114372005270067 0 0 0 0
1749624 -0.3399573876923704 0.02645075104612056 0.0018508128303366706 -0.00016121943838735183 0 0 0 0
1782570 -0.3399901802992288 0.02607515317668592 0.0018410449057168073 -0.00017376714068181802 0 0 0 0
1815516 -0.3398365457819771 0.025482875966875033 0.0018397099656328178 -0.00020167459844457004 0 0 0 0
1848462 -0.33967087334037877 0.024546610688368505 0.001818644688176972 -0.0002287702652691178 0 0 0 0
1881408 -0.33951855964271926 0.02385506376158792 0.0018665114168836291 -0.0002344174426412776 0 0 0 0
1914354 -0.33961898609792246 0.023912548820313625 0.0018429953432195654 -0.00026756078759114445 0 0 0 0
1947300 -0.33969980710277337 0.023558734243342875 0.0018442225280170083 -0.00025136106437883296 0 0 0 0
1980246 -0.33959732493795663 0.023114461016678106 0.0018556621152013904 -0.00030752885130729815 0 0 0 0
2013192 -0.3394132691905902 0.02262887785305823 0.001847456055312867 -0.0003136153403947537 0 0 0 0
2046138 -0.33947318474385946 0.022364371139600256 0.0018722196448635023 -0.0003077264432974393 0 0 0 0
2079084 -0.33934618648020304 0.022179064590314553 0.0018364332764968171 -0.00031695470884357844 0 0 0 0
2112030 -0.33927309213943885 0.021315193927901644 0.0018758567141084314 -0.0003402383199601407 0 0 0 0
2144976 -0.33957524288812646 0.021530616444351763 0.0018524708682032174 -0.0003670902565791441 0 0 0 0
2177922 -0.3397477536191977 0.020990648565722494 0.0018464891800184992 -0.00041143233319857576 0 0 0 0
2210868 -0.3394819962984553 0.02086049668839511 0.0018764446002094125 -0.0003905254493308601 0 0 0 0
2243814 -0.3395928663100711 0.020341783560848144 0.0018640748488744936 -0.0004227737758449238 0 0 0 0
2276760 -0.33952094712819925 0.02008515050101803 0.0018549277643526622 -0.0004430058455140741 0 0 0 0
2309706 -0.3397377351256305 0.020022241953287116 0.0018703555314015625 -0.00047533797215301975 0 0 0 0
2342652 -0.33958848625970806 0.019680294679717544 0.0018328611743004492 -0.0004801570736674511 0 0 0 0
2375598 -0.3393534365841807 0.01946851191055901 0.0018349500676415208 -0.0005174959022724528 0 0 0 0
2408544 -0.3394613408806779 0.019278506616157282 0.0018273235718752334 -0.0005333686779411213 0 0 0 0
2441490 -0.33940359608025256 0.019250773268960266 0.0018106492616371721 -0.0005545851227298527 0 0 0 0
2474436 -0.339591626887317 0.018793312132761874 0.0018064053408241411 -0.0005595064682921365 0 0 0 0
2507382 -0.3398161641271696 0.018659810743676477 0.0017941909021967767 -0.0005995956728945496 0 0 0 0
2540328 -0.3393030395519767 0.018582454529170057 0.001795749507881873 -0.0006164236252387469 0 0 0 0
2573274 -0.3393248943041072 0.018536590989873314 0.0017949975031133728 -0.000627953233503412 0 0 0 0
2606220 -0.3396157744675167 0.018331300107523325 0.0017750753762345887 -0.0006744483541261454 0 0 0 0
2639166 -0.3397331807287922 0.018061327753717497 0.001729150275977203 -0.0006944812362679206 0 0 0 0
2672112 -0.339295606541004 0.017709982085357054 0.0017677915887723322 -0.0007027704566570929 0 0 0 0
2705058 -0.3396916889046731 0.017792505031756927 0.0017196621865295716 -0.0007190236421961101 0 0 0 0
2738004 -0.33979671732411465 0.017747235224685205 0.0017113110731861174 -0.0007452152843193045 0 0 0 0
2770950 -0.33977068480914996 0.01772034015686391 0.0017027270444689448 -0.0007435052789301282 0 0 0 0
2803896 -0.33963582405723386 0.017620337600218805 0.0016523624045434743 -0.0008056435854470903 0 0 0 0
2836842 -0.339801015974979 0.017125910829122765 0.0016346712551032038 -0.0008182639788871888 0 0 0 0
2869788 -0.3393817893453462 0.017114128628992368 0.0016337480592509607 -0.0008422435550041 0 0 0 0
2902734 -0.33986413643680335 0.017239900521489222 0.0016033870101184939 -0.00083918029261308 0 0 0 0
2935680 -0.3397032766179089 0.01713354013580447 0.0015695317107457085 -0.0008268051716085826 0 0 0 0
2968626 -0.339660084514782 0.01730395783377098 0.0015452944554291011 -0.0008504323011284088 0 0 0 0
3001572 -0.3396057577406847 0.017252071330154793 0.0015487334258838983 -0.0008858219768383758 0 0 0 0
3034518 -0.33951807069523526 0.01687907793470284 0.0015344614459735504 -0.0009035834631132025 0 0 0 0
3067464 -0.33992058035168243 0.017165500135471853 0.0014838144603599784 -0.0009003421671195541 0 0 0 0
3100410 -0.3398987804525479 0.017118951375322884 0.0014650676013352672 -0.0009099287594112439 0 0 0 0
3133356 -0.33941132117127754 0.016868393271533416 0.0014438136770070769 -0.0009464110859927891 0 0 0 0
3166302 -0.33949543430141005 0.016550403758909853 0.0014048653074293113 -0.000950995949273973 0 0 0 0
3199248 -0.33956068269881173 0.016814422844911674 0.001371538150490531 -0.0009223252461346169 0 0 0 0
3232194 -0.33976980700934767 0.01703507541917656 0.0013692500170885147 -0.0009397255822752918 0 0 0 0
3265140 -0.33960288173726777 0.017039871774757756 0.0013211927137498087 -0.0009359121156882711 0 0 0 0
3298086 -0.339617850988974 0.016581366663881648 0.0013100770199981433 -0.0009380293326307016 0 0 0 0
3331032 -0.3395609936377309 0.016567250062643413 0.001258104031811813 -0.000945838768193147 0 0 0 0
3363978 -0.339533744933247 0.016493979209440478 0.0012248511131778405 -0.0009456390445530652 0 0 0 0
3396924 -0.3394213737209092 0.016840095563685722 0.0012380456688889192 -0.0009428756753935675 0 0 0 0
3429870 -0.3393918794502665 0.016878816309736294 0.0011922672558396957 -0.0009677608873848875 0 0 0 0
3462816 -0.3393441276390957 0.016827952751195672 0.0011574518457713966 -0.0009569536404903357 0 0 0 0
3495762 -0.3396024005711559 0.016686321287788155 0.0011379863289139194 -0.0009317382768945505 0 0 0 0
3528708 -0.3393525045086192 0.016477127365404555 0.0011292809812333536 -0.0009414771750512782 0 0 0 0
3561654 -0.3394649530114298 0.016409592018261716 0.0010862738988271004 -0.0009001609731595638 0 0 0 0
3594600 -0.3394134145323393 0.016653121103045766 0.0010806056917722802 -0.0009050077047861683 0 0 0 0
3627546 -0.33887286519175225 0.016683174347425955 0.001028553858992519 -0.0009107347119066134 0 0 0 0
3660492 -0.33931330388959696 0.016831540216550974 0.0010378451651179067 -0.00087775122789753 0 0 0 0
3693438 -0.33905690164862523 0.01655717867785318 0.0010085558161779852 -0.000893490607803811 0 0 0 0
3726384 -0.33882161085610313 0.016420169683255915 0.0009654633420151065 -0.0008778040510322786 0 0 0 0
3759330 -0.3390733943494685 0.01637790127545227 0.0009390163072582309 -0.0008849667556689365 0 0 0 0
3792276 -0.3387469466558911 0.01631592956229463 0.0009534462804253527 -0.0008589967545872834 0 0 0 0
3825222 -0.3390089132648166 0.0163208723467438 0.0009191832849103542 -0.0008136209593069422 0 0 0 0
3858168 -0.33880757129923855 0.016646371950281878 0.0009361999213415795 -0.0008516041613254155 0 0 0 0
3891114 -0.33862658627644127 0.01651898835719916 0.0008757939385994778 -0.000833234399861536 0 0 0 0
3924060 -0.33872235489658403 0.016254505785153053 0.0009012134449619227 -0.0008224829484056418 0 0 0 0
3957006 -0.3386728193384626 0.0161393677763333 0.000865481068799533 -0.0007713747649815359 0 0 0 0
3989952 -0.3384178438046778 0.016175702111924192 0.000850068691414022 -0.0007921504927363112 0 0 0 0
4022898 -0.33875036950515985 0.016388367711900474 0.0008236546904461274 -0.0007421762831600021 0 0 0 0
4055844 -0.33836931004352017 0.016330601132434338 0.0008266431175705234 -0.0007594538103910261 0 0 0 0
4088790 -0.33853121463389274 0.016506735150609717 0.0008208211884297865 -0.0007320086118652573 0 0 0 0
4121736 -0.3382988026737141 0.015898552145192705 0.0008082808782066729 -0.0007093914544292803 0 0 0 0
4154682 -0.33834747468151855 0.016196143160755964 0.0008133113707735273 -0.0007343061954137977 0 0 0 0
4187628 -0.33836837624461 0.016178095877790444 0.0007881657106007765 -0.0006749279158345102 0 0 0 0
4220574 -0.3384068775955831 0.016145261205680703 0.000772038074626864 -0.0006554471879934194 0 0 0 0
4253520 -0.3380275819321009 0.016261635871936204 0.0007382691598139452 -0.0006724361672830378 0 0 0 0
4286466 -0.3382461989830171 0.016501753125086168 0.0007369144904211333 -0.0006379953133273606 0 0 0 0
4319412 -0.33812334558735896 0.016408839158952523 0.0007735880433289893 -0.0006056063480918576 0 0 0 0
4352358 -0.3381104387285156 0.016102706130932818 0.0007201432194032833 -0.0006037907738175633 0 0 0 0
4385304 -0.3380102877361721 0.015811712836512 0.0007474183190886707 -0.0005926480012925096 0 0 0 0
4418250 -0.33798475912833537 0.016142822930018952 0.0007210241041470111 -0.0006234963102003028 0 0 0 0
4451196 -0.33780653281168277 0.015979833031351504 0.0007113644929774282 -0.000587764942434725 0 0 0 0
4484142 -0.3378427724372013 0.016286049193792417 0.0007323572616044133 -0.0005567766448760683 0 0 0 0
4517088 -0.337990827578242 0.01607323957278819 0.0007285327149525733 -0.0005672600120953478 0 0 0 0
4550034 -0.33754620924115214 0.015982016098350423 0.000722673635787315 -0.0005550175797044162 0 0 0 0
4582980 -0.3378919558923658 0.01631536527762784 0.0006982414700876661 -0.000541260696364003 0 0 0 0
4615926 -0.33741726554200263 0.015562650687421395 0.0007083748904928815 -0.0005309261513286831 0 0 0 0
4648872 -0.3376362230249943 0.01592783967872072 0.0006812111950122403 -0.0005229252936824655 0 0 0 0
4681818 -0.3376491816049641 0.016016696473186823 0.0006784257312248055 -0.0005242696326828154 0 0 0 0
4714764 -0.3374604290016909 0.01583907173523202 0.0006874070979729777 -0.0005006880668277057 0 0 0 0
4747710 -0.3377038395048355 0.016018753908422688 0.000683765284539333 -0.00048736813377389725 0 0 0 0
4780656 -0.33717057812427337 0.016048509405488607 0.0006568715899718159 -0.0004692493569350779 0 0 0 0
4813602 -0.33747724659705314 0.015759551183868962 0.0006992005298402912 -0.00047594266538148985 0 0 0 0
4846548 -0.3373099282550043 0.015810428104093138 0.0006708630653941925 -0.00041254550121527816 0 0 0 0
4879494 -0.3372538510411574 0.015796427771740562 0.0006693130918384017 -0.00042964620027647065 0 0 0 0
4912440 -0.3375858416150712 0.01590671917255853 0.0006995504359006604 -0.0004364985326002482 0 0 0 0
4945386 -0.3371192063567548 0.015965323573264585 0.0006602329928985966 -0.00040152964299680453 0 0 0 0
4978332 -0.33712784144323765 0.015683585946954483 0.0006631109967985583 -0.0004005359638296734 0 0 0 0
5011278 -0.33725865595363197 0.015722512942428445 0.0006830286076665748 -0.00041732987054842466 0 0 0 0
5044224 -0.3371002176699337 0.015825624804798617 0.0006684557568282651 -0.00041780677147175015 0 0 0 0
5077170 -0.33702725581381354 0.015777233518568554 0.0006802437914646955 -0.00039344530279235 0 0 0 0
5110116 -0.3373177300466334 0.015724146276544983 0.0006887347866393504 -0.0003842581481120636 0 0 0 0
5143062 -0.3367675607507562 0.015588710281736097 0.000689978849940646 -0.00035789030498624777 0 0 0 0
5176008 -0.33678028596391085 0.015625036059063086 0.0006692007906073278 -0.00036552771006969384 0 0 0 0
5208954 -0.336905140261139 0.015524616522382812 0.0006351154510506863 -0.0003786816477470577 0 0 0 0
5241900 -0.3370081830803759 0.015443828524439433 0.0006533840904146161 -0.000362126864950869 0 0 0 0
5274846 -0.3369990020373204 0.015612607915029898 0.0006949930916577395 -0.00032043825096820134 0 0 0 0
5307792 -0.33671255079534185 0.015495276640637136 0.0006592576334978167 -0.0003224909988632271 0 0 0 0
5340738 -0.33676933113320456 0.015797006009332534 0.0006666861442018079 -0.00032759875610535944 0 0 0 0
5373684 -0.33660775719543307 0.01525406237462074 0.0006753881134652315 -0.0003137847878033425 0 0 0 0
5406630 -0.33682337844900756 0.01555722033605757 0.0007126033191519278 -0.0003248821549629397 0 0 0 0
5439576 -0.33675031088882457 0.015416178178216253 0.0006790112129289626 -0.0002938941312686944 0 0 0 0
5472522 -0.33653583571836937 0.015338201199865283 0.0006630001175769538 -0.00028401874871215085 0 0 0 0
5505468 -0.33651608406289335 0.015373601827690637 0.0006577958487273043 -0.0003022537627022946 0 0 0 0
5538414 -0.33652496069223364 0.01517630429851449 0.0006775585804699788 -0.000277570270904974 0 0 0 0
5571360 -0.3367036592335812 0.015346093790642808 0.0006588703964223743 -0.0002734659504355617 0 0 0 0
5604306 -0.3363603886045638 0.015297516553969537 0.0006733547825059564 -0.00026351672230065867 0 0 0 0
5637252 -0.3365234892450011 0.015427803616189159 0.0006638097867645488 -0.00026850334378121954 0 0 0 0
5670198 -0.33635198436941216 0.015151785144211387 0.0006524534694784095 -0.00027772287755144774 0 0 0 0
5703144 -0.3363738748796941 0.015176807733082758 0.0006909150956255387 -0.00024979530350268303 0 0 0 0
5736090 -0.33650245745780755 0.015116604344570218 0.0006798023158437866 -0.00026068723140297974 0 0 0 0
5769036 -0.3362117152716676 0.01505203913576343 0.0007072208910028721 -0.0002828094871996027 0 0 0 0
5801982 -0.33617492338724747 0.014949170003484885 0.0006450630080945952 -0.00022584657097086578 0 0 0 0
5834928 -0.33637631128906775 0.015099188820875775 0.0006990909382004845 -0.00023479806285505779 0 0 0 0
5867874 -0.3361875275714772 0.014938662281996576 0.0006520514527251198 -0.00022120867302730433 0 0 0 0
5900820 -0.33626123732093677 0.014764930942776845 0.0006827906571517973 -0.0002024665711564215 0 0 0 0
5933766 -0.33609638783888496 0.014704364091468525 0.0006749836351957664 -0.00020099581746458377 0 0 0 0
5966712 -0.33614768294755604 0.01461932250076831 0.0006854409542641384 -0.00019961279958210243 0 0 0 0
5999658 -0.33630873657613225 0.014779445116780955 0.0006712538797672353 -0.00019478982903975756 0 0 0 0
6032604 -0.3359893878746217 0.014647298849915107 0.000685700656886913 -0.00020591971410780882 0 0 0 0
6065550 -0.3361265939578204 0.014593096255476685 0.0007156036965280739 -0.00019274078831477612 0 0 0 0
6098496 -0.3364373624305254 0.0146852019453516 0.0006617597374709753 -0.00018229393123426327 0 0 0 0
6131442 -0.336168798491186 0.01430655025227909 0.000675104203192038 -0.00018328755997490544 0 0 0 0
6164388 -0.3362129675349244 0.014256624019307725 0.0007028338141227484 -0.00017336050325220863 0 0 0 0
6197334 -0.336285850817908 0.014197694111963451 0.0007161901995291358 -0.00014341774177428437 0 0 0 0
6230280 -0.335944396288419 0.014308881428367098 0.0007232802028787187 -0.00015220351441268756 0 0 0 0
6263226 -0.33614859369728683 0.01412133343727245 0.0007086363344918944 -0.0001351963793939527 0 0 0 0
6296172 -0.3361043278968755 0.013724804162136079 0.0007169551471577844 -0.00017489986128547968 0 0 0 0
6329118 -0.3361483173678011 0.013717663950947447 0.0007046661715617606 -0.00017877504148171218 0 0 0 0
6362064 -0.33639217351005524 0.013616657948064076 0.0007121288760348816 -0.00015263927420762269 0 0 0 0
6395010 -0.3360648574734823 0.013724413206461717 0.0006952774302575567 -0.0001580818708701411 0 0 0 0
6427956 -0.33623728661016533 0.013615787035008521 0.0007117045070577245 -0.00012785938099876208 0 0 0 0
6460902 -0.3365884413009378 0.013262749272702662 0.0007145273263495634 -0.00013318415553428283 0 0 0 0
6493848 -0.336343955062531 0.01299309619817538 0.0006961376137755896 -9.52526146737674e-05 0 0 0 0
6526794 -0.3366129940022177 0.01287369722162009 0.0007222059437083124 -0.00013138554284130866 0 0 0 0
6559740 -0.3367363365633628 0.012677361716577192 0.0007298050811463239 -9.08142868877851e-05 0 0 0 0
6592686 -0.33726575910982337 0.012516780714554577 0.0007192822723047337 -0.00010718417889412126 0 0 0 0
6625632 -0.3368766788475098 0.012311532746988723 0.0006933962421315697 -0.00010541496610889512 0 0 0 0
6658578 -0.33719103314592896 0.012078524905293027 0.0007132957868464828 -9.43715609740051e-05 0 0 0 0
6691524 -0.3375278294353125 0.011490788025392565 0.0007522743786220963 -8.50437004657901e-05 0 0 0 0
6724470 -0.3381307699091886 0.011448049048977008 0.0007017782317737338 -0.00011632827229982562 0 0 0 0
6757416 -0.3388247996447546 0.011206023222927115 0.0007099460571692252 -0.00011203421019364719 0 0 0 0
6790362 -0.33875401263004123 0.010875669864940408 0.0007478336723036985 -0.00010143669731111583 0 0 0 0
6823308 -0.3394405563665173 0.010903665787196967 0.0007225832125836251 -0.00011308878195153357 0 0 0 0
6856254 -0.3405880714772883 0.010085828302854993 0.0007183296808975825 -9.070034214818923e-05 0 0 0 0
6889200 -0.3417845211721186 0.010286142221139246 0.000726959273165465 -6.872072970122739e-05 0 0 0 0
6922146 -0.34197255067896315 0.008033521236525275 0.0007277507089112067 -6.362285185351094e-05 0 0 0 0
6955092 -0.3435729227769402 0.008397571469723033 0.0007502328629979771 -7.245749879003316e-05 0 0 0 0
6988038 -0.3449474844928187 0.009093261578877665 0.0007619642164678163 -7.201061856442436e-05 0 0 0 0
7020984 -0.34664976149053417 0.010983645233959567 0.0007451154607687306 -9.889285500532034e-05 0 0 0 0
7053930 -0.3479192416760263 0.01340961181918175 0.0007187723691001526 -8.816384899908714e-05 0 0 0 0
7086876 -0.34811147270844195 0.016050286202786264 0.0007117391703998445 -6.429183332321093e-05 0 0 0 0
7119822 -0.34767785920584593 0.018818276493234566 0.0007213847749486329 -6.449598130200366e-05 0 0 0 0
7152768 -0.3456077170669415 0.021024636434220673 0.0007543829937153148 -6.0724604461231296e-05 0 0 0 0
7185714 -0.34381803557484736 0.022647280830111752 0.0007539493329916344 -7.359544675385673e-05 0 0 0 0
7218660 -0.3416867567394224 0.02276706799406635 0.0007558152174819702 -5.9223868511509644e-05 0 0 0 0
7251606 -0.34010677367379294 0.022932010194827004 0.0007249773030819537 -8.371692503843769e-05 0 0 0 0
7284552 -0.33860913467730575 0.02268835666194126 0.0007300315537735434 -7.358287948713168e-05 0 0 0 0
7317498 -0.3376882186920784 0.02254330439561743 0.0007354479782554249 -1.4250805284833229e-05 0 0 0 0
7350444 -0.336694561621168 0.02220555947652985 0.0007453210623521519 -4.514623915544408e-05 0 0 0 0
7383390 -0.33629580531178616 0.021747763618579496 0.0007393990778646598 -5.6162826003546196e-05 0 0 0 0
7416336 -0.33546230509154223 0.021131637522436252 0.0007368538455085635 -3.9762977204823086e-05 0 0 0 0
7449282 -0.3351961619105624 0.02078804260867623 0.0007606646683071516 -4.258409088359624e-05 0 0 0 0
7482228 -0.33483072259422253 0.020486361170327573 0.0007590651014609172 -1.9219886480216402e-05 0 0 0 0
7515174 -0.334392197430667 0.020365375656405223 0.0007648408652063029 -3.310513317631399e-05 0 0 0 0
7548120 -0.33411765682225447 0.020003777282137817 0.0007526518751643779 -4.990246146326384e-05 0 0 0 0
7581066 -0.33385121449065636 0.01951955770255591 0.0007463388690258674 -3.571757495373445e-05 0 0 0 0
7614012 -0.3337232658414017 0.019173266328166298 0.0007477456954306184 -2.2489498321263374e-05 0 0 0 0
7646958 -0.33366307183381927 0.019225905153784122 0.0007496993662189224 -2.7941554075009034e-05 0 0 0 0
7679904 -0.3334883623815538 0.019021388504263808 0.0007454782301282578 -4.566272617285061e-05 0 0 0 0
7712850 -0.3335702946332511 0.01878425631742467 0.0007577041066782441 -9.955220068295884e-06 0 0 0 0
7745796 -0.33322102453159863 0.018657342836155926 0.0007432954883206325 -2.9265221193955657e-05 0 0 0 0
7778742 -0.33319225180492823 0.018563996229837815 0.0007496718127792003 -3.3505277747254394e-05 0 0 0 0
7811688 -0.33315399326530776 0.018261551685352526 0.0007584162667149458 -2.498309588538423e-05 0 0 0 0
7844634 -0.33301545639574404 0.017994175593781452 0.0007375646348060457 -4.524489203372552e-05 0 0 0 0
7877580 -0.3328983349507053 0.01786183400853277 0.0007608028781009004 -1.2617617148122755e-05 0 0 0 0
7910526 -0.33282581114720855 0.017983929839053857 0.0007800886671029512 -3.5953710747528423e-06 0 0 0 0
7943472 -0.33300705114703477 0.01786014321898381 0.0007499880925506553 -3.80004228396217e-05 0 0 0 0
7976418 -0.3330170977285694 0.017794888264727776 0.0007772544013595604 -3.86092422993872e-05 0 0 0 0
8009364 -0.33261320486356566 0.017757946609312972 0.0007793412519986676 -5.751504550794816e-06 0 0 0 0
8042310 -0.33268588729072046 0.017715721558837605 0.000762298291146013 -3.621269098992301e-08 0 0 0 0
8075256 -0.3323886181687773 0.01756630802700725 0.0007770080373433028 2.1019788083001533e-05 0 0 0 0
8108202 -0.33264520825511107 0.01730562378833755 0.0007762310592692711 -4.324038294647351e-06 0 0 0 0
8141148 -0.3325291466152094 0.017340454327904452 0.0007574543850331517 -2.469893663275232e-05 0 0 0 0
8174094 -0.33251873258256964 0.017251524412395216 0.0007695518628062681 9.222003748847658e-07 0 0 0 0
8207040 -0.33277000212500857 0.017343651416567043 0.00076555391407868 2.680263935104856e-05 0 0 0 0
8239986 -0.33235141091280385 0.017083353358018444 0.0007753071910851477 2.6999992627226902e-05 0 0 0 0
8272932 -0.3324045949712472 0.017038642372252128 0.0007418155574231938 3.431966532580978e-05 0 0 0 0
8305878 -0.33243223463754695 0.017019852122745587 0.0007578740423231189 1.865067698160432e-05 0 0 0 0
8338824 -0.3323438593207998 0.017092249783647567 0.0007761401657979372 2.1767873370388133e-05 0 0 0 0
8371770 -0.33221449437536943 0.017006299052649568 0.0007678388362479493 2.084002957818653e-05 0 0 0 0
8404716 -0.332478275557457 0.017127377608149485 0.0007805253899572364 2.70968398246194e-05 0 0 0 0
8437662 -0.33204028380348777 0.016925234011733053 0.0007708848268118679 1.797118832122502e-05 0 0 0 0
8470608 -0.33197928984526986 0.016766545212894307 0.0007658622118150399 4.351926571761892e-05 0 0 0 0
8503554 -0.33213569229254986 0.01681349697812318 0.0007444763138124389 4.520467058292198e-05 0 0 0 0
8536500 -0.33210418395429964 0.016730558762251546 0.0007745571925342017 2.3409727703098076e-05 0 0 0 0
8569446 -0.33217493734011255 0.016725393779898255 0.000792906665570975 2.4863636115649e-05 0 0 0 0
8602392 -0.33211022580236377 0.01683310447028727 0.0007967980602277651 3.0443692357659028e-05 0 0 0 0
8635338 -0.33196220771278 0.016748469313067723 0.0007989899422017825 -6.376035078813468e-07 0 0 0 0
8668284 -0.33197829926919753 0.01654930226045336 0.0007759561941856142 3.741006520374209e-05 0 0 0 0
8701230 -0.3318216818711183 0.016570293164811387 0.0007885030489590567 2.491209016028521e-05 0 0 0 0
8734176 -0.33206547365176003 0.01673211669352281 0.0007919828943409241 4.468012116314234e-05 0 0 0 0
8767122 -0.3320141663982661 0.016747825964677814 0.0007744641324972942 3.912112396982202e-05 0 0 0 0
8800068 -0.33198131356739324 0.01671358770090291 0.0007732497633991487 2.3798076872379178e-05 0 0 0 0
8833014 -0.33182235896007345 0.016633526390749706 0.0007638267943758033 4.546905408318204e-05 0 0 0 0
8865960 -0.33184162686588237 0.016622873545241994 0.0007899528123065078 3.953946488259824e-05 0 0 0 0
8898906 -0.33191977699795006 0.016584003453883032 0.0007828502383203726 4.332824344508385e-05 0 0 0 0
8931852 -0.3318387411979412 0.01652924613659121 0.0007712233189587944 3.8429769611309287e-05 0 0 0 0
8964798 -0.331776336265066 0.01654249432684685 0.0007991529795019035 4.545699522391588e-05 0 0 0 0
8997744 -0.331814322027589 0.01652424979779714 0.0007781149504249018 5.193216398616047e-05 0 0 0 0
9030690 -0.33157166557711437 0.016517760811722196 0.0008048426448060176 2.0209002495789588e-05 0 0 0 0
9063636 -0.3315748914087209 0.016427033241535487 0.0007737818987235606 5.693267078025616e-05 0 0 0 0
9096582 -0.3316576569398592 0.01644174119640168 0.0007975930970122312 5.223477349845017e-05 0 0 0 0
9129528 -0.33167275342084135 0.016509923351112933 0.0007980313941360244 6.621060832707615e-05 0 0 0 0
9162474 -0.33159069496124666 0.01651591071621529 0.0007681094252164502 5.8894242006277365e-05 0 0 0 0
9195420 -0.3314883886866538 0.01634245219385071 0.0007777631352442572 4.9228127704680154e-05 0 0 0 0
9228366 -0.3316223313037031 0.016536209804856435 0.0007609972914959865 4.650642086034628e-05 0 0 0 0
9261312 -0.33156333169066654 0.016294938245552892 0.0007846889964091197 6.641618212418864e-05 0 0 0 0
9294258 -0.33155067374116776 0.016297575917104817 0.0007914087962216899 4.2008400683860015e-05 0 0 0 0
9327204 -0.33157478503821414 0.016438906223821347 0.0008028856257005994 9.553877643755896e-05 0 0 0 0
9360150 -0.3316018257675548 0.016242583768941988 0.0008008928289436608 4.222297589127705e-05 0 0 0 0
9393096 -0.33178698924497907 0.016474976522407724 0.0008151737615736262 7.70659181841204e-05 0 0 0 0
9426042 -0.33150600956390414 0.016452376514844515 0.0008128060741882179 7.53455807862422e-05 0 0 0 0
9458988 -0.33157682939117444 0.01638634032719328 0.0008076138430385252 8.299909248188171e-05 0 0 0 0
9491934 -0.3312282725183418 0.016381317185935173 0.0007933014958149622 7.336057582548297e-05 0 0 0 0
9524880 -0.33150286686220237 0.016388886808866496 0.0007845006556251958 5.994359686210087e-05 0 0 0 0
9557826 -0.33153730153844796 0.016326894434516143 0.0008376290460492343 9.265256407747029e-05 0 0 0 0
9590772 -0.3314437938026617 0.01641649466206241 0.0007820313987312041 4.603384902569406e-05 0 0 0 0
9623718 -0.33137132742827174 0.01643139044348713 0.0007829864799830618 6.595852976091788e-05 0 0 0 0
9656664 -0.33133375907118834 0.016330965797121018 0.0008101785356636842 8.268072605716045e-05 0 0 0 0
9689610 -0.33129477985773403 0.016297149953759877 0.0008015093680554374 7.609058773310028e-05 0 0 0 0
9722556 -0.33141793470737796 0.01634834584390978 0.0007973129844450742 9.757013628127304e-05 0 0 0 0
9755502 -0.331620643449212 0.016400395267670308 0.000805846109840695 8.499352763670395e-05 0 0 0 0
9788448 -0.331126221166567 0.016318141261773764 0.0007871427664262744 9.898751191301096e-05 0 0 0 0
9821394 -0.3313624878525076 0.016244255356050362 0.0008222030327461766 7.362343466475158e-05 0 0 0 0
9854340 -0.3310934598793312 0.01627056147751163 0.000811238462968427 9.76588660199078e-05 0 0 0 0
9887286 -0.3313487970156398 0.016437665496415652 0.0008117943564514765 8.6643251239943e-05 0 0 0 0
9920232 -0.3313774358940098 0.016377215882007357 0.0008313239637782389 5.854605225998649e-05 0 0 0 0
9953178 -0.33151665406342395 0.01632264453894069 0.0008270369907790354 9.55033281456044e-05 0 0 0 0
9986124 -0.3312904801170555 0.016510831705277236 0.0007921224159433593 9.923878959305617e-05 0 0 0 0
10019070 -0.3312197837690753 0.016345548346737685 0.0008012700120518454 6.350893024073991e-05 0 0 0 0
10052016 -0.33104630496571147 0.016232364105889546 0.0008223506485826714 9.295762619768801e-05 0 0 0 0
10084962 -0.331273604650551 0.01638733374340629 0.0008147789895872083 8.863852659998512e-05 0 0 0 0
10117908 -0.331069835852509 0.016283993883164403 0.0008187113487398052 0.000106896456847436 0 0 0 0
10150854 -0.33134816565112424 0.016246234761090213 0.0008145810284201057 0.00012400937958760187 0 0 0 0
10183800 -0.3312833689204889 0.01642654587066762 0.0008192532530024562 0.0001071465154721036 0 0 0 0
10216746 -0.33101436232290543 0.016385588445983788 0.0008276928352911249 0.00011655299839872112 0 0 0 0
10249692 -0.33094947066563185 0.016334678389714002 0.000832941045390387 9.874246673282238e-05 0 0 0 0
10282638 -0.33124245177594325 0.01638367232436275 0.000806386782057301 8.364849795054124e-05 0 0 0 0
10315584 -0.3311162952567093 0.0163835145058684 0.0008342689887363936 0.00010614600121187605 0 0 0 0
10348530 -0.3312859580726454 0.01628069195655909 0.0008337176917368412 0.00012842704278688379 0 0 0 0
10381476 -0.3311326795757849 0.016362638177927123 0.0008153481992218491 0.00010206808656118488 0 0 0 0
10414422 -0.3309618407089593 0.01623662057942249 0.0008010694015721355 0.00010952998560678553 0 0 0 0
10447368 -0.33108189731899573 0.016250598587290884 0.0008224288053948195 9.899783826438862e-05 0 0 0 0
10480314 -0.33105627334998344 0.016502512329952305 0.0007951874572234632 0.00013433767897952042 0 0 0 0
10513260 -0.3310228593455477 0.016298249011036575 0.0008305460704485872 9.738919465083608e-05 0 0 0 0
10546206 -0.33121451879295877 0.0163330661363973 0.0008206381861303152 8.392453923720947e-05 0 0 0 0
10579152 -0.33089748435508387 0.0164800783340156 0.0008429619320850193 8.383741455811065e-05 0 0 0 0
10612098 -0.33106926439444256 0.01638235940384995 0.0008592590028087685 0.00012909045566415357 0 0 0 0
10645044 -0.33096613388767726 0.016299219351971983 0.0008171067689054675 0.0001393223419157652 0 0 0 0
10677990 -0.330954716753652 0.016477646393035634 0.0008398314049522939 0.00013828516759546106 0 0 0 0
10710936 -0.33110691931998193 0.016546610922347615 0.000817222393458334 0.00012426297779715548 0 0 0 0
10743882 -0.33084118446305283 0.01643715224787232 0.0008150787550131284 0.00012472871092248863 0 0 0 0
10776828 -0.3309177904839811 0.0163996408060206 0.0008227978175793481 0.0001305776416745268 0 0 0 0
10809774 -0.33094832643090094 0.01660310071474506 0.0008383834816254886 0.00013372745859732755 0 0 0 0
10842720 -0.3310606923622076 0.016481178767856833 0.0008149546327258182 0.00015403795114102528 0 0 0 0
10875666 -0.33083252939223856 0.016505242747823414 0.0008514926774520045 0.0001366948500225669 0 0 0 0
10908612 -0.3310912844809 0.016441299198706162 0.0008203523722296386 0.00011016499713739887 0 0 0 0
10941558 -0.3308592669139207 0.016388238953323118 0.0008541181277055633 0.00011481439741921364 0 0 0 0
10974504 -0.3308668458430687 0.01637675364512463 0.0008231415663326907 0.0001269003187536485 0 0 0 0
11007450 -0.33096488860760914 0.016581319769541452 0.0007948577760717903 0.00014425272464528062 0 0 0 0
11040396 -0.3309061491208595 0.01642610547686203 0.0008641750124929842 0.0001437256554422492 0 0 0 0
11073342 -0.33080844964058514 0.01657175041536888 0.0008237469585656754 0.00011884678418168479 0 0 0 0
11106288 -0.33074688612803155 0.016558970002877565 0.0008197490813480674 0.00013051957718580138 0 0 0 0
11139234 -0.33084241229355105 0.01649408044146138 0.0008519085428436894 0.00012233262723125368 0 0 0 0
11172180 -0.33084922914125076 0.01641518424741749 0.0008411117302206563 0.00011394747586697993 0 0 0 0
11205126 -0.33081424839783363 0.016403580804450986 0.0008495442156799091 0.00013497737389703472 0 0 0 0
11238072 -0.33087685503215253 0.016532632422825783 0.0008176446659919485 0.00017483705659698841 0 0 0 0
11271018 -0.33079134402244637 0.016497293072037667 0.0008364257301190976 0.00013778814424808558 0 0 0 0
11303964 -0.3309738892359302 0.016360857191614408 0.0008621295600359555 0.0001309248026861282 0 0 0 0
11336910 -0.33082830494184434 0.016568679582085542 0.0008446515492686169 0.00013725763902068015 0 0 0 0
11369856 -0.3308088717587339 0.016628940287405553 0.0008448798919198861 0.0001740715029748515 0 0 0 0
11402802 -0.33074777691129403 0.016467528703083177 0.000838321207007929 0.0001596992601964585 0 0 0 0
11435748 -0.33077705121871864 0.016378127723953185 0.0008534182221059734 0.00015943795829834832 0 0 0 0
11468694 -0.330793751181581 0.016586531151060537 0.0008247525922572229 0.00014170000757558987 0 0 0 0
11501640 -0.33067814873561346 0.016316520871623864 0.0008332242076186848 0.00012131215815818863 0 0 0 0
11534586 -0.3308931166642751 0.016480615104163165 0.0008296679935223216 0.00015953503661116452 0 0 0 0
11567532 -0.3308296191943688 0.016639356086994718 0.0008276851596799377 0.00016527470653221116 0 0 0 0
11600478 -0.33063927910231405 0.016514175269170803 0.0008091735428794626 0.00015156965054325612 0 0 0 0
11633424 -0.33081617021251564 0.016538983640527197 0.0008408175824899912 0.00014912051653592157 0 0 0 0
11666370 -0.33064733982449657 0.01659157671152771 0.0007833975932338068 0.00014916923236596688 0 0 0 0
11699316 -0.3307128152977035 0.016657410430076014 0.0008251987453628487 0.00014281551084872613 0 0 0 0
11732262 -0.3308871204947676 0.016703055388957753 0.0008225896619227805 0.00016563742981929314 0 0 0 0
11765208 -0.3307378002424398 0.016819127729649216 0.0008077723730275719 0.0001601363494423518 0 0 0 0
11798154 -0.3306537897335845 0.016668275717860167 0.0008390218365568081 0.00015415975897022994 0 0 0 0
11831100 -0.3306958174358399 0.016631552666162685 0.0008422092782411939 0.00014956331385949202 0 0 0 0
11864046 -0.3305559000453043 0.016568038061814578 0.0008290605627623946 0.00016002698585630262 0 0 0 0
11896992 -0.33075896987719156 0.016833206883367757 0.0008500358177091189 0.00017124981017352847 0 0 0 0
11929938 -0.3308347935056342 0.016621242882510014 0.0008366387952892044 0.0001577031062438307 0 0 0 0
11962884 -0.33081442608704503 0.01668832926749043 0.0008237090184080078 0.00015869509071130236 0 0 0 0
11995830 -0.33045250104742735 0.016573271168254706 0.0008503831586968607 0.00016096966484945664 0 0 0 0
12028776 -0.3305589163687065 0.016636963004115275 0.0008376320094392619 0.0001904712148190769 0 0 0 0
12061722 -0.33052130340238534 0.016687502949697577 0.0008286117598026002 0.00018017303186482745 0 0 0 0
12094668 -0.33043421726373196 0.016814866969439762 0.0008375929138621466 0.0001804988031851928 0 0 0 0
12127614 -0.33064758429913665 0.016787276978736013 0.0008535651259527115 0.00015392255468244838 0 0 0 0
12160560 -0.3307769873590646 0.016818401343857578 0.0008526154883504866 0.00017847596792258043 0 0 0 0
12193506 -0.3306805153067423 0.016812053835575214 0.0008364271162967733 0.0001786996470503998 0 0 0 0
12226452 -0.33045582169714144 0.016758276414544204 0.0008474934293823675 0.00016906203887152198 0 0 0 0
12259398 -0.3305681794345045 0.016696205015429993 0.0008506289313365608 0.0001734615254611627 0 0 0 0
12292344 -0.33069617043417704 0.016801318640551958 0.0008447185851926806 0.00016556445619595524 0 0 0 0
12325290 -0.3306881470115813 0.016854475130961524 0.0008601363310021856 0.00015948303044829515 0 0 0 0
12358236 -0.330356932853052 0.016778623392788555 0.0008268611909439339 0.00015928995696574166 0 0 0 0
12391182 -0.3304033957492844 0.01664456442136524 0.0008387847674752695 0.00019230995788803703 0 0 0 0
12424128 -0.3305351643043056 0.01674150083373797 0.0008816717319011989 0.00017257780600587425 0 0 0 0
12457074 -0.33075190340608834 0.016881954717631337 0.0008488307727633405 0.00017277342157803982 0 0 0 0
12490020 -0.3306216718090755 0.016978934641161073 0.0008538438071462965 0.00021275633986217094 0 0 0 0
12522966 -0.33062419557289136 0.016905917132819016 0.0008680151847294982 0.00015561662128985723 0 0 0 0
12555912 -0.33073488327084627 0.01695834891773171 0.0008565645426233844 0.00015472788174706727 0 0 0 0
12588858 -0.33057004445061955 0.01707970689667428 0.0008460788408060952 0.00017108471924760655 0 0 0 0
12621804 -0.33077198109321476 0.016808699313525934 0.0008312455349542532 0.00019900794864579914 0 0 0 0
12654750 -0.3305533742012123 0.017008958667103755 0.0008520147364848256 0.0001841592382630839 0 0 0 0
12687696 -0.330397733560385 0.01679376406778608 0.0008614576315760445 0.00017519247261618538 0 0 0 0
12720642 -0.33052909181782625 0.016992699683955715 0.0008572030575553132 0.00017194523182424706 0 0 0 0
12753588 -0.3304511742589744 0.016947137254478963 0.0008775107735650843 0.00020749447099793818 0 0 0 0
12786534 -0.33055537559535253 0.01704346895888207 0.0008353024444677988 0.00017886975001052464 0 0 0 0
12819480 -0.3305587992214317 0.01712138960122582 0.0008554183878876148 0.00018457629056083753 0 0 0 0
12852426 -0.33041592092097105 0.016971603671637664 0.0008583673304266558 0.000200861355301076 0 0 0 0
12885372 -0.3303338654386682 0.016913302058548636 0.0008672123044467276 0.00018598124451993695 0 0 0 0
12918318 -0.33042501282623854 0.017066960837395725 0.0008560868868846191 0.00022496758123334999 0 0 0 0
12951264 -0.3307012454239737 0.017065564958229442 0.0008835293880577248 0.00020233634711751025 0 0 0 0
12984210 -0.3301962287082588 0.017066802063371602 0.0008414262945756547 0.00021698197259820677 0 0 0 0
13017156 -0.3305173630498297 0.0172030794457291 0.0008319885407774513 0.00019634963259757002 0 0 0 0
13050102 -0.33059689532459946 0.0170048107088878 0.0008757300558390236 0.00019718694865801336 0 0 0 0
13083048 -0.3302775071086275 0.016972960606886727 0.0008488800371853501 0.0001915918469293072 0 0 0 0
13115994 -0.33050244924786837 0.01725673529593896 0.0008897842129082094 0.00017651411270957356 0 0 0 0
13148940 -0.3303525744656655 0.017033573091168666 0.0008943267524399772 0.00020150604594567644 0 0 0 0
13181886 -0.3305938716501764 0.016996388569157878 0.0008401728923333851 0.00021293149188141862 0 0 0 0
13214832 -0.33021642236758125 0.016995175378650435 0.000868956083680179 0.00020284480208104995 0 0 0 0
13247778 -0.3303889278213099 0.01711656376908303 0.0008712269453121718 0.0001963705908547718 0 0 0 0
13280724 -0.33031876909834396 0.017114393518551964 0.0008928115523032757 0.00021072718829311213 0 0 0 0
13313670 -0.3304521590515577 0.01730341883056278 0.0008650783073527752 0.00021084018852268957 0 0 0 0
13346616 -0.3304688434659969 0.017349977994595582 0.000866459290805831 0.0002081237203427778 0 0 0 0
13379562 -0.3305994506629324 0.01724687973035885 0.0008669413521701664 0.00021721037028053243 0 0 0 0
13412508 -0.3302353671032587 0.017342553164353534 0.0008816582384090383 0.00021617705138899182 0 0 0 0
13445454 -0.33059145075793295 0.017297635803858263 0.0008461063033791652 0.000219294844420072 0 0 0 0
13478400 -0.33052232953966565 0.017329351482474102 0.0008748513592976299 0.00021575083351073056 0 0 0 0
13511346 -0.33037741276524885 0.017231578008619165 0.0008508965014309876 0.00019620449381630505 0 0 0 0
13544292 -0.3304912864734482 0.0173527521697203 0.0008550964991856908 0.0002217100856101697 0 0 0 0
13577238 -0.33050001044312377 0.017404579003451704 0.0008466722570491949 0.00021575254848938013 0 0 0 0
13610184 -0.33047043215023736 0.017475608074681133 0.0008522666731093084 0.0002143448450982357 0 0 0 0
13643130 -0.33052675570081097 0.017496970789417473 0.0008738390219954669 0.0002048514666964493 0 0 0 0
13676076 -0.3304433517791484 0.01732774586893564 0.0008743146308320986 0.00022881416275588376 0 0 0 0
13709022 -0.33049973929697374 0.017511752326690062 0.0008404138830221382 0.0002110557523726932 0 0 0 0
13741968 -0.3304813528156308 0.01749281057181717 0.0008467113588144858 0.00020040789498770105 0 0 0 0
13774914 -0.3304834530970726 0.017318838172861378 0.0008903987313024406 0.00020462238860370174 0 0 0 0
13807860 -0.3302999787514097 0.017346779205638686 0.0008524618114742007 0.00024654417142920505 0 0 0 0
13840806 -0.3306253425299292 0.017573916793600566 0.0008644871083757571 0.00022069275341307404 0 0 0 0
13873752 -0.33020270301440136 0.01747091843999087 0.0008688032009795826 0.0002345479164640229 0 0 0 0
13906698 -0.3304619786938589 0.01756888925715675 0.0008612812694161237 0.0002293675417484486 0 0 0 0
13939644 -0.33048095890904167 0.017545429034503582 0.0008626583946058593 0.00021650286008579372 0 0 0 0
13972590 -0.33037546045773825 0.017444511438852037 0.0008756897559855482 0.00022758083209053782 0 0 0 0
14005536 -0.3305946793247219 0.01751215325509372 0.0008888941034521702 0.00023190487726042571 0 0 0 0
14038482 -0.3301905431578155 0.017579308378764803 0.0008850012366297027 0.0002538156039591399 0 0 0 0
14071428 -0.33049425225687834 0.017536449641530432 0.0008698319707535054 0.0002284884175611821 0 0 0 0
14104374 -0.3303173505775072 0.017575309626228212 0.000882154859858421 0.00022755391470710208 0 0 0 0
14137320 -0.33025177917299786 0.01758567605812716 0.0008888327877654776 0.00021434839888404317 0 0 0 0
14170266 -0.3305281536983308 0.017749900238655195 0.0008585243916793108 0.00022326742114548966 0 0 0 0
14203212 -0.33046186945015676 0.01755704057121535 0.0008782329143245066 0.00021923662079811925 0 0 0 0
14236158 -0.33053011172729796 0.017904563225087197 0.0008671232794516912 0.00021491155890053442 0 0 0 0
14269104 -0.33052313432499286 0.01786253912948524 0.000872400310852532 0.00024250442968624082 0 0 0 0
14302050 -0.33035707548392856 0.017647795245602272 0.0008845380966019091 0.00021750498012393325 0 0 0 0
14334996 -0.3303812319157826 0.01782778493701819 0.0008756176671854942 0.00024266273405449226 0 0 0 0
14367942 -0.3303803011199399 0.017667843702057796 0.0008713508159769029 0.0002443986399349168 0 0 0 0
14400888 -0.3302584598567159 0.01761025566251804 0.000870075044122817 0.00024763837193598993 0 0 0 0
14433834 -0.3304411036425989 0.017805783403280064 0.0008911476397498555 0.0002417724434256247 0 0 0 0
14466780 -0.3304633967248662 0.017709232712606403 0.000902473770528125 0.0002446722880250934 0 0 0 0
14499726 -0.3305070742238757 0.01773856252869353 0.0008531252477855488 0.000244760782670601 0 0 0 0
14532672 -0.3304778114149248 0.01802310726309854 0.0008805408778128064 0.00024373121153447861 0 0 0 0
14565618 -0.3302323867504116 0.017797993583798976 0.000904062560364743 0.00024485989635250437 0 0 0 0
14598564 -0.33057199104609 0.01788435922135911 0.0008823219175549977 0.0002708847234039384 0 0 0 0
14631510 -0.3305659746961124 0.017773679579977893 0.0008782667591578836 0.00023140080487221292 0 0 0 0
14664456 -0.3305257856105956 0.017866053792470332 0.0008930939194395371 0.00023860728097374864 0 0 0 0
14697402 -0.3305431648590784 0.01801296791194517 0.0008834528346410435 0.00024425070870632724 0 0 0 0
14730348 -0.33037265509796615 0.017981154678821713 0.0008861426874118392 0.0002554098155568944 0 0 0 0
14763294 -0.3302421682672056 0.01788680304275086 0.0008587331496598017 0.00023924991930122263 0 0 0 0
14796240 -0.33043338776971465 0.017913070320784784 0.0008779628443067221 0.00024694769202499484 0 0 0 0
14829186 -0.3302304602547454 0.01783699030374701 0.0008734914950238627 0.00024479519116318133 0 0 0 0
14862132 -0.33047150529408065 0.01809953447568549 0.0008842116126151711 0.0002481036834340191 0 0 0 0
14895078 -0.33043737534006623 0.0180926008173634 0.000871927588275752 0.00025613814805907785 0 0 0 0
14928024 -0.33020909366599155 0.018007429852781597 0.0009050133121617026 0.0002576197341471463 0 0 0 0
14960970 -0.330313530291135 0.0181167032223121 0.0008896786713243366 0.0002668359232176749 0 0 0 0
14993916 -0.3305077304296996 0.018135547821661838 0.000887652645644329 0.0002568803843319391 0 0 0 0
15026862 -0.33043890510618934 0.01815384353075125 0.0008760458507778999 0.00026482927952133604 0 0 0 0
15059808 -0.3306676494042524 0.01826841825205588 0.0009058706763947845 0.0002709337374524767 0 0 0 0
15092754 -0.3304291784910457 0.018113166432194374 0.000874951090665272 0.0002687872534250579 0 0 0 0
15125700 -0.33044207514133367 0.018135135143353034 0.0008843724479980003 0.00024511351261950314 0 0 0 0
15158646 -0.3303426790325186 0.01823131976134977 0.00089152459626482 0.00025058177224268906 0 0 0 0
15191592 -0.33048550892326056 0.018178288542698078 0.0009004020796863819 0.0002820248595141458 0 0 0 0
15224538 -0.3305341439303344 0.018232831021265026 0.0008858187634598803 0.0002777749825619468 0 0 0 0
15257484 -0.33051142596812133 0.018192914626615722 0.0008833751806788823 0.00025183165477602447 0 0 0 0
15290430 -0.33045699093473707 0.01806248279972048 0.0008963538824002368 0.00026638408993580825 0 0 0 0
15323376 -0.3304714722139924 0.018263907826766138 0.0008846671030995648 0.00025542023884492096 0 0 0 0
15356322 -0.3303698376707147 0.018337038934314636 0.0009222787105187304 0.0002650739768100054 0 0 0 0
15389268 -0.33039676552335273 0.01839450290999653 0.0008757183451010023 0.00025329205544230137 0 0 0 0
15422214 -0.3304661977442088 0.018301480073746067 0.0009126001459515921 0.00024341588215195424 0 0 0 0
15455160 -0.33044438215109184 0.018312350669341438 0.0008893105954341949 0.00027872908068234743 0 0 0 0
15488106 -0.33049315222384 0.018355206231126086 0.0008928787118223999 0.0002601078001912111 0 0 0 0
15521052 -0.3305659419539541 0.01858070092073013 0.0009210946101096278 0.00026296848270828755 0 0 0 0
15553998 -0.3306060539356413 0.018523476100584406 0.0008992372475390778 0.0002613449708331178 0 0 0 0
15586944 -0.330484898395769 0.01835145970056698 0.0008959027939626493 0.0002769997970948164 0 0 0 0
15619890 -0.3305672926151307 0.018511882969975867 0.000910853883744362 0.00027715033373679134 0 0 0 0
15652836 -0.3303060150322272 0.018315132127386488 0.0008810939845257938 0.0002823565710659934 0 0 0 0
15685782 -0.3304416997452191 0.018246683602446873 0.0008779876588034793 0.0002554625482959345 0 0 0 0
15718728 -0.3303688783291474 0.018545273094482978 0.0008635325831123504 0.0003070784704970285 0 0 0 0
15751674 -0.33054141832779405 0.018517956487091952 0.0009301161724688792 0.0002761451803213328 0 0 0 0
15784620 -0.33063063711422935 0.018713433635820734 0.0008030189869351768 0.000376615488658681 0 0 0 0
15817566 -0.3303001428413439 0.018449521523667606 0.0007711650357497479 0.00023231286780849472 0 0 0 0
15850512 -0.3304356871722627 0.01856655476154375 0.0009594287707074861 0.0003319352843649741 0 0 0 0
15883458 -0.3306195016145236 0.01880509402978067 0.000893022519436434 0.0002125313890001383 0 0 0 0
15916404 -0.3305375683667424 0.018341942162166103 0.0009800090973949235 0.0002494558870757126 0 0 0 0
15949350 -0.3306096533904273 0.01859843360853186 0.0008609794763131646 0.0003646858892348601 0 0 0 0
15982296 -0.33019952389869917 0.018588080343936143 0.000920565974904808 0.00029119850533964876 0 0 0 0
16015242 -0.3303402786878441 0.018624634449775038 0.0009033035454061826 0.00028136846525015307 0 0 0 0
16048188 -0.33039478185988874 0.01881630485314254 0.0009150171548647446 0.00026909324466016846 0 0 0 0
16081134 -0.3305577397205296 0.018826379615683012 0.0008970312750329126 0.00032059540439281325 0 0 0 0
16114080 -0.33027257390438497 0.018592708180234868 0.0008855583891054775 0.00024767263830035137 0 0 0 0
16147026 -0.33063237360127556 0.018614846907748953 0.000918254072278382 0.0002711788942741979 0 0 0 0
16179972 -0.3305581966446015 0.018790507278798673 0.0009025323359954658 0.0002819761146200409 0 0 0 0
16212918 -0.330506523590435 0.018628063541318546 0.0009025871496182704 0.0002890113475672897 0 0 0 0
16245864 -0.33027963823808126 0.018809468433616448 0.0009042900565364151 0.00027249823085527357 0 0 0 0
16278810 -0.33036631234131353 0.01871875843726822 0.0009416920202654175 0.00027812300798758246 0 0 0 0
16311756 -0.3307192088570421 0.01872588540448688 0.000886149587468039 0.0002772467280534128 0 0 0 0
16344702 -0.33051614243010613 0.018794880417892488 0.0009250979911201402 0.0003240119268437768 0 0 0 0
16377648 -0.33071662893620096 0.01889379832019648 0.0009052386600334587 0.00031652995776490766 0 0 0 0
16410594 -0.3303270163807512 0.01900778744270278 0.0009075045190482705 0.00026835671207209034 0 0 0 0
16443540 -0.33055014582276926 0.0190493341231806 0.0009261301788084219 0.00028363122396977703 0 0 0 0
16476486 -0.33060407778384066 0.018858682233690263 0.0009272770316129729 0.00030079606302550857 0 0 0 0
16509432 -0.33032181769065716 0.018915770229891785 0.0009276771156079705 0.0002966092119270067 0 0 0 0
16542378 -0.330542906878649 0.019035739777558576 0.0009024654140569902 0.0003026683652096776 0 0 0 0
16575324 -0.33039405889264223 0.019097083812807947 0.0008751756554964058 0.00029239046989120094 0 0 0 0
16608270 -0.3304854152396602 0.019094124298945 0.000878610505446334 0.00030463178372929097 0 0 0 0
16641216 -0.33040064477963643 0.019088736750514666 0.0009067716788548128 0.00029717529693496755 0 0 0 0
16674162 -0.33065953440098617 0.019187301402963663 0.0009399325061959104 0.0003113170175365068 0 0 0 0
16707108 -0.33026877904363144 0.01914679934941432 0.0009208994905098081 0.00029474619478868597 0 0 0 0
16740054 -0.3304727050796583 0.019137583738234314 0.0009527335295733012 0.00029185462122455484 0 0 0 0
16773000 -0.330668968133823 0.019267382332450393 0.0009464668519180474 0.0002972445996862433 0 0 0 0
16805946 -0.33033839490764066 0.019154572081821447 0.0009158364573925342 0.0002850105411656072 0 0 0 0
16838892 -0.33052488199665037 0.01878148184600029 0.0009036707324771047 0.0003226931664411517 0 0 0 0
16871838 -0.3307178288278239 0.018884950839980798 0.0009105640726532072 0.000340536657054236 0 0 0 0
16904784 -0.3302224461735664 0.019386846612374713 0.0009210642960699715 0.00029167165463609026 0 0 0 0
16937730 -0.3305503113857586 0.0193022745640634 0.0009261069705327725 0.0002855832842683446 0 0 0 0
16970676 -0.3304023598062947 0.019548886177571546 0.0009139680410174606 0.00029753192374158124 0 0 0 0
17003622 -0.33060351995999376 0.019575449699613553 0.0009382165830523069 0.0003216301027950313 0 0 0 0
17036568 -0.3306338894030808 0.0192500264770837 0.0009069056697953681 0.0003172845325254018 0 0 0 0
17069514 -0.33069054355677685 0.01947342424097085 0.000927790880999742 0.0003294487643793755 0 0 0 0
17102460 -0.3304140273119343 0.019471060516347234 0.00093877402081692 0.0002945848667990538 0 0 0 0
17135406 -0.33058659041040467 0.019487672404644458 0.0009055758753639751 0.0003092183683172896 0 0 0 0
17168352 -0.3304351485567678 0.01922629405404801 0.0009248694999501727 0.0003068414781372772 0 0 0 0
17201298 -0.33040017186244885 0.019302570115065865 0.0009183098298067082 0.0003007925885860188 0 0 0 0
17234244 -0.3309146616812499 0.01947182966129802 0.0009385902121106019 0.0002879691392388625 0 0 0 0
17267190 -0.3305970295046261 0.01961871191023672 0.0009033231457902333 0.0003266095533945375 0 0 0 0
17300136 -0.3304609315826237 0.019612698831956318 0.0009533986589383877 0.00029920726285055795 0 0 0 0
17333082 -0.3306909870544513 0.019639615571501932 0.0009228717506501049 0.0003118207832222495 0 0 0 0
17366028 -0.33065201073839967 0.019584325131539727 0.0009365466286558631 0.00033546137680020264 0 0 0 0
17398974 -0.33070684408682094 0.019886448020861373 0.0009591906028578419 0.0002684171212257632 0 0 0 0
17431920 -0.33051508112488676 0.019505063358969156 0.0009024690540375498 0.00034891936993578643 0 0 0 0
17464866 -0.3306804297787527 0.019615094524712304 0.0007619887982572543 0.0004336910731826385 0 0 0 0
17497812 -0.3305460616834638 0.01979833464099413 0.0009438335343654018 0.00046482007399474497 0 0 0 0
17530758 -0.3302007404010183 0.019481457593770325 0.0009193376284512239 0.0003873664229676383 0 0 0 0
17563704 -0.3306835565736027 0.01988567381478211 0.001198305169803936 0.0005227046993060163 0 0 0 0
17596650 -0.3306932505956893 0.019435811337029735 0.0009769304264623329 0.00026566024020089826 0 0 0 0
17629596 -0.3306499416808925 0.019932884127912075 0.0009632928095694556 0.00034522802394445226 0 0 0 0
17662542 -0.3308576768134677 0.01979000901057903 0.001050822298697113 0.0003107512394517904 0 0 0 0
17695488 -0.33086008222758556 0.019725787887445806 0.0009722800553444346 0.0003182550988996756 0 0 0 0
17728434 -0.3306852969141813 0.01989148407272809 0.0009083773507423062 0.0003595704243882541 0 0 0 0
17761380 -0.3307961129334822 0.01965928562249454 0.0009405576936655288 0.0003358945666975121 0 0 0 0
17794326 -0.3305818786745526 0.019812217864049388 0.0009211333697840736 0.0003126904824824653 0 0 0 0
17827272 -0.3304395210393722 0.019922670426410355 0.0009229383066872265 0.0003427947131290346 0 0 0 0
17860218 -0.3304162880730909 0.01978860259597525 0.0009285719828633144 0.00032894109462396206 0 0 0 0
17893164 -0.3306627027811712 0.020057374119941344 0.0009621934572202611 0.00035500975633365243 0 0 0 0
17926110 -0.3307846057591912 0.019921616637783534 0.0009461414910667977 0.0003418373698281322 0 0 0 0
17959056 -0.3307614339823478 0.01984137822352254 0.0009535393448978898 0.00033958376936584324 0 0 0 0
17992002 -0.330859901964984 0.020072133581270486 0.0009465507737012163 0.00033437101350369054 0 0 0 0
18024948 -0.33097607897760223 0.019969369096122472 0.0009565371798426328 0.00036061039039437967 0 0 0 0
18057894 -0.33062756401146043 0.01975311493983516 0.0009539764050675358 0.00035260095226120934 0 0 0 0
18090840 -0.3308396432019089 0.020372272315802607 0.000933867311598524 0.0003328555486747419 0 0 0 0
18123786 -0.330822115164293 0.020036862621162145 0.0009500549315318911 0.000340762049964255 0 0 0 0
18156732 -0.3305712596928959 0.020210112001648912 0.000919061827216481 0.00034665405201670974 0 0 0 0
18189678 -0.33073890355547364 0.01996832016878793 0.0009490102407410991 0.00032749618171915566 0 0 0 0
18222624 -0.33074042183805874 0.02001401091950489 0.0009225210825142203 0.0003253632955613246 0 0 0 0
18255570 -0.33074992222940774 0.020220161679480632 0.0009300102108739248 0.0003289930581522885 0 0 0 0
18288516 -0.3305401639024212 0.020263377640899985 0.000928141035939992 0.0003404225070977042 0 0 0 0
18321462 -0.33070177950018453 0.019923528061695263 0.0009466458600335375 0.00036369951907767726 0 0 0 0
18354408 -0.32980424437686384 0.01662464008878223 0.0009541776325568955 0.0003431708590453856 0 0 0 0
18387354 -0.3298703758406003 0.016397436725638162 0.0009354750984472511 0.0003289791112409273 0 0 0 0
18420300 -0.329950714017598 0.016636885931491697 0.000946931073962302 0.00031803180263573086 0 0 0 0
18453246 -0.3297253505156596 0.01679415900404937 0.0009197836786834189 0.00037670700435329864 0 0 0 0
18486192 -0.3298880360651448 0.01654969153162081 0.0009428093987436818 0.0003397040972312063 0 0 0 0
18519138 -0.33000596336874544 0.016783516819542963 0.0009428051368883299 0.00034402248573426843 0 0 0 0
18552084 -0.3298658419672336 0.016646736913896547 0.0009438761268991752 0.0003558563528611769 0 0 0 0
18585030 -0.32993103669482 0.016841998757645964 0.0009331572428883968 0.0003480240689037219 0 0 0 0
18617976 -0.32981565737721424 0.016692513143156732 0.0009503117368572048 0.0003709313146107198 0 0 0 0
18650922 -0.32988298529832644 0.01688976274684068 0.0009449365921241949 0.0003586776701561515 0 0 0 0
18683868 -0.32983271991781254 0.016739798147449157 0.0009667928053087438 0.0003312527073944304 0 0 0 0
18716814 -0.32992999560537767 0.016979458162032605 0.0009270048812955779 0.00033971843046674025 0 0 0 0
18749760 -0.33002018438795166 0.01679202719955478 0.0009587187700104723 0.00037568456578365305 0 0 0 0
18782706 -0.32977320856608316 0.016832987179533996 0.0009453944230107309 0.0003430098563831535 0 0 0 0
18815652 -0.329820993023349 0.017083818843591832 0.0009483583869123086 0.00033570373933022066 0 0 0 0
18848598 -0.3301007479633562 0.01706599178931538 0.0009348919825363399 0.00036995856655263037 0 0 0 0
18881544 -0.3297479214288251 0.0169416962213237 0.0009532013692085884 0.0003433579865718066 0 0 0 0
18914490 -0.32975888189235 0.01685782256316221 0.0009137437921962877 0.0003663222641250503 0 0 0 0
18947436 -0.3299793041742406 0.01705348904333028 0.0009620231756683454 0.0003597305293441726 0 0 0 0
18980382 -0.3300172120347474 0.01700232943498621 0.0009383505622719688 0.0003465337331763973 0 0 0 0
19013328 -0.3299053397426239 0.016986722996609496 0.0009526787296374253 0.00035341574465405146 0 0 0 0
19046274 -0.33011173380685416 0.017172761411842555 0.0009462160998234482 0.0003700976856551777 0 0 0 0
19079220 -0.329791236112538 0.016978284822167917 0.0009179115649000955 0.0003667012760560056 0 0 0 0
19112166 -0.330026154526625 0.016964561353665836 0.00093877414608262 0.00036339193561660087 0 0 0 0
19145112 -0.3298467359638986 0.01716251371319138 0.0009635575932073079 0.0003483699487794738 0 0 0 0
19178058 -0.33007684742915494 0.017205192584125735 0.000946221982552201 0.00036032133993552556 0 0 0 0
19211004 -0.3300944336221209 0.017249005219620035 0.0009406355974374104 0.0003746362143873405 0 0 0 0
19243950 -0.33002509529432505 0.017319831649351632 0.0009580588355557863 0.000356223342582647 0 0 0 0
19276896 -0.32973991851358353 0.01713036566303633 0.0009632542558007495 0.0003453428841720613 0 0 0 0
19309842 -0.3300234526663571 0.01723029757457366 0.0009526871883236023 0.00034277479364818543 0 0 0 0
19342788 -0.3301828849638942 0.017417038173182516 0.0009618342310554651 0.0003382923362296413 0 0 0 0
19375734 -0.3299371779804874 0.017064181019277713 0.0009594937350888687 0.0003590557102196331 0 0 0 0
19408680 -0.3299894472953045 0.017452098942396525 0.0009540540060244015 0.0003664026267809833 0 0 0 0
19441626 -0.3300505962945103 0.017323714235036723 0.000978519691988915 0.00037059499031575347 0 0 0 0
19474572 -0.3298425366151214 0.017462228592732273 0.0009675284236969382 0.0003746017194095409 0 0 0 0
19507518 -0.3302121442680943 0.017737550205523058 0.0009671269885762151 0.00037327384181204724 0 0 0 0
19540464 -0.33001537149519405 0.01741843225083981 0.0009610281668489423 0.00036354131245569895 0 0 0 0
19573410 -0.33005500777517455 0.01757423021738515 0.0009427629861748762 0.0003498091871924015 0 0 0 0
19606356 -0.3301287061494495 0.017357275705020703 0.0009694598589436759 0.00037411285435876707 0 0 0 0
19639302 -0.32999602421542246 0.017407993299461796 0.0009751406892571103 0.000361419262292125 0 0 0 0
19672248 -0.3302712425292665 0.01744240781870348 0.000968407455866788 0.0003768527684391076 0 0 0 0
19705194 -0.3300207884049133 0.017591545804100252 0.0009469440365048795 0.0003836765180726585 0 0 0 0
19738140 -0.3302789694099796 0.017766023658648038 0.0009396732006643436 0.0003631242398559093 0 0 0 0
19771086 -0.32982224807319244 0.017402528192203996 0.0009511310667759707 0.00035025231366795495 0 0 0 0
19804032 -0.3301110311836695 0.017774519153232766 0.0009669784216142879 0.0003684849870263244 0 0 0 0
19836978 -0.3302310260999393 0.01769097410619542 0.0009392604770618649 0.00036652935804709646 0 0 0 0
19869924 -0.33027742310433233 0.017908077177156548 0.000967080555940002 0.0003373781626628646 0 0 0 0
19902870 -0.32991418356622215 0.017604097298558958 0.0009660596230243564 0.00039088003755554225 0 0 0 0
19935816 -0.33014077645213513 0.01789216060076679 0.0009729403764732872 0.0003719353074733282 0 0 0 0
19968762 -0.33020371671344073 0.017719300192257672 0.0009606168841278255 0.00039013978146482277 0 0 0 0
20001708 -0.3301260968180345 0.01789037046904755 0.0009775631936632515 0.00036372779289418347 0 0 0 0
20034654 -0.3299609504046217 0.017738026557094732 0.000947558322742143 0.00036086060140320546 0 0 0 0
20067600 -0.33023320732395733 0.018135952797914197 0.0009496258453123951 0.00037362047181446984 0 0 0 0
20100546 -0.33004376908671124 0.01782656442313362 0.0009679039633525523 0.0003608882981840236 0 0 0 0
20133492 -0.330134609115026 0.017965756415633503 0.000952939466933209 0.00038525862396023827 0 0 0 0
20166438 -0.33023402355799186 0.017870059139437892 0.0009653106984745009 0.000356464201701724 0 0 0 0
20199384 -0.3301879431100315 0.01794008074930532 0.00095167041300974 0.00038562261661285264 0 0 0 0
20232330 -0.3299233997677131 0.018048489324209882 0.0009760845430674116 0.0003843567681449384 0 0 0 0
20265276 -0.3304324542663325 0.01798153462578115 0.0009454105026366993 0.00038526023328890285 0 0 0 0
20298222 -0.3301044771924374 0.017925621209686937 0.0009681986196123781 0.0003686187120916912 0 0 0 0
20331168 -0.3301981000127413 0.018081964551496462 0.0009802342427131729 0.00035182931630563447 0 0 0 0
20364114 -0.3301429027052166 0.01794910110137074 0.0009553157176292414 0.0003660444510621053 0 0 0 0
20397060 -0.33010464047974175 0.01818363064303456 0.0009693148800880801 0.00037601551820135286 0 0 0 0
20430006 -0.33024898507951 0.01815861460038423 0.0009928537617918986 0.0003880240899966988 0 0 0 0
20462952 -0.33016256637227875 0.018160529706565492 0.0009644226288246368 0.00038249664323044153 0 0 0 0
20495898 -0.3302636180336001 0.018190656376794866 0.0009456890514390614 0.00039178872216133194 0 0 0 0
20528844 -0.3301148386517959 0.018152254884302298 0.0009527527674483147 0.0003804231527567347 0 0 0 0
20561790 -0.33009674425115176 0.018268161783788327 0.0009807076289947492 0.0004003546859245621 0 0 0 0
20594736 -0.3304242137522763 0.0183588349338097 0.0009657534905344095 0.00040429884822659024 0 0 0 0
20627682 -0.33031114714996057 0.01833412591640335 0.0009489884568043114 0.00038796176834452357 0 0 0 0
20660628 -0.33031699057371655 0.018377216413266728 0.00095829694864046 0.00040004939627883514 0 0 0 0
20693574 -0.3299560781067751 0.018206437210318224 0.000991745077904762 0.00038581440649270945 0 0 0 0
20726520 -0.330063476882167 0.018309262987948775 0.0009734676686702754 0.00038746815907245467 0 0 0 0
20759466 -0.33018591614755693 0.0182962336592633 0.0009668611234713674 0.0003991097395736191 0 0 0 0
20792412 -0.3302592158058143 0.01848222274655052 0.0009935243531811243 0.00036941104313497085 0 0 0 0
20825358 -0.3305000270420791 0.018516484568635316 0.0009584599051702861 0.0004110967350229674 0 0 0 0
20858304 -0.3301778248753924 0.018376072999552608 0.0009853235671777912 0.0003910154550242475 0 0 0 0
20891250 -0.32994061698209115 0.01855216338425422 0.0009748488308726422 0.0003814748254328058 0 0 0 0
20924196 -0.3300779877294113 0.018361115214709754 0.0009798347686101453 0.000427013829672257 0 0 0 0
20957142 -0.33026907491012 0.01861335835445486 0.0009648509161064495 0.0003570049844248744 0 0 0 0
20990088 -0.3304206909492423 0.018598302224302525 0.0009662720061598173 0.0003913678867269435 0 0 0 0
21023034 -0.3302252647640336 0.018522162891429717 0.0009949506851031256 0.0003985886389636579 0 0 0 0
21055980 -0.3304527260715199 0.018719250435024946 0.0009800015059088132 0.00040852546262933027 0 0 0 0
21088926 -0.33030189352214967 0.01859473901135505 0.0009906471682269505 0.00042477459198255146 0 0 0 0
21121872 -0.33037264187071275 0.018587788526578143 0.0009862494712939477 0.0003970524437771557 0 0 0 0
21154818 -0.3304282526387147 0.018721776764867522 0.0009874041808932293 0.00040542778451408453 0 0 0 0
21187764 -0.3302039415714766 0.01879173051993746 0.0010058429084238826 0.0004220862983195433 0 0 0 0
21220710 -0.3304341875042944 0.018881030479243683 0.0009754080073321591 0.00040670877535426076 0 0 0 0
21253656 -0.33074365856548443 0.01886767865953188 0.000997745269387376 0.00039288317649391016 0 0 0 0
21286602 -0.33011624503871567 0.018671185910996983 0.0009745209615534802 0.00042925838165011815 0 0 0 0
21319548 -0.33042457310434087 0.018864374379800958 0.0009651367413427165 0.00040542099697620984 0 0 0 0
21352494 -0.3304375703638517 0.018749151478287523 0.0009695161842395918 0.000417184133151997 0 0 0 0
21385440 -0.33041083998020687 0.01889354365588458 0.0009733886448750938 0.0004079652981730368 0 0 0 0
21418386 -0.33064696778640124 0.0190210728745943 0.0009859927672245814 0.00041601252010739964 0 0 0 0
21451332 -0.33021211988208493 0.01892232299787419 0.0009738800060896928 0.0004263873890639553 0 0 0 0
21484278 -0.3305622645055092 0.019112275563516596 0.0009782545648187378 0.0003964421434102843 0 0 0 0
21517224 -0.3304955493825526 0.018919759395479397 0.0009862503359972109 0.0003916111800522145 0 0 0 0
21550170 -0.330573451573 0.019038545911119146 0.0009849271877656325 0.00043686217298336054 0 0 0 0
21583116 -0.33060629724773044 0.018984814980246158 0.000986164922519429 0.0004072174485639473 0 0 0 0
21616062 -0.3303923342828741 0.019106235933715104 0.000995661889215885 0.0003995165575877517 0 0 0 0
21649008 -0.3306175612884496 0.01929599236081505 0.000965761218769971 0.0004088932873585883 0 0 0 0
21681954 -0.33069164214862057 0.019432074510549152 0.0009763552197016221 0.00042483253003504644 0 0 0 0
21714900 -0.3303607438770137 0.019217501208778968 0.0010030130475543184 0.0004046208627390129 0 0 0 0
21747846 -0.3301287846967622 0.019099043551514653 0.0009801223182039512 0.0004159124923146098 0 0 0 0
21780792 -0.33047943904792687 0.019259315288707488 0.0010022334639047989 0.00041141695237004286 0 0 0 0
21813738 -0.33069596132350537 0.019563142667688015 0.000987756760811332 0.00042371827247032247 0 0 0 0
21846684 -0.3307257969287256 0.019292342505970398 0.000997304468850995 0.0004293617091756322 0 0 0 0
21879630 -0.3305225460606917 0.01929952618699024 0.0009778923903602337 0.00042435036402880297 0 0 0 0
21912576 -0.330451518897497 0.01926775784860255 0.0010094081483197897 0.00040425125010626177 0 0 0 0
21945522 -0.3306215502116539 0.01930001757261478 0.0009959920001082765 0.00040190916051721485 0 0 0 0
21978468 -0.3305768478985106 0.019124219837710354 0.0009839292654829723 0.00041067980506066776 0 0 0 0
22011414 -0.3305099354896869 0.019388659507682697 0.0009734198512377716 0.0004337456780732036 0 0 0 0
22044360 -0.33073436772841 0.01966287540934524 0.0010260985355054807 0.0004542708003019758 0 0 0 0
22077306 -0.3309283568945706 0.019468707586391437 0.0010059597492531299 0.0003947055325338122 0 0 0 0
22110252 -0.33059984485285865 0.019523970198085407 0.0009714684515414859 0.0004496049992897361 0 0 0 0
22143198 -0.33059288861665037 0.01954442207381975 0.0009673839081981991 0.00041925417463682544 0 0 0 0
22176144 -0.33060728379459386 0.01954702975791141 0.000993385984140077 0.0004185591348092212 0 0 0 0
22209090 -0.33086529217314853 0.01961072163255405 0.000978368207546158 0.00041823107287855337 0 0 0 0
22242036 -0.33062085376461015 0.01950263157873587 0.0010111226236184062 0.00041479292452491976 0 0 0 0
22274982 -0.33080657774232014 0.01965541151563351 0.0010064410441046423 0.0004220110090660387 0 0 0 0
22307928 -0.3305983496297926 0.01960157452358436 0.0010217679914257313 0.0004163623208466262 0 0 0 0
22340874 -0.33074289222240233 0.01976173136765501 0.000989591487415993 0.00043230153373695964 0 0 0 0
22373820 -0.3307614398605143 0.01983809463644364 0.0010063742367584375 0.00041522582878543803 0 0 0 0
22406766 -0.3307958660626969 0.019890889303950658 0.0009814115515054502 0.00044709126105350975 0 0 0 0
22439712 -0.3308191940346812 0.019816326763468242 0.0009988009351867026 0.0004011580846989396 0 0 0 0
22472658 -0.33065343572220207 0.019757921205712976 0.0009967656140561101 0.00044230827539331593 0 0 0 0
22505604 -0.33054050453547834 0.019819445368018485 0.000994879809448015 0.00043319299056235496 0 0 0 0
22538550 -0.3307912167266909 0.01981270342584567 0.0009867887820790427 0.00044950222534759893 0 0 0 0
22571496 -0.33070000034610725 0.01978567227499488 0.0010081335568772737 0.00045354429813567436 0 0 0 0
22604442 -0.3307311773924809 0.019985020503276267 0.0009942738508383123 0.00041730890179681737 0 0 0 0
22637388 -0.3307975296013489 0.02003532085519697 0.0010072258617218957 0.0004359673542674932 0 0 0 0
22670334 -0.330880632090577 0.019928519694751477 0.0010128222013058158 0.0004360310419768576 0 0 0 0
22703280 -0.33071357684891944 0.0199549198025629 0.0009867365706101232 0.0004395518098361122 0 0 0 0
22736226 -0.3306907201782305 0.01994293571543209 0.0009950885374201781 0.00044631724793715486 0 0 0 0
22769172 -0.33058054877391513 0.019806624681320887 0.0009962413218622484 0.00044898564254481493 0 0 0 0
22802118 -0.3306953156364965 0.02015200041686745 0.0010037724796743575 0.00042775224394581076 0 0 0 0
22835064 -0.330810481175768 0.020111000685023313 0.0010377726466574688 0.00043145722986820997 0 0 0 0
22868010 -0.3307772835879404 0.02018703117046873 0.0010021974277740532 0.0004226342543952749 0 0 0 0
22900956 -0.33084172142668117 0.020135230875345255 0.0009810146719900694 0.00044387997347446456 0 0 0 0
22933902 -0.3305646134295039 0.020119150197330862 0.0009943513492605253 0.00046210750313479393 0 0 0 0
22966848 -0.33081939048554876 0.020303605198060563 0.0010012113256246808 0.00046948009812816617 0 0 0 0
22999794 -0.33091629441841486 0.020390649073822424 0.000984140657606739 0.00042492559788294214 0 0 0 0
23032740 -0.33096317255588337 0.02035259946325698 0.0010087457289585265 0.000431553465534636 0 0 0 0
23065686 -0.330983831106912 0.0203444219976118 0.0010284459594223547 0.0004316803400712428 0 0 0 0
23098632 -0.33078003577762183 0.02037058274127194 0.0009980009176735677 0.00043663275763000344 0 0 0 0
23131578 -0.33075780921115605 0.020214270913102936 0.0010067740645726838 0.0004453058771923289 0 0 0 0
23164524 -0.330605451493752 0.020295627582044794 0.001038053695818951 0.00044540413937085534 0 0 0 0
23197470 -0.33093126607080736 0.020350863472993218 0.0010316203671271967 0.00044378786963219385 0 0 0 0
23230416 -0.33091094708467284 0.020578509955748368 0.0009795836379598785 0.00044446740653928676 0 0 0 0
23263362 -0.33094336527901647 0.020665638207332363 0.0010123481537481355 0.0004030074926559677 0 0 0 0
23296308 -0.3310791747951387 0.0207301383360125 0.0010114596114475145 0.00045887641642845535 0 0 0 0
23329254 -0.3307726205588905 0.02048512134161619 0.000994130856045954 0.0004667913711174198 0 0 0 0
23362200 -0.3309492430280871 0.02050969095202726 0.0009847654716908015 0.0004556611073435499 0 0 0 0
23395146 -0.33080481314922505 0.02039216378106127 0.0010124831726288342 0.00044811355049199404 0 0 0 0
23428092 -0.33072725177520046 0.020600059929081666 0.0009996938400388133 0.0004410851376458839 0 0 0 0
23461038 -0.3310856673246309 0.020758489416406917 0.0010126310660823986 0.00043663939959992585 0 0 0 0
23493984 -0.33101506045511886 0.020668498227940157 0.0010185363715527697 0.00045107098224720125 0 0 0 0
23526930 -0.3307663378782803 0.02067388275382855 0.0009942745480095063 0.0004716648875668305 0 0 0 0
23559876 -0.33085154470281974 0.020709410629207968 0.0010195211272342795 0.00047606623661779315 0 0 0 0
23592822 -0.3311596777046148 0.02080462429519767 0.0010261400574426828 0.00043183079395730156 0 0 0 0
23625768 -0.33087504546642577 0.020735593299715655 0.0010273503440955075 0.0004332496955196405 0 0 0 0
23658714 -0.3310881233000493 0.020816976067420553 0.0010109194995893075 0.0004926881196877025 0 0 0 0
23691660 -0.3312056145347547 0.020889429410925076 0.0010097275159759512 0.0004735661752579594 0 0 0 0
23724606 -0.33085097285282283 0.020684531010498015 0.0010323194480910869 0.0004455193853028997 0 0 0 0
23757552 -0.3311431548904478 0.02090658942907804 0.0010252356507287968 0.0004642808209222662 0 0 0 0
23790498 -0.33120178644942366 0.021149542356963855 0.0010138118698656163 0.0004626701893951358 0 0 0 0
23823444 -0.33127418386358515 0.02093931624430066 0.0010115024125782633 0.0004604113738029885 0 0 0 0
23856390 -0.3310557663446485 0.02094756098024287 0.001041334859260601 0.0004808515573053582 0 0 0 0
23889336 -0.3307896852508027 0.020878163448152277 0.0010262659946057584 0.0004563590946415517 0 0 0 0
23922282 -0.3310494114014021 0.02110753916459048 0.0010377213226898292 0.0004507134706482173 0 0 0 0
23955228 -0.331065817023022 0.021349903147963735 0.0010198702032669042 0.0004625195972371636 0 0 0 0
23988174 -0.33107486353258486 0.021012294483372138 0.0010119235135675995 0.0004621340426016897 0 0 0 0
24021120 -0.3313753640108606 0.021180031009045513 0.0010463959871140978 0.0004259028476909675 0 0 0 0
24054066 -0.33111942196195987 0.02105415956976625 0.001022923483576523 0.00043799462526063004 0 0 0 0
24087012 -0.331166684935825 0.021168342008159986 0.0010313155942157676 0.0004912662056277549 0 0 0 0
24119958 -0.33126288295297474 0.021315535178503278 0.0010039591236722584 0.0004715544846655359 0 0 0 0
24152904 -0.33117308772606335 0.021216518739416716 0.0010315897064987326 0.00048172741737874153 0 0 0 0
24185850 -0.3310829745125297 0.021284663844425122 0.0009826872689449387 0.00047057509084841607 0 0 0 0
24218796 -0.3310655885170738 0.021121826567398038 0.0010149026711014834 0.00047949432838651244 0 0 0 0
24251742 -0.33121649294358013 0.02112921482243493 0.0010498937023312948 0.00046303821813953024 0 0 0 0
24284688 -0.33117008522858654 0.021422724689226038 0.0010219309886335976 0.0004884744683937429 0 0 0 0
24317634 -0.33142072081831087 0.0213982670304048 0.001041138341616308 0.0004669270768985704 0 0 0 0
24350580 -0.3311927647306274 0.02143857150423012 0.001052152851904115 0.00048010593797026053 0 0 0 0
24383526 -0.3313979892245442 0.02137874603810484 0.0010404698919849835 0.00047855042232774396 0 0 0 0
24416472 -0.3313428974658995 0.02144164264421398 0.0010280348238086746 0.0004664976163670358 0 0 0 0
24449418 -0.3311832597249173 0.021364137269978177 0.0010555429156429569 0.00048476536055927494 0 0 0 0
24482364 -0.331199683591979 0.021663625130975726 0.0010403184517889328 0.0004628345045305756 0 0 0 0
24515310 -0.33129398181663827 0.021617415085896974 0.0010189759339457437 0.0004855657698870773 0 0 0 0
24548256 -0.3314046279032067 0.021629752406180525 0.0010437822337550668 0.000480863298606739 0 0 0 0
24581202 -0.33127478939388805 0.021483650973963105 0.0010086295782827214 0.00047261791331950834 0 0 0 0
24614148 -0.3309734750259024 0.02141595094024067 0.0010329831654026333 0.00048390338451269587 0 0 0 0
24647094 -0.33127130800459637 0.02168430020651767 0.001046460925445518 0.0004765966906562656 0 0 0 0
24680040 -0.3313028619225141 0.02174074692510105 0.0010209762295665136 0.00045909321717387664 0 0 0 0
24712986 -0.33113792322778773 0.021699293893580867 0.001042953441936126 0.0004979941421547347 0 0 0 0
24745932 -0.33109900102859907 0.021692429525112102 0.0010565612539132458 0.0004886232192934149 0 0 0 0
24778878 -0.33129014622938563 0.02178818764389613 0.0010660145787985645 0.0004898761943709403 0 0 0 0
24811824 -0.33140892081883566 0.021632254993529745 0.0010569115981900786 0.0004958386065560137 0 0 0 0
24844770 -0.33135473005678434 0.021742742588608515 0.0010272231775492323 0.00047338673219754897 0 0 0 0
24877716 -0.3314373801600674 0.021868049236866992 0.0010421713699407047 0.0004906656553309237 0 0 0 0
24910662 -0.33136869553851805 0.02200473162446583 0.0010255496762827275 0.0005067792421915323 0 0 0 0
24943608 -0.3314981596807743 0.02209910585561864 0.0010210990162316136 0.0004820262723514701 0 0 0 0
24976554 -0.33137558974779474 0.02193312094855028 0.0010424769894340272 0.0004928437508537628 0 0 0 0
25009500 -0.3312643272330347 0.02203853684267243 0.0010252810695201109 0.0005043354812909594 0 0 0 0
25042446 -0.33161082260929836 0.022094998301054797 0.0010492522579558412 0.00047354070073276245 0 0 0 0
25075392 -0.33143381212188966 0.021981098306121973 0.0010400212050065026 0.0004927993007157848 0 0 0 0
25108338 -0.3313394754818362 0.021991381831787227 0.0010427702865834286 0.00048239252633776254 0 0 0 0
25141284 -0.33155423845468945 0.02232149282910331 0.0010435890517392099 0.0005209394159442315 0 0 0 0
25174230 -0.33144408551885995 0.022042377037567604 0.0010368509467494698 0.0004918880818365832 0 0 0 0
25207176 -0.33149148076283524 0.022174921884524062 0.001064950766770146 0.0005090074671570569 0 0 0 0
25240122 -0.33141823752881033 0.02211924326896863 0.001038692432767198 0.0004900025628117939 0 0 0 0
25273068 -0.3314167893301228 0.022191777113722246 0.0010596226744810436 0.00048606603685421814 0 0 0 0
25306014 -0.33149116775470283 0.02218789419018354 0.0010100042678268897 0.0005023770598610725 0 0 0 0
25338960 -0.3314394468892819 0.02233238426903446 0.0010674295306065166 0.000534383558045917 0 0 0 0
25371906 -0.331573914579224 0.022342859874261125 0.0010643816602214108 0.00047596784986709043 0 0 0 0
25404852 -0.3316015367120598 0.022417631074781126 0.0010558030462896834 0.0005149606221061674 0 0 0 0
25437798 -0.33135002747051995 0.022169325675351036 0.0010568337290478473 0.0004760680969059883 0 0 0 0
25470744 -0.331554265915406 0.02230071183315178 0.0010635237909109169 0.0004930807350390384 0 0 0 0
25503690 -0.33162408454858905 0.022433196166225446 0.0010466541907784136 0.0005320685684020926 0 0 0 0
25536636 -0.33166538395946515 0.022510435337532782 0.0010703878485942295 0.0004953176935214557 0 0 0 0
25569582 -0.33159979466756956 0.02254734147575154 0.0010453679313632243 0.0005238997023472541 0 0 0 0
25602528 -0.33168524173637437 0.022512942450612285 0.0010703426324875274 0.0004947314967533989 0 0 0 0
25635474 -0.33165717751673596 0.022366818565043377 0.0010630149805193703 0.000518610935869871 0 0 0 0
25668420 -0.33153216895833376 0.02242231684382536 0.001065263703205819 0.0004989541515514534 0 0 0 0
25701366 -0.33154845443596753 0.022519205648463644 0.0010733192164083815 0.0004972454875748649 0 0 0 0
25734312 -0.3317270897496084 0.022624439463786308 0.0010680330371525158 0.0004999576293851619 0 0 0 0
25767258 -0.33172446857815324 0.022678881688277974 0.001055877989803108 0.000499876658710706 0 0 0 0
25800204 -0.33163689078055736 0.02250111077030588 0.0010629185044233513 0.0004967352772642229 0 0 0 0
25833150 -0.33172637617499046 0.02275931070483055 0.0010463619856130608 0.0004993883409203661 0 0 0 0
25866096 -0.33172333202822424 0.022673136137217616 0.0010614032267442445 0.0005067455857686724 0 0 0 0
25899042 -0.3317567681356486 0.02277553260583284 0.001032328945724559 0.0004929375949606795 0 0 0 0
25931988 -0.3320705947627481 0.022858087757508836 0.0010406375124598823 0.0005163748896463969 0 0 0 0
25964934 -0.3317516646286205 0.02280557372963781 0.0010460306311128264 0.000528075859833302 0 0 0 0
25997880 -0.33176115057521793 0.022794084857198138 0.0010616988242357446 0.0005357090074177049 0 0 0 0
26030826 -0.3318350824172866 0.022886796256899804 0.0010671791830438938 0.0005198214947540486 0 0 0 0
26063772 -0.33199952586804937 0.02289644420305969 0.0010460142446976433 0.0004862792085160854 0 0 0 0
26096718 -0.3317482905369627 0.022780175952045366 0.0010595759448576829 0.0004967193387768913 0 0 0 0
26129664 -0.33170110116093493 0.0228995904321597 0.0010449215811527898 0.0005188449297000703 0 0 0 0
26162610 -0.3316375941272359 0.022964453959965964 0.0010717314196831966 0.0005181877983032628 0 0 0 0
26195556 -0.3318665106708998 0.023061380603945813 0.001077151045185028 0.00048081753864811025 0 0 0 0
26228502 -0.3318816199881603 0.02322151304890076 0.0010592645778515744 0.0005033076065972211 0 0 0 0
26261448 -0.33188071191201174 0.02315751712518672 0.0010691894079053986 0.0005289992778371668 0 0 0 0
26294394 -0.3318125038450492 0.023158760443815412 0.0010837422859457369 0.000512214539837027 0 0 0 0
26327340 -0.331976706802967 0.023162331342702475 0.0010740349644449607 0.0005309061233561285 0 0 0 0
26360286 -0.33187987048873746 0.022991577529401244 0.0010720567409681554 0.0005315903484510853 0 0 0 0
26393232 -0.3317705780117839 0.023024297387049437 0.0010881465242798677 0.0005228871189374568 0 0 0 0
26426178 -0.3317449644010232 0.023092707542310645 0.001068218658985084 0.0005212154123887475 0 0 0 0
26459124 -0.3318468017432587 0.023238192427112284 0.0010800350516931127 0.0005450306016380477 0 0 0 0
26492070 -0.33175517827213535 0.0233474909059618 0.0010678437023976446 0.0005381217411558906 0 0 0 0
26525016 -0.3319021583049003 0.023305450380985516 0.001051524108711574 0.0005280048522155695 0 0 0 0
26557962 -0.3318756323686631 0.023517832327153487 0.0010923658849010243 0.0005187875169041586 0 0 0 0
26590908 -0.33209909283364747 0.02334595658054617 0.0010749439989617947 0.0004950896753958784 0 0 0 0
26623854 -0.3319448869824905 0.02319724887353785 0.0010617167801924355 0.0005390600849112377 0 0 0 0
26656800 -0.33195952913828713 0.023363533010602767 0.0011010882677146914 0.0005235799004612993 0 0 0 0
26689746 -0.33202962822206744 0.023372536420547926 0.0010852707140757633 0.0005025261365680909 0 0 0 0
26722692 -0.33203170252730363 0.02365785199033711 0.0010883565128093507 0.0005372330583779965 0 0 0 0
26755638 -0.3319832165390276 0.02358719325021455 0.0010626320437790437 0.0005239575838118706 0 0 0 0
26788584 -0.3319978573531842 0.023436456168080197 0.0010590345484824185 0.0005155870858052687 0 0 0 0
26821530 -0.33193031929160155 0.023575447151609995 0.0010721727049081459 0.0005178918032741277 0 0 0 0
26854476 -0.33190817635231146 0.023625453842574005 0.0010650692109013813 0.0005381994282765103 0 0 0 0
26887422 -0.33211561922131305 0.0235830646234049 0.0010575771395778346 0.0005247374743251425 0 0 0 0
26920368 -0.33189318953350394 0.023579941810634733 0.0010767091917109099 0.0005102383134145383 0 0 0 0
26953314 -0.33233655072383805 0.023701956361118832 0.0010770244608250073 0.0005459521439712986 0 0 0 0
26986260 -0.3319768099516742 0.023557479526605443 0.0010909257573978475 0.0005276025496822364 0 0 0 0
27019206 -0.33221452256172773 0.023782846072257 0.001066863616442397 0.0005257866055179995 0 0 0 0
27052152 -0.33216922205951926 0.023841149708886893 0.001089216280452016 0.0005335475848833125 0 0 0 0
27085098 -0.3320105729327663 0.023721622282087167 0.0010693707290786035 0.0005405277504571122 0 0 0 0
27118044 -0.3321961074013454 0.02395200661589561 0.0010959082295226668 0.0005396274706613716 0 0 0 0
27150990 -0.3321697089991285 0.02384180759907878 0.0010709841085493209 0.0005817803547635463 0 0 0 0
27183936 -0.33221656452669096 0.023900577438569746 0.001081555224897794 0.0005430181565045305 0 0 0 0
27216882 -0.33226262681579327 0.02384562298006356 0.001078907359439279 0.0005704323095084053 0 0 0 0
27249828 -0.3321249115003722 0.023900884548271606 0.0010851519138950852 0.0005584110978195144 0 0 0 0
27282774 -0.33223088084287783 0.02406357552124875 0.001053998236960615 0.0005351886824502329 0 0 0 0
27315720 -0.33215187557606635 0.023927832929295192 0.001085910924165252 0.0005202689477789874 0 0 0 0
27348666 -0.33218243820874105 0.024107108468291238 0.0010963077913014767 0.0005439223963179846 0 0 0 0
27381612 -0.3324301561900544 0.02416722541897127 0.001104301326905261 0.0005294080428917237 0 0 0 0
27414558 -0.3323668404424559 0.024095962355176977 0.0010872389148056177 0.0005137869941142707 0 0 0 0
27447504 -0.3321249448309332 0.024060404334508425 0.001076587211770768 0.0005574625476069371 0 0 0 0
27480450 -0.33248956239226984 0.024359088556092267 0.001110062949118264 0.0005644739525875576 0 0 0 0
27513396 -0.3323138833512694 0.02415979073022181 0.0010964057376504277 0.0005323607751893177 0 0 0 0
27546342 -0.33240323479453643 0.02444984467814194 0.0010783274861879313 0.0005382635570046789 0 0 0 0
27579288 -0.33244192017538515 0.02425378314744757 0.001100548462571921 0.0005521784330774205 0 0 0 0
27612234 -0.3322623096572874 0.024328265110901286 0.0011041473652017072 0.0005614123188585511 0 0 0 0
27645180 -0.33233888291536456 0.024365913178360083 0.001117950852661318 0.0005794484278364446 0 0 0 0
27678126 -0.3324499878343848 0.02451359453912694 0.0010992438512451757 0.0005559299249289935 0 0 0 0
27711072 -0.33239225594299 0.02434104256570568 0.0010882498634849037 0.0005545868338395052 0 0 0 0
27744018 -0.3322168287798644 0.02428106708158847 0.0010708960179309755 0.0005342480075389438 0 0 0 0
27776964 -0.33255937886903936 0.02456388713362284 0.0010936376904505138 0.0005665139500537687 0 0 0 0
27809910 -0.3324768919436245 0.024546342843253504 0.0010864149421707082 0.0005689998862501445 0 0 0 0
27842856 -0.33233921953327583 0.02443314896295401 0.0011048751127859823 0.0005762999475176818 0 0 0 0
27875802 -0.33234220834601075 0.024301836443674948 0.0010910115601381629 0.0005358137583392253 0 0 0 0
27908748 -0.3324538053425845 0.02455961909397298 0.0010941181472268321 0.0005534740526961097 0 0 0 0
27941694 -0.33253404647444584 0.02471586582293903 0.001089769124049913 0.0005649006214839243 0 0 0 0
27974640 -0.3325485641433075 0.024874700865255065 0.001086607052213906 0.0005446852317684994 0 0 0 0
28007586 -0.33242615328410385 0.024546782431368156 0.001084314641728697 0.0005445400983580995 0 0 0 0
28040532 -0.33274849804198503 0.024665810252146435 0.001067847622938989 0.0005601996718285407 0 0 0 0
28073478 -0.3322262211777207 0.024609751970741067 0.001101613290548249 0.0005597048834739568 0 0 0 0
28106424 -0.3324851803581896 0.024768628652607552 0.0011052383350113341 0.0005446208697538325 0 0 0 0
28139370 -0.33251681160499325 0.02492404609468059 0.0010979178981011272 0.0005732371384250698 0 0 0 0
28172316 -0.3325388350796149 0.024812989710416105 0.0011071205000462911 0.0005516332784383622 0 0 0 0
28205262 -0.33283742009353806 0.024813056850931346 0.0010990436615809617 0.0005789436732510932 0 0 0 0
28238208 -0.3328461765413243 0.02496872033429159 0.001105049499820889 0.0005442379726685153 0 0 0 0
28271154 -0.3325874763940008 0.024876317154464835 0.0010816709525029243 0.0005583686998026008 0 0 0 0
28304100 -0.3327793279978691 0.025058703263239234 0.0011056468698767705 0.0005818119325597395 0 0 0 0
28337046 -0.33274545530788124 0.025141004245558752 0.00111369448941679 0.0005657462799533199 0 0 0 0
28369992 -0.332775080275848 0.02517196757412855 0.00111470945216389 0.0005409193999544222 0 0 0 0
28402938 -0.3324090629942456 0.02503727133349461 0.0010954679544845543 0.0005634593876522627 0 0 0 0
28435884 -0.33273328696767906 0.024981988586370844 0.0010847051774398866 0.0005748741338622145 0 0 0 0
28468830 -0.3327840525988487 0.024981792975110707 0.0011098982624042247 0.0005654842916706064 0 0 0 0
28501776 -0.3323845186107139 0.025084248674154163 0.0011152737711259777 0.0005561559702184942 0 0 0 0
28534722 -0.3327454715025381 0.025261987417153974 0.001139617235906965 0.0005697759471021615 0 0 0 0
28567668 -0.3328943791861692 0.02532222595819118 0.001102106470824258 0.0005890325304170995 0 0 0 0
28600614 -0.3329211145257672 0.025191791401043415 0.0011376290081160886 0.0005692972628580822 0 0 0 0
28633560 -0.33256995734588096 0.02509254764929326 0.001133327675448656 0.0005430367121569193 0 0 0 0
28666506 -0.3325258064487089 0.0251476442377703 0.0011150425984172891 0.0005770611229552305 0 0 0 0
28699452 -0.3328375271577593 0.0254619536274264 0.0010983523167603783 0.0005664847634470812 0 0 0 0
28732398 -0.3330138058144809 0.025285054358651145 0.0011264740783363488 0.0005716239596494932 0 0 0 0
28765344 -0.332633294992504 0.02526075130899708 0.0011279506951779935 0.0005321692723270311 0 0 0 0
28798290 -0.33301987503898595 0.02566617614200759 0.001111094136095637 0.0005798867414300595 0 0 0 0
28831236 -0.3328652700285183 0.025503612365199897 0.0011173209646421266 0.0005722483503704922 0 0 0 0
28864182 -0.3330528284480977 0.025176202489793752 0.0011019668636064117 0.0005933150326638795 0 0 0 0
28897128 -0.33267113553642375 0.02540454287960051 0.0011327409008414244 0.0005736074936436489 0 0 0 0
28930074 -0.33295937033604356 0.02559191564985314 0.0011079079210160145 0.0005734932393959352 0 0 0 0
28963020 -0.3328143389115384 0.0255485388257202 0.001110936751801617 0.0005783279157993068 0 0 0 0
28995966 -0.332922650424747 0.025710384377791957 0.0011145040544678067 0.0005431786196623095 0 0 0 0
29028912 -0.3328639317830452 0.025454823082144182 0.0011103025610504876 0.0005796508892851226 0 0 0 0
29061858 -0.33275157923285764 0.025488673449103626 0.0011272710022693627 0.0005571806637733904 0 0 0 0
29094804 -0.3331406039453445 0.02586740545977848 0.0011466469330735085 0.0005601226178031728 0 0 0 0
29127750 -0.3327432479126681 0.025624040648788583 0.001122086226218146 0.0005984704760827457 0 0 0 0
29160696 -0.3331299903336582 0.025839170844977163 0.0011121778868942956 0.0005862176164082421 0 0 0 0
29193642 -0.3331686968737721 0.025767092292176413 0.0011365723045148822 0.0005656578559423296 0 0 0 0
29226588 -0.33306775128476307 0.02587168468109852 0.001113355518622815 0.0005842716738750489 0 0 0 0
29259534 -0.3330893719303092 0.025834194218274584 0.0011168042321397645 0.0005603588733223675 0 0 0 0
29292480 -0.333117426749684 0.02584107048651697 0.0010857887100075984 0.0005732173894436153 0 0 0 0
29325426 -0.33306359572931304 0.025743019157294794 0.00113330239039274 0.0005701615734948982 0 0 0 0
29358372 -0.33310370097424824 0.025828511852869513 0.0011415490108049214 0.0005624508482236657 0 0 0 0
29391318 -0.33289078625340585 0.025787689607809867 0.0011308417005265756 0.00057272673100508 0 0 0 0
29424264 -0.33276304955177627 0.025929908572190782 0.0011522334736835142 0.0005847826176715355 0 0 0 0
29457210 -0.33335003986087525 0.026090213987160323 0.001127445437828074 0.00055899671586469 0 0 0 0
29490156 -0.3329039990470435 0.026058574816586764 0.0011277647694055797 0.0005640559074270794 0 0 0 0
29523102 -0.3330440667043912 0.0261188996596938 0.001096199182548343 0.0005788631719840178 0 0 0 0
29556048 -0.33328229889437694 0.026260239027082737 0.0011268956319453283 0.0005914723560281112 0 0 0 0
29588994 -0.3330491697479921 0.02601825619372066 0.0011225649816088577 0.0006072340008590274 0 0 0 0
29621940 -0.33325395095066 0.026038195779185064 0.0011088800976345795 0.0005896525100411814 0 0 0 0
29654886 -0.33323338640874683 0.02634833816000312 0.0011324560011386196 0.0005865860401327922 0 0 0 0
29687832 -0.33311964814529116 0.026289657884645344 0.0011385703558940822 0.0005928623058052781 0 0 0 0
29720778 -0.33328106200088065 0.02618200964918739 0.0011352294365705546 0.0005714865406965749 0 0 0 0
29753724 -0.3332701256251253 0.0264124215372647 0.001114458815865686 0.0005786430644359489 0 0 0 0
29786670 -0.33333820596593783 0.026416916715009932 0.0011388308783573564 0.0005961310927554423 0 0 0 0
29819616 -0.3333174867901276 0.02639863887308666 0.001128034794263371 0.0005955734057664571 0 0 0 0
29852562 -0.33326493737315616 0.026292210127732956 0.001113219548024482 0.0005843225102916643 0 0 0 0
29885508 -0.3332433715032403 0.02633352357397848 0.00113579480461151 0.0005825835838224883 0 0 0 0
29918454 -0.3331689316663399 0.026481273301839844 0.0011016645074119502 0.0005593136574840696 0 0 0 0
29951400 -0.33336394691210586 0.02667247266015316 0.0011444808977691086 0.0005986706045034291 0 0 0 0
29984346 -0.33326312096622646 0.02668374379602161 0.001146368809365444 0.0005896492167704539 0 0 0 0
30017292 -0.33333197003436643 0.02651680249650635 0.001157263714159607 0.000573810946826709 0 0 0 0
30050238 -0.3332825355039805 0.02631125228204046 0.0011394813902055225 0.0006071374746360565 0 0 0 0
30083184 -0.3332763594949754 0.02649420248063555 0.0011249641771833479 0.000588085737721507 0 0 0 0
30116130 -0.3330921288888292 0.02666307234965872 0.0011399731983406766 0.0006143408791273345 0 0 0 0
30149076 -0.33334725837590057 0.026697385850978358 0.0011178802308657826 0.0006197819831480971 0 0 0 0
30182022 -0.3335254434380985 0.026719547426217433 0.0011509204863368542 0.0005986022226120276 0 0 0 0
30214968 -0.33364279860293417 0.02679166959093678 0.0011200933049843578 0.0006131010406017494 0 0 0 0
30247914 -0.33336708305076945 0.02668402162806463 0.0011439209584381692 0.0005990689423956718 0 0 0 0
30280860 -0.33335320687666115 0.026876496627611452 0.0011407981416769642 0.0005587153868051416 0 0 0 0
30313806 -0.3335896137767055 0.027013434343205293 0.0011685674667947174 0.0005976284708980424 0 0 0 0
30346752 -0.33336090494007214 0.026872296781987583 0.0011751904043252714 0.000609810328249 0 0 0 0
30379698 -0.3335770641719541 0.026922280606477264 0.0011448493701434357 0.0005824123367694853 0 0 0 0
30412644 -0.33350998441439167 0.026960837429157093 0.0011461246865784856 0.0006067092889484332 0 0 0 0
30445590 -0.33369932149924236 0.0268879891699745 0.0011280219072403047 0.0006138411287536725 0 0 0 0
30478536 -0.3335178401708354 0.02681613988933998 0.0011359839522800607 0.000584369239416593 0 0 0 0
30511482 -0.3334002917247241 0.026963455618174783 0.0011413099386653816 0.0006039462280921663 0 0 0 0
30544428 -0.3335336139735502 0.027170946037811575 0.0011557319051371624 0.0005829579687952745 0 0 0 0
30577374 -0.3335955615216423 0.026979552601473184 0.001116428172017836 0.0006272520243642728 0 0 0 0
30610320 -0.3336800257019736 0.0271329943072015 0.0011448440601764117 0.0006071422006872027 0 0 0 0
30643266 -0.3338580947695128 0.02724379417170486 0.0011540380881913334 0.0006053155627386672 0 0 0 0
30676212 -0.333537903170882 0.027304414860530646 0.0011740320731550456 0.0006006294388398006 0 0 0 0
30709158 -0.33368046483048863 0.02719720577298878 0.0011660865446018907 0.0006112049590313687 0 0 0 0
30742104 -0.33372511468958105 0.02701180186325161 0.0011329166692294068 0.0006024779600283609 0 0 0 0
30775050 -0.3335239518149563 0.027276063479008107 0.001175895143393964 0.0006222140073369994 0 0 0 0
30807996 -0.3336806897067234 0.027350111831844836 0.0011532790580092572 0.0006063315601325048 0 0 0 0
30840942 -0.3337056569346793 0.027504598618468056 0.0011472142841353532 0.0005973815279597674 0 0 0 0
30873888 -0.33381748275219025 0.02753144207577738 0.0011370690945240755 0.0006070120190798639 0 0 0 0
30906834 -0.33389849635747654 0.027583242442040853 0.0011472530172106934 0.0005998099732452782 0 0 0 0
30939780 -0.33374499562090515 0.027229552116274553 0.001177151426714499 0.0005978158473500092 0 0 0 0
30972726 -0.33368949525698194 0.02746183839325585 0.0011608087583805618 0.0006095725425413274 0 0 0 0
31005672 -0.333738354703425 0.027631862613233388 0.0011463902938495445 0.0006183804807102832 0 0 0 0
31038618 -0.33385852825312023 0.027483139030464433 0.0011547396802561105 0.0006134343378763381 0 0 0 0
31071564 -0.33385067800257867 0.02739210362026545 0.0011643637347857369 0.000577597362787188 0 0 0 0
31104510 -0.3340091950913232 0.027483229897958365 0.0011400034117524495 0.0006413861886163279 0 0 0 0
31137456 -0.33361362213812695 0.02763213143330939 0.001153592643681277 0.0006359153429733664 0 0 0 0
31170402 -0.3339138961696571 0.027666070467574435 0.0011811821505748929 0.0005963486746097124 0 0 0 0
31203348 -0.3341202283649367 0.027952519350453228 0.001188610654200931 0.0006296499072030394 0 0 0 0
31236294 -0.3341659823456411 0.02764189977335513 0.0011581372498096953 0.0005998874441027015 0 0 0 0
31269240 -0.3337556958300064 0.027712736231097327 0.0012000084850570657 0.0006115938225960556 0 0 0 0
31302186 -0.33396371507531597 0.02772142314361656 0.0011436782958364879 0.0006367023300557854 0 0 0 0
31335132 -0.33407308983334383 0.028007224942994905 0.0011718693891208855 0.0006063274188756231 0 0 0 0
31368078 -0.33422175345550215 0.027729857564084647 0.0011598258474611381 0.0006593638802286267 0 0 0 0
31401024 -0.33391364794121586 0.027774496503244553 0.001176665307228677 0.0006148256812504158 0 0 0 0
31433970 -0.33404273209971297 0.027879519602619855 0.0011626710885244006 0.000624194641079131 0 0 0 0
31466916 -0.33404939951330936 0.028012058795698166 0.0011541283657494352 0.0006058915732937959 0 0 0 0
31499862 -0.3340762691610006 0.02782257829993164 0.0012137295228747433 0.0005811990782848623 0 0 0 0
31532808 -0.3340566240548777 0.027924452896996865 0.0011553361522983199 0.0005889057890219644 0 0 0 0
31565754 -0.3340550973380972 0.028064566157125097 0.0011807866700909973 0.0006060223347994234 0 0 0 0
31598700 -0.3337162163105219 0.027962801637041873 0.001197896714875413 0.0005992856834058628 0 0 0 0
31631646 -0.33411116112923467 0.027936263720077514 0.0011368650633607853 0.0006115482242606426 0 0 0 0
31664592 -0.33414131282657583 0.027896209993760867 0.0012206427290098808 0.0006600799048662553 0 0 0 0
31697538 -0.33392149942967175 0.028221545986380804 0.0011914733200952758 0.0007460285823966757 0 0 0 0
31730484 -0.33414248868773033 0.02817941627549677 0.0011112584884405054 0.0005498222476630313 0 0 0 0
31763430 -0.33410339344764134 0.028079193185603837 0.0012334758910799901 0.0005839921419363417 0 0 0 0
31796376 -0.33421564207880716 0.02806920843999599 0.001138177476010708 0.0006035934662159282 0 0 0 0
31829322 -0.3340983507071043 0.028162033437508397 0.0011448696083494584 0.0005427205445698621 0 0 0 0
31862268 -0.33407969266314835 0.028330340331472022 0.0011797904731213435 0.0006097887378603887 0 0 0 0
31895214 -0.33420353428263694 0.028321174305836052 0.0011506267284640162 0.0006291141025807626 0 0 0 0
31928160 -0.3342130358024749 0.028226725249671975 0.0011741932976149533 0.0006563227541218727 0 0 0 0
31961106 -0.3343692843267826 0.028655739978674655 0.001170227622499092 0.0006100408142082415 0 0 0 0
31994052 -0.33446233039143536 0.028644706562888388 0.0011840674674816819 0.0006235339352662926 0 0 0 0
32026998 -0.33436020927391297 0.028378474501327064 0.0011706367869545513 0.0006266891713281271 0 0 0 0
32059944 -0.3344958069232082 0.02835976502434111 0.0011929168124897654 0.0006246390273358713 0 0 0 0
32092890 -0.33433668159632257 0.02864464754891571 0.0011831276552611222 0.00064341109961959 0 0 0 0
32125836 -0.33429586631481295 0.028617393553768394 0.0011830818865343378 0.0006372323912391611 0 0 0 0
32158782 -0.33449056045714215 0.02856631176649238 0.001205829315350628 0.0006436208651547245 0 0 0 0
32191728 -0.33427226591518555 0.028472394763727094 0.001174877470432802 0.0006486338654881183 0 0 0 0
32224674 -0.3342594640476055 0.02847102598584189 0.0011747720909194583 0.0006110384987571477 0 0 0 0
32257620 -0.33436252883582457 0.028856402867726793 0.0012017040131717146 0.0006233835859734792 0 0 0 0
32290566 -0.3343616070930566 0.02869270847204511 0.0011669573949949117 0.0006300654807641512 0 0 0 0
32323512 -0.3344795644965441 0.02888407540378254 0.0011543971855996814 0.0006312710605962589 0 0 0 0
32356458 -0.3345109944526198 0.028807911937934274 0.001190472492891957 0.0006357494575903654 0 0 0 0
32389404 -0.3345175389432454 0.028979347795511368 0.0011699138749204927 0.0006334413074817052 0 0 0 0
32422350 -0.33446272470359806 0.028780054054551803 0.001211857362218105 0.000651647117593366 0 0 0 0
32455296 -0.33437537686213753 0.028814572358839684 0.0012043925934363258 0.0006600289288964141 0 0 0 0
32488242 -0.33467057168242575 0.0288329216653019 0.0011981928999717127 0.0006374207753755012 0 0 0 0
32521188 -0.3345168378550176 0.0287930478775346 0.0011963064531909744 0.0006475455834987887 0 0 0 0
32554134 -0.3346851093264074 0.028882997643202412 0.0011772572371935598 0.0006360730366187908 0 0 0 0
32587080 -0.3345215488360796 0.028922271928406525 0.001213807228209801 0.0006164351693561585 0 0 0 0
32620026 -0.33472646162356434 0.029157581423707248 0.0011847638523075357 0.0006342090464118953 0 0 0 0
32652972 -0.3346606287131174 0.02908293020410051 0.0011983515930859237 0.0006656199536353393 0 0 0 0
32685918 -0.33445875366404804 0.02895035056839886 0.0011919814902976425 0.0006389285193588982 0 0 0 0
32718864 -0.3347756850217554 0.02910039278738789 0.001200824988267434 0.0006526410301418347 0 0 0 0
32751810 -0.33477352712731123 0.029040033990102222 0.0011758601245636308 0.0006560984673999755 0 0 0 0
32784756 -0.3347486855310137 0.029369643557316846 0.0011742822870426024 0.0006441830701694991 0 0 0 0
32817702 -0.33469193575839495 0.02913444027547339 0.0011801455557846393 0.000647369854483451 0 0 0 0
32850648 -0.3345007051150194 0.029169241680649396 0.0011830588688665818 0.0006344392075289212 0 0 0 0
32883594 -0.33478612201214253 0.02926160862031782 0.0011903268098069073 0.000638769883772602 0 0 0 0
32916540 -0.33482816546579736 0.02907023375357855 0.0012185189522478162 0.0006508841964947379 0 0 0 0
32949486 -0.3349132467087377 0.029246291767343783 0.0011930636953076726 0.0006427184921524451 0 0 0 0
32982432 -0.3345882451102977 0.029370945185593838 0.00119105471262349 0.000658342326375844 0 0 0 0
33015378 -0.334864527523349 0.029601283248186137 0.0012242859744967625 0.000644872039206281 0 0 0 0
33048324 -0.3346425841612969 0.02943983021823596 0.0011948923194241947 0.0006498355098667428 0 0 0 0
33081270 -0.3348615907933995 0.02938901056130512 0.0012170351817401474 0.0006717267359868151 0 0 0 0
33114216 -0.334848325948731 0.029394609662326456 0.0011928057622382618 0.0006393252525673987 0 0 0 0
33147162 -0.33494485065205704 0.029444473665208262 0.0012024959920712837 0.0006403287758146882 0 0 0 0
33180108 -0.3349912504468683 0.029607279256058775 0.0012049587262429717 0.0006525826181190605 0 0 0 0
33213054 -0.3348469540887737 0.029619614118818822 0.0012085736351087938 0.0006454429503326409 0 0 0 0
33246000 -0.33480457299158994 0.02972382514606478 0.001220286478420264 0.0006592108807804555 0 0 0 0
33278946 -0.3350969285886295 0.02980300410313274 0.0012141653520145914 0.0006884208900918877 0 0 0 0
33311892 -0.3350098451675497 0.029755809929009093 0.0012126633265237938 0.0006442531694397053 0 0 0 0
33344838 -0.33494853085376414 0.029581381884858805 0.001187760397912545 0.0006631838030501659 0 0 0 0
33377784 -0.3350061681270759 0.029677219367714322 0.0012009020199124857 0.0006761267152530859 0 0 0 0
33410730 -0.33575793386826414 0.03306527009686751 0.0011970191114839617 0.0006427492762781865 0 0 0 0
33443676 -0.33614742063490627 0.03347569500397498 0.001214934025535424 0.0006682163701472955 0 0 0 0
33476622 -0.33591669013464603 0.03357482478293375 0.001221083730407955 0.0006432845686536793 0 0 0 0
33509568 -0.3358608637861752 0.033525794527065035 0.0012080266599120894 0.0006727276535284673 0 0 0 0
33542514 -0.33503966254182865 0.029894393658992536 0.0012197839723095438 0.0006395768144294101 0 0 0 0
33575460 -0.3351978556451086 0.02977601762556004 0.001187120946150431 0.0006631047269329511 0 0 0 0
33608406 -0.33509014609122395 0.030013772138202405 0.001208198689695364 0.000679946315909686 0 0 0 0
33641352 -0.3351983337862986 0.029961432278845623 0.0011965008038086488 0.0006633563476242432 0 0 0 0
33674298 -0.33489834678091857 0.030111645795442676 0.0012224534761451442 0.0006767053272561723 0 0 0 0
33707244 -0.3352529428228095 0.030040674799734865 0.0012254560774700937 0.0006495165855672014 0 0 0 0
33740190 -0.3352633915923954 0.030067636163673344 0.001214292043242357 0.0006813019906557954 0 0 0 0
33773136 -0.3351024945237483 0.03031468238893736 0.0012327375555735783 0.00067009912059816 0 0 0 0
33806082 -0.33515859021419275 0.03014378107952533 0.001224994712424707 0.000666667009097801 0 0 0 0
33839028 -0.33504855339247064 0.030346300622177007 0.001200388362284589 0.0006682937607527304 0 0 0 0
33871974 -0.33536150693597516 0.030198678548248446 0.0012208698509974475 0.0006509755348887946 0 0 0 0
33904920 -0.33540230292590484 0.029982708804139682 0.001217233416683933 0.0006804248946023399 0 0 0 0
33937866 -0.33514270533089163 0.030616201436487387 0.001228570599162988 0.000668850836748685 0 0 0 0
33970812 -0.3352825366348126 0.030442843168527148 0.0012356727664184428 0.0006439774882804752 0 0 0 0
34003758 -0.3352825019381528 0.030522590023688723 0.001245295889455391 0.0006510346790691841 0 0 0 0
34036704 -0.3354245464307843 0.030465556010795047 0.0012427651053349303 0.0006483077582034658 0 0 0 0
34069650 -0.33543160941678357 0.030340594010420302 0.0012170640993747585 0.0006710024656146585 0 0 0 0
34102596 -0.335381993750797 0.03041550559832316 0.0012014872227002137 0.0006684862631542339 0 0 0 0
34135542 -0.33553941832087975 0.03027742612639477 0.0012243136093694157 0.0006648870922884623 0 0 0 0
34168488 -0.33536273830398655 0.03075966018547757 0.0012446201040392656 0.0006571683987539813 0 0 0 0
34201434 -0.33545677436383736 0.030591521385538306 0.0012492725807529326 0.0006586645818213595 0 0 0 0
34234380 -0.3354469318507373 0.03065577813493923 0.0012254852818241787 0.0006669852701192389 0 0 0 0
34267326 -0.3357136111047729 0.03060656567837211 0.0012223383768523624 0.0006717520711531878 0 0 0 0
34300272 -0.3353616484535765 0.030796263315724954 0.0012249756256482954 0.0006929640731866204 0 0 0 0
34333218 -0.33535410961882295 0.030729986245205166 0.0012225508941514625 0.000653265625319278 0 0 0 0
34366164 -0.33555432774273847 0.031090398262402143 0.001239988412446821 0.0006690369515445153 0 0 0 0
34399110 -0.33551561913299927 0.030954422885013357 0.0012430206911145584 0.0006682068616828864 0 0 0 0
34432056 -0.33567534337394017 0.030715995503702832 0.0012263530464761234 0.000658136374867305 0 0 0 0
34465002 -0.3355683393026163 0.030905769425069445 0.0012274608320855037 0.0006819044350887526 0 0 0 0
34497948 -0.3356255154776979 0.030870757985485983 0.0012452108960413252 0.0006516099261044167 0 0 0 0
34530894 -0.33554057391899905 0.03084220093582526 0.0012290378675949532 0.0007018317648624704 0 0 0 0
34563840 -0.3354198590392703 0.03099540475008522 0.0012349681496478357 0.0007028404264831373 0 0 0 0
34596786 -0.33554928147213 0.03097811873607969 0.0012342137356184616 0.0006789209621602069 0 0 0 0
34629732 -0.33574468842717703 0.0311312091391677 0.0012335746628854996 0.0006737899112927539 0 0 0 0
34662678 -0.33583377417923865 0.03089111717048327 0.0012341767976657004 0.0006744078576814528 0 0 0 0
34695624 -0.33572571586343747 0.031188903803837598 0.0012597210497708275 0.0006925946518142735 0 0 0 0
34728570 -0.33594070187364594 0.031077401349503358 0.0012236915187788448 0.0006804603426587532 0 0 0 0
34761516 -0.33576880659878555 0.03113455073819377 0.0012410862976981424 0.0006728446813280953 0 0 0 0
34794462 -0.3357165042982957 0.031287638550830374 0.0012435743153657718 0.0006626193585509276 0 0 0 0
34827408 -0.33585536088784046 0.03122514698618557 0.0012389369579881026 0.000669631358193728 0 0 0 0
34860354 -0.3358715847805759 0.031156405552571747 0.0012483062937889795 0.0006758946643637687 0 0 0 0
34893300 -0.33598121896943006 0.03114707312851811 0.0012456286282538406 0.0006822729265775982 0 0 0 0
34926246 -0.3357292216094157 0.03139476479541778 0.001238229413364504 0.0006697104477766371 0 0 0 0
34959192 -0.33567413198686014 0.031297715111055995 0.0012396370173224068 0.0007023978701790044 0 0 0 0
34992138 -0.33574532384057804 0.03138859715609489 0.0012371784288678857 0.0007047782704203548 0 0 0 0
35025084 -0.33608598316922145 0.031340251068645686 0.0012513022305317282 0.0007658343064728601 0 0 0 0
35058030 -0.3359591239627766 0.03160612525306144 0.0011959646013724303 0.0006529534155070314 0 0 0 0
35090976 -0.33588777516132345 0.031466981379216906 0.0012450394444479787 0.0007422598318290366 0 0 0 0
35123922 -0.33600630435566786 0.03153470520095319 0.001221220257560809 0.0006783076458983188 0 0 0 0
35156868 -0.33579464363250616 0.03168498033704357 0.0012971368247646524 0.0006390647452846792 0 0 0 0
35189814 -0.33618034076922987 0.03162114291227893 0.0012560673900105827 0.0007184967337510352 0 0 0 0
35222760 -0.33608969910881875 0.031516230343245064 0.001321425343700708 0.0006224714982133804 0 0 0 0
35255706 -0.3361398969698028 0.03169026740216827 0.0013037619774927073 0.0007696755543318821 0 0 0 0
35288652 -0.33616421000882885 0.031616886140930334 0.0012629469192591504 0.0006907858878407392 0 0 0 0
35321598 -0.33606894796040326 0.03183521322428052 0.0011461526227436556 0.0006295543702974618 0 0 0 0
35354544 -0.3362611224814073 0.03161502267868651 0.0012755790872982222 0.000691573661837983 0 0 0 0
35387490 -0.33603941278946703 0.03216261833484287 0.0012109130008760283 0.0006724204971600291 0 0 0 0
35420436 -0.33631410789110805 0.03199998970013051 0.0012508136224457815 0.0006965312204648991 0 0 0 0
35453382 -0.33626698958192475 0.03199197077177218 0.0012673767676946014 0.0006860301193519937 0 0 0 0
35486328 -0.33628394307246184 0.03176500387705343 0.0012441317934993059 0.000682606661082394 0 0 0 0
35519274 -0.33595678948636415 0.032013284679048626 0.001237935736445736 0.0007139740621851777 0 0 0 0
35552220 -0.33614005420773735 0.03192830178833212 0.0012676050292962998 0.0007061305142547766 0 0 0 0
35585166 -0.336345183410932 0.03203389946829383 0.001285050416119705 0.0006728541826064276 0 0 0 0
35618112 -0.33622439836491913 0.03218777507921092 0.0012623275216334547 0.0006949562092136459 0 0 0 0
35651058 -0.33621460076067833 0.03201102442385823 0.0012623207545632486 0.0007088374136423911 0 0 0 0
35684004 -0.3363993875396828 0.03202200025000309 0.001270722175595866 0.0006744388742951106 0 0 0 0
35716950 -0.33623713403827055 0.03214002827138428 0.0012475918961294729 0.0006982563143864653 0 0 0 0
35749896 -0.3363245284872925 0.032235587326711994 0.0012729641203634244 0.0006838957554386174 0 0 0 0
35782842 -0.33639808814859556 0.032034598391016335 0.0012666803188425553 0.0007216176000826224 0 0 0 0
35815788 -0.3364231975372209 0.03240589287881538 0.001251193906879688 0.0006914814916876695 0 0 0 0
35848734 -0.3362396661035931 0.032293158549975345 0.001268536606334411 0.0006907042524842444 0 0 0 0
35881680 -0.3365925495540024 0.03238489556103129 0.001253985109679953 0.0007143249123108016 0 0 0 0
35914626 -0.3364673257513659 0.032405311828918086 0.0012548342590375135 0.0006921450280536899 0 0 0 0
35947572 -0.33657902634567743 0.03243565161772398 0.001265235591242949 0.0007012569263031356 0 0 0 0
35980518 -0.33652665797422093 0.03227268215117645 0.0012731665966025797 0.0006920077155736213 0 0 0 0
36013464 -0.3366172588443389 0.032423966084989125 0.0012915249449331912 0.0007104127561021319 0 0 0 0
36046410 -0.33638988406451725 0.03248916723477925 0.0012833974610826258 0.0007000991992050695 0 0 0 0
36079356 -0.33642240127772927 0.03247722200190475 0.0012917150614466593 0.0006830248062086875 0 0 0 0
36112302 -0.3363051405750853 0.03250903576277659 0.0012546713447078178 0.0007018908122909739 0 0 0 0
36145248 -0.33637383013472666 0.03278036080821657 0.0012646798792011961 0.0007009001822425077 0 0 0 0
36178194 -0.33682650828322896 0.03260512442521781 0.0012662580411333716 0.0007057135395997197 0 0 0 0
36211140 -0.3368896425271722 0.03268198208376979 0.0012988753465032856 0.0007115804299720444 0 0 0 0
36244086 -0.33658317547648686 0.03268436340263179 0.0012795885550612497 0.0007195077781659526 0 0 0 0
36277032 -0.33686145194132633 0.03248178966203202 0.0012930691517320826 0.0006934887678194622 0 0 0 0
36309978 -0.33651259201840156 0.03288478272481441 0.0012912446818473774 0.0007148934587780796 0 0 0 0
36342924 -0.33682922278514227 0.032578719256412085 0.0012784651028160396 0.0006799654907035565 0 0 0 0
36375870 -0.33695494277176624 0.03299565364527133 0.001257776836839597 0.0007036125627713095 0 0 0 0
36408816 -0.3366989426754849 0.03301067793312894 0.0012934930560586325 0.0007459522815832797 0 0 0 0
36441762 -0.3362586508034135 0.03280323853657429 0.0012816788421853638 0.0007136242251550529 0 0 0 0
36474708 -0.33679655650348567 0.03297621409402413 0.001287878475652692 0.0007133927320580801 0 0 0 0
36507654 -0.3368315721380705 0.03277163969899859 0.001274225020211941 0.000709970386437138 0 0 0 0
36540600 -0.3366710580917273 0.032842517370943694 0.0012669585841482821 0.0006971328606897973 0 0 0 0
36573546 -0.33684131015425234 0.03293318341589198 0.0012973928169935332 0.0007244850381923769 0 0 0 0
36606492 -0.33670001598758503 0.03311099527536938 0.0012900768604307267 0.0007085900903418285 0 0 0 0
36639438 -0.3368206391574507 0.03287253390795686 0.0012635078968112883 0.0007188277853780276 0 0 0 0
36672384 -0.3366647138679149 0.03309080027805583 0.0012975403114406964 0.0007242700114034437 0 0 0 0
36705330 -0.3370878021664061 0.033252975655214394 0.0012750150018071569 0.0007111500526038227 0 0 0 0
36738276 -0.33693767944207487 0.033244354996468654 0.0012884474669285397 0.0007219957906431867 0 0 0 0
36771222 -0.336978686481097 0.03346571666270388 0.00125020631381717 0.0007047876857870762 0 0 0 0
36804168 -0.3367513292139543 0.03287632111161061 0.0012828568786103969 0.0007168225197237101 0 0 0 0
36837114 -0.3371630100059914 0.03310975810065047 0.0012731980766754938 0.0007036027518870432 0 0 0 0
36870060 -0.33694076374590864 0.03316301349716278 0.0013017215419874164 0.0007206233654601395 0 0 0 0
36903006 -0.33691393391222735 0.033418367686845626 0.0012797042672710978 0.0007127706787379109 0 0 0 0
36935952 -0.33696481959264496 0.03354076151051478 0.0012986217151354504 0.000740239099154496 0 0 0 0
36968898 -0.33716786165066687 0.033334307419774396 0.0013020894173844993 0.0007081167418892701 0 0 0 0
37001844 -0.33714042474477834 0.033542990316679025 0.0012998698274079583 0.0007160631957320667 0 0 0 0
37034790 -0.3371983342064759 0.0334130344285219 0.0012822967948680534 0.0007092706302561675 0 0 0 0
37067736 -0.3369750568497315 0.03355962090792458 0.0012823368011548979 0.0007273796408076295 0 0 0 0
37100682 -0.33734341252692324 0.033651295715638206 0.0013003800755387006 0.0007227339747076332 0 0 0 0
37133628 -0.337056098882265 0.033606575557001056 0.0012984691618977721 0.0007101664164705214 0 0 0 0
37166574 -0.33734545149453654 0.033618049131148645 0.001311250393511767 0.0007319713820566075 0 0 0 0
37199520 -0.3373197045076269 0.03391009917376022 0.0012992159591501398 0.0007383040059904513 0 0 0 0
37232466 -0.3373500734573268 0.0337431912341931 0.0013025273039384737 0.0007438921945382638 0 0 0 0
37265412 -0.337138404275808 0.03369469340152051 0.0013035038969028102 0.0007215880142264048 0 0 0 0
37298358 -0.3374729002052345 0.03378312360837005 0.0012792528786453822 0.0007318142257568714 0 0 0 0
37331304 -0.33729538311225893 0.03401520438479127 0.0013168655115214042 0.0007187483272194234 0 0 0 0
37364250 -0.3373094186227329 0.03400966797715191 0.0012947361256384028 0.0007201437574761872 0 0 0 0
37397196 -0.33744450669318343 0.03378172483846866 0.001295649983203634 0.0007103706508891299 0 0 0 0
37430142 -0.3370594197920172 0.0337831853247415 0.00129947510064829 0.0007701257834391279 0 0 0 0
37463088 -0.3374889133718301 0.03384466280353887 0.0013009129398030418 0.0007210989214310505 0 0 0 0
37496034 -0.3376687959713534 0.03404766844280496 0.0013078824256122722 0.0007645827492875 0 0 0 0
37528980 -0.3376616302735996 0.03401274339775975 0.0013239689622017725 0.0007362373143270774 0 0 0 0
37561926 -0.3375325870586451 0.03406802751791869 0.001313184751544916 0.0007286803058457876 0 0 0 0
37594872 -0.33751628754953766 0.03405916908807856 0.0013155190395629257 0.0007388264101114917 0 0 0 0
37627818 -0.33749865436014564 0.03400486514710275 0.00131780261807224 0.0007123226015638581 0 0 0 0
37660764 -0.3375262394504046 0.034024409084695464 0.0013119062262851124 0.0007236019680751913 0 0 0 0
37693710 -0.3376595911394343 0.034207778667864994 0.0012992595270729375 0.0007186247000467988 0 0 0 0
37726656 -0.33750269915743975 0.03409520370781674 0.001295709474448854 0.0007301312551154371 0 0 0 0
37759602 -0.33745001918465883 0.03432088417022189 0.0013178541504056764 0.0007424733843942042 0 0 0 0
37792548 -0.3375387056807332 0.034195927621371205 0.001300049346474555 0.0007433318692113149 0 0 0 0
37825494 -0.3376268145977904 0.03444077383134175 0.0013141043207939647 0.0007180647414747231 0 0 0 0
37858440 -0.33753602914048864 0.03439620557492243 0.0013045767248872242 0.0007263531062244687 0 0 0 0
37891386 -0.3377127498475117 0.03442391452274297 0.0013266215804423748 0.0007255221885353318 0 0 0 0
37924332 -0.3375832585810984 0.03434636610197683 0.0013106079069516968 0.0007462302557225114 0 0 0 0
37957278 -0.3377915983917649 0.03476457904435408 0.0013152757985426926 0.0007426620720053529 0 0 0 0
37990224 -0.33757060448756515 0.03430005302115723 0.0013311718707092748 0.0007253570244491969 0 0 0 0
38023170 -0.33777897801142265 0.03456639838588315 0.0013071719677596229 0.0007494864199423364 0 0 0 0
38056116 -0.3377425636011635 0.03473392825113457 0.0013181508834604744 0.0007641261585216949 0 0 0 0
38089062 -0.3378033367675576 0.034652423941538175 0.0012889712017493022 0.0007264889001857287 0 0 0 0
38122008 -0.3378990202835852 0.03464839405280081 0.0013146965640325452 0.0007344838285752755 0 0 0 0
38154954 -0.3377458598893793 0.03460906634470854 0.0013263572668670363 0.0007418126181062631 0 0 0 0
38187900 -0.3379359288405615 0.03469166048244014 0.0013312402395984954 0.0007442481033259856 0 0 0 0
38220846 -0.337858368464895 0.03460098898900554 0.001352067369190357 0.0007524846545823045 0 0 0 0
38253792 -0.3378308655448219 0.03461407285468498 0.0013181707781549593 0.0007464099143804666 0 0 0 0
38286738 -0.33789812854535267 0.03490663469688464 0.001334709850917667 0.0007363321162821047 0 0 0 0
38319684 -0.3379061041654501 0.03492960782325972 0.0013612400028882876 0.0007406864466565596 0 0 0 0
38352630 -0.3380624969693011 0.035094164419254635 0.0013102168518262269 0.0007377107734211945 0 0 0 0
38385576 -0.33799384898350676 0.034927135467993316 0.0013325768695731325 0.0007588067941767284 0 0 0 0
38418522 -0.33779947769182744 0.03480854845586422 0.001335040726606735 0.0007370550598008835 0 0 0 0
38451468 -0.3379117199462655 0.03512305628226594 0.0013259143081101829 0.0007500748868482941 0 0 0 0
38484414 -0.33822122175586944 0.03501268043328125 0.0013061095444780188 0.0007650655747816462 0 0 0 0
38517360 -0.33801628625822133 0.03510404887503966 0.0013515805620094253 0.0007340336378775553 0 0 0 0
38550306 -0.338062307379232 0.03503650620236251 0.0013560027010389457 0.0007406694198088817 0 0 0 0
38583252 -0.33792500324411384 0.035059293779342644 0.001334170650002552 0.0007165840914368175 0 0 0 0
38616198 -0.33826262229769677 0.03529703352941236 0.001317539024125523 0.0007261604021879653 0 0 0 0
38649144 -0.3381238113288322 0.03515414286657599 0.0013425812733741833 0.0007497733795520456 0 0 0 0
38682090 -0.3382067981878862 0.03527322744392678 0.0013454095180124594 0.0007506322027406216 0 0 0 0
38715036 -0.3382948093640331 0.03530871879075863 0.0013388464807713506 0.0007678860670863003 0 0 0 0
38747982 -0.3380943201618384 0.03513463211971058 0.0013644013195430568 0.0007500849544362022 0 0 0 0
38780928 -0.33824699460502505 0.03558779012346583 0.001325354308467768 0.0007661818409559501 0 0 0 0
38813874 -0.33831294382266847 0.03537419957011165 0.0013607354688414284 0.0007558437911877083 0 0 0 0
38846820 -0.33836297356327333 0.03562460975840042 0.0013285202588580335 0.0007569018901695745 0 0 0 0
38879766 -0.3382911621585139 0.035658847354382 0.0013527100520954395 0.0007736827815773064 0 0 0 0
38912712 -0.33839453348469994 0.03547286836241633 0.0013423043908720286 0.0007495449671953109 0 0 0 0
38945658 -0.33833552603080963 0.03542318384834249 0.0013495406938726102 0.0007459848191593657 0 0 0 0
38978604 -0.33818089576003235 0.03553501591761862 0.001328663676326945 0.0007476292430386803 0 0 0 0
39011550 -0.33824917739662896 0.03551624038461701 0.0013435364804746685 0.0007348530853945257 0 0 0 0
39044496 -0.3384989907101167 0.0357862725701786 0.0013307106000476452 0.0007737985654135515 0 0 0 0
39077442 -0.33848865993812044 0.03578897385864112 0.0013592470910537505 0.0007893830666284597 0 0 0 0
39110388 -0.33844867728018757 0.03549104194126215 0.0013592359527408973 0.000764719670474891 0 0 0 0
39143334 -0.33842726699240594 0.03553613027990684 0.0013673072846212262 0.000777379511918638 0 0 0 0
39176280 -0.3386320086347823 0.03577754472924952 0.0013548746463397981 0.0007577063317090131 0 0 0 0
39209226 -0.33854642590306516 0.03578775649575092 0.0013535860443506878 0.0007708468895337415 0 0 0 0
39242172 -0.3384720611702922 0.035825324881223856 0.0013310800779266889 0.0007661268519294122 0 0 0 0
39275118 -0.3385356153187594 0.035971695086050116 0.0013412113942076062 0.0007783139475982496 0 0 0 0
39308064 -0.3383977677878948 0.035753887071940514 0.0013677237825265689 0.0007849694355055994 0 0 0 0
39341010 -0.33844807385576675 0.03586765510195961 0.00138020395465079 0.0007744102376405009 0 0 0 0
39373956 -0.3387095597327954 0.03613596227979604 0.0013576463034610895 0.00078586866951485 0 0 0 0
39406902 -0.3386489383453737 0.03607778791589104 0.0013698560099314407 0.0007738381980475091 0 0 0 0
39439848 -0.3388253984293646 0.03609449183521724 0.0013461087969213832 0.0007490710518594484 0 0 0 0
39472794 -0.3385970490371332 0.036104607349566456 0.001368217644861686 0.0007589067189055227 0 0 0 0
39505740 -0.3385983373228297 0.03594507792616247 0.001368956284619906 0.0007552060161187476 0 0 0 0
39538686 -0.3388586788732943 0.036316575810981945 0.0013636156287535417 0.0007697146158360249 0 0 0 0
39571632 -0.3387156809268871 0.03623174564907346 0.001363932355700725 0.0007496218806124491 0 0 0 0
39604578 -0.33893286332333405 0.036255671311797834 0.0013611858260509228 0.0007726570347694008 0 0 0 0
39637524 -0.33863267040359935 0.036271736191669485 0.001374676569477958 0.0007625108846244289 0 0 0 0
39670470 -0.33868652953430395 0.0362280131989618 0.0013721223011315773 0.0007695937883774256 0 0 0 0
39703416 -0.33889946501303764 0.036330654063230355 0.0013777057861335644 0.0007790709898638413 0 0 0 0
39736362 -0.33878935348007333 0.0363900802214867 0.001362700804262702 0.0007623728324391702 0 0 0 0
39769308 -0.33893058002895005 0.03625713868116786 0.001364078369140424 0.0007762045474688148 0 0 0 0
39802254 -0.33887905644923905 0.036582521274879334 0.0013695236208806868 0.0007823001619365254 0 0 0 0
39835200 -0.33894852204438597 0.036492184281526396 0.0013561932248320218 0.0007886532727348938 0 0 0 0
39868146 -0.3390842284037035 0.03659903516457766 0.001386717085793226 0.0007607542284579487 0 0 0 0
39901092 -0.33891672692360275 0.03662022300147216 0.0013625515035562137 0.0007574293039895043 0 0 0 0
39934038 -0.33887628653576984 0.036483013799231294 0.0013842527074550111 0.0007821311238375932 0 0 0 0
39966984 -0.33892526903427406 0.03666996815488518 0.0013543082535991395 0.000792195168614878 0 0 0 0
39999930 -0.3388911600557476 0.03663965460103936 0.001364559546171809 0.0007766832079864563 0 0 0 0
