# HZ S RI R 50
300000 -0.5651312383392134 -0.025972736278572942 0.000486170149534758 -0.0003585575323260268 0 0 0 0
332946 -0.5489152465955808 0.05173243495713512 0.00034229019070143894 -0.00047636677558548785 0 0 0 0
365892 -0.5077986558338529 0.0951681206313051 0.00021706447459379414 -0.00045027100443967977 0 0 0 0
398838 -0.46863803048826413 0.1117833166315692 0.00011462737243872051 -0.00044233592842811686 0 0 0 0
431784 -0.4595950597311795 0.09733622651641685 0.0003877620235178358 -0.0004025060795290515 0 0 0 0
464730 -0.4358114215820626 0.09677865252667114 0.00031816475381598377 -0.00038615090032581773 0 0 0 0
497676 -0.41931884857386914 0.09364311674799956 0.0002658808474113136 -0.00039281812555763213 0 0 0 0
530622 -0.40661115725151126 0.08925619399226277 0.00022171809655050813 -0.00037289167963625117 0 0 0 0
563568 -0.39704433359350216 0.08559971391316727 0.00022960684095082545 -0.0003689841175785858 0 0 0 0
596514 -0.3889229073258062 0.08183474226401594 0.000166585695683863 -0.0003605798632421874 0 0 0 0
629460 -0.38226817743980335 0.07775873361212025 0.00015494852511488874 -0.0003252324758035093 0 0 0 0
662406 -0.37683518603347976 0.07406760234946137 0.00015303945964042768 -0.0003331788622745539 0 0 0 0
695352 -0.3722279419264401 0.07088785236156796 0.0001508502969929006 -0.0003203331127666345 0 0 0 0
728298 -0.3687354074633798 0.067840812977533 0.00013170817345172157 -0.0002985071234950104 0 0 0 0
761244 -0.36501373885417937 0.0649664761524149 0.00010965095952219058 -0.0003412287610695132 0 0 0 0
794190 -0.3621496977884018 0.06227063082884336 0.00011978632191574818 -0.0002996934016587819 0 0 0 0
827136 -0.3598351082206414 0.05975811572090347 0.00010538865805550698 -0.00028988665717397506 0 0 0 0
860082 -0.35776142136836225 0.057329530623103 0.00011207579398025115 -0.0002919542950605322 0 0 0 0
893028 -0.35565480161705443 0.05521101866479258 0.00010630038941126352 -0.0003049997890576551 0 0 0 0
925974 -0.3539129564746637 0.0535338461862223 0.00012388284606996533 -0.0002993236691917263 0 0 0 0
958920 -0.3524228795663736 0.05123771308003926 0.00010354674349623051 -0.0003225782664460236 0 0 0 0
991866 -0.35111729263969477 0.04955133823115701 0.00012833703342744572 -0.0002912109788852086 0 0 0 0
1024812 -0.3497282130047696 0.04795423758232003 0.00013023861888102214 -0.0002828428942158722 0 0 0 0
1057758 -0.3486142731069925 0.04629548635321496 9.138674371879337e-05 -0.0002944056479807081 0 0 0 0
1090704 -0.34783616544399787 0.04486257650896467 0.00011435912729007492 -0.0002909715021304017 0 0 0 0
1123650 -0.34693244354747266 0.043600102487395154 0.00012086179523235236 -0.0003046676304407589 0 0 0 0
1156596 -0.3459854786572774 0.04226481226421825 0.00010425998891398409 -0.0002770255912062098 0 0 0 0
1189542 -0.3450673562240843 0.04082850311666581 0.00013551720317271467 -0.0003227994673739674 0 0 0 0
1222488 -0.34465154554645266 0.03955908336773551 0.00014733695347157136 -0.0002859544182475094 0 0 0 0
1255434 -0.3441900411474805 0.038375530089246296 0.00014413683019938336 -0.00029923147828736117 0 0 0 0
1288380 -0.34355528428966 0.03732405246686258 0.00010264025387761104 -0.00033140146301902177 0 0 0 0
1321326 -0.3427395286440883 0.036271847104832756 0.0001458739123010553 -0.0003428533787044002 0 0 0 0
1354272 -0.3427762194223853 0.03559812521113188 0.0001470574803283775 -0.00035591008286751366 0 0 0 0
1387218 -0.34204291432830214 0.03437780176502913 0.0001429863856894108 -0.00032375757227516696 0 0 0 0
1420164 -0.3414737397417241 0.03353638839264965 0.0001509731502781591 -0.0003383800153330933 0 0 0 0
1453110 -0.3413728912726315 0.03249052894207164 0.00017763614520731766 -0.0003494328642160216 0 0 0 0
1486056 -0.3414425214240928 0.0316619497505492 0.00015196371691263204 -0.0003548254335083142 0 0 0 0
1519002 -0.34130143955315967 0.030914617367572624 0.00015306486056103181 -0.00037692197999401785 0 0 0 0
1551948 -0.34087117344638596 0.030303056114432198 0.00015096203739616687 -0.00038008366499749823 0 0 0 0
1584894 -0.3406979283314735 0.0295462428666601 0.0001605970240234772 -0.00038168746659140285 0 0 0 0
1617840 -0.3404963424371432 0.02913386839010203 0.00017220136312457525 -0.0004233597255239385 0 0 0 0
1650786 -0.34031042635045133 0.028091698804057777 0.00016046460550290612 -0.000413299020833843 0 0 0 0
1683732 -0.34036087869859016 0.02757583150285325 0.00017774485339783872 -0.00039657240120107565 0 0 0 0
1716678 -0.340059231282206 0.02698064128932601 0.0001894907630383122 -0.0004374592136743621 0 0 0 0
1749624 -0.3400000178969511 0.026534225043641006 0.0001631268447513489 -0.00045285238410184615 0 0 0 0
1782570 -0.33981534506938293 0.02589883010328361 0.00017527182807066226 -0.00044532571366854716 0 0 0 0
1815516 -0.3397940697027417 0.025407698992360676 0.00019522820245995438 -0.0004658683512686131 0 0 0 0
1848462 -0.33971774129155735 0.024745737178022212 0.00020329839241375509 -0.0004598495678363584 0 0 0 0
1881408 -0.3395739734150994 0.02408608594897949 0.00018822380955696856 -0.0004869596157353056 0 0 0 0
1914354 -0.33958690434600663 0.02379305290969918 0.00020382373711740702 -0.000529263261032102 0 0 0 0
1947300 -0.3396051024474144 0.023555517816665022 0.00019573488375584276 -0.0005424490666844663 0 0 0 0
1980246 -0.3398937515170414 0.02316640575713205 0.00019379604693090007 -0.0005577546819919246 0 0 0 0
2013192 -0.33933419411051075 0.02266125281224996 0.0001924565409772433 -0.0005711050464611622 0 0 0 0
2046138 -0.3395018152488969 0.022489487814611093 0.0001997614821437259 -0.0005696383218988009 0 0 0 0
2079084 -0.3391906743527775 0.022270805206618744 0.00018758621152542367 -0.0005601204417286808 0 0 0 0
2112030 -0.3391864595951007 0.021411229799055964 0.00021566929114269883 -0.0005896940307239279 0 0 0 0
2144976 -0.33960296222563885 0.021610105412214014 0.00018978379162966073 -0.0006105252081519812 0 0 0 0
2177922 -0.3395257115066323 0.021096768097407893 0.0002056718051338782 -0.0006605619247343319 0 0 0 0
2210868 -0.33939729027995336 0.020810019875229284 0.00022488852104587785 -0.0006363086246411233 0 0 0 0
2243814 -0.33955246422484164 0.02056740538706223 0.000197075471671689 -0.0006790390614490878 0 0 0 0
2276760 -0.3395562717588174 0.020072275583867715 0.00019426864447014459 -0.0006940250900879766 0 0 0 0
2309706 -0.33974799750654894 0.020111865111841126 0.00019141894960824282 -0.0007140654809669379 0 0 0 0
2342652 -0.339489515366825 0.019843665437054774 0.00019923606615033712 -0.0007039114187711498 0 0 0 0
2375598 -0.3391411906230762 0.019563167769053036 0.0001893404586732962 -0.0007406053099817667 0 0 0 0
2408544 -0.3392343301302657 0.019440644371096456 0.00017913094710892989 -0.0007736038138510207 0 0 0 0
2441490 -0.33936740115158237 0.018927540772942758 0.0001486504010082565 -0.0007966230227967368 0 0 0 0
2474436 -0.33947416987549695 0.018789162911283904 0.00015413810824047323 -0.000808916935462909 0 0 0 0
2507382 -0.3396711519252245 0.018697976489406434 0.00013791745878049218 -0.0008257171908431845 0 0 0 0
2540328 -0.3391372610497347 0.01870798919882881 0.00013073166731171135 -0.000849898650843169 0 0 0 0
2573274 -0.3394711041309007 0.018635086055503756 0.00011389120017041685 -0.0008827250750262309 0 0 0 0
2606220 -0.3395742354075875 0.018400822910725326 0.00011922866831269268 -0.0009113563667465056 0 0 0 0
2639166 -0.3397423040056547 0.01798013858515596 4.9878604036128664e-05 -0.0009357378265400253 0 0 0 0
2672112 -0.33932552728967097 0.017726942855935297 0.00011038468027978489 -0.0009281001470895945 0 0 0 0
2705058 -0.33947720098215484 0.017857021459662337 5.302982605376854e-05 -0.0009632312633750176 0 0 0 0
2738004 -0.33972751435354415 0.017882031465660985 3.740410527281574e-05 -0.0010070640582183989 0 0 0 0
2770950 -0.33932182261797317 0.017718005373213226 3.470998655502155e-05 -0.0010025658981468663 0 0 0 0
2803896 -0.33956678678884705 0.017859705207049836 -1.2668507193305778e-05 -0.0010460590816308536 0 0 0 0
2836842 -0.3396079832036567 0.017159616435658775 -1.6681825551430743e-05 -0.0010703640941812558 0 0 0 0
2869788 -0.3394372391507545 0.01715919083202215 -1.9038822043222158e-05 -0.0010668042387372313 0 0 0 0
2902734 -0.3399545463089455 0.017288388286226447 -6.132585117348495e-05 -0.001071098236365646 0 0 0 0
2935680 -0.33948861187523804 0.017359894501483425 -7.374007491898442e-05 -0.001075134682379087 0 0 0 0
2968626 -0.33970937753369235 0.017510706821299567 -0.00010973786263674603 -0.0010768923791895665 0 0 0 0
3001572 -0.3396185606850573 0.017073329996743093 -0.00010596343497559752 -0.00112956268573387 0 0 0 0
3034518 -0.33954788418497983 0.017088275808667813 -0.00012708987405493343 -0.0011391644088383397 0 0 0 0
3067464 -0.33940545653330423 0.017416951223785226 -0.00018509124171624649 -0.0011529793047501244 0 0 0 0
3100410 -0.33958956784361466 0.017131618438391612 -0.00018169049300568115 -0.0011507446802614123 0 0 0 0
3133356 -0.33953038741829544 0.016920590624164657 -0.0002369041100496603 -0.0011556036839275804 0 0 0 0
3166302 -0.33935682241645726 0.0167153054003488 -0.0002609376271118204 -0.0011834264023441292 0 0 0 0
3199248 -0.3395096668474451 0.016751331334566178 -0.0002939760605619916 -0.001156432974715272 0 0 0 0
3232194 -0.33949500544657224 0.016860155729268956 -0.00027759359662742555 -0.001167810595447439 0 0 0 0
3265140 -0.3395281157611634 0.016890193310052915 -0.0003428660401280402 -0.001173443622128228 0 0 0 0
3298086 -0.33950177099625084 0.01654267842729486 -0.00036245896819188535 -0.0011657622602694684 0 0 0 0
3331032 -0.3392846506052978 0.01684105186125346 -0.00039160306634754847 -0.001189047115844793 0 0 0 0
3363978 -0.3391535624960443 0.016857166969696104 -0.00043244511690200305 -0.0011856482237213228 0 0 0 0
3396924 -0.3393259448515132 0.01688384708935076 -0.0004411749278550358 -0.0012314267485595376 0 0 0 0
3429870 -0.3392802014424456 0.01678856996339391 -0.00044817638375743127 -0.001213585231012015 0 0 0 0
3462816 -0.33925123051406453 0.016576131984692623 -0.000557328704485685 -0.0011994973188001572 0 0 0 0
3495762 -0.33928167781622426 0.016688530599398586 -0.0004873121249176965 -0.0011674106126139006 0 0 0 0
3528708 -0.33904966450570767 0.01660024945848942 -0.0005019621684681508 -0.0011541138010113673 0 0 0 0
3561654 -0.3390351123909 0.016786371444153993 -0.0005564837791251762 -0.0011668960540839697 0 0 0 0
3594600 -0.33913671031638665 0.016841915519205344 -0.0005931928102878204 -0.0011587691146332172 0 0 0 0
3627546 -0.3388491675955935 0.016556318797555522 -0.0006110271094980001 -0.0011545060325153069 0 0 0 0
3660492 -0.3392699675575997 0.016664653401667662 -0.0006387017832671521 -0.0011147668127070955 0 0 0 0
3693438 -0.338972150733851 0.01637321129538336 -0.0006215768314249764 -0.0011186233546282948 0 0 0 0
3726384 -0.3387329518403477 0.016391062769095445 -0.0006980327961580811 -0.0011142900379610102 0 0 0 0
3759330 -0.3391878927934428 0.016442094409830663 -0.0007127673027343218 -0.0011388190443389946 0 0 0 0
3792276 -0.3387258567850905 0.01644229360055374 -0.000691381293055994 -0.0011048029725549938 0 0 0 0
3825222 -0.3384096302950875 0.016538703204038156 -0.0007282484889796192 -0.0010816104441632806 0 0 0 0
3858168 -0.3390226918935213 0.016425458275031418 -0.0007155536228381323 -0.0010737361815969803 0 0 0 0
3891114 -0.338557514610769 0.016308364707567875 -0.0007641253865099716 -0.0010902892579184 0 0 0 0
3924060 -0.33876853209029084 0.016336879563725756 -0.0007544789503804798 -0.0010661010337750835 0 0 0 0
3957006 -0.3388186645761935 0.01614302296083795 -0.0007947480560714457 -0.0010309651340324028 0 0 0 0
3989952 -0.33857569228333423 0.016108559865647392 -0.0008112250249087266 -0.0010199631801433343 0 0 0 0
4022898 -0.33852083787941967 0.016627924975599 -0.0008271223901909103 -0.001025063494805077 0 0 0 0
4055844 -0.33817296876282565 0.016471864596048675 -0.0008250120309541898 -0.0010057890492960323 0 0 0 0
4088790 -0.3384872594356141 0.01627625755668071 -0.0008244795279030208 -0.0009957940399238502 0 0 0 0
4121736 -0.3385071993222927 0.016141643065403097 -0.0008649477119421562 -0.000995661252935851 0 0 0 0
4154682 -0.3384418734067923 0.016141666247144946 -0.0008505001629831831 -0.0009989002290173253 0 0 0 0
4187628 -0.338330307326057 0.016545251935823835 -0.0008759376573603331 -0.0009495363132594497 0 0 0 0
4220574 -0.3381477142088858 0.01628157994930367 -0.0008832244711393647 -0.0009298567236244169 0 0 0 0
4253520 -0.33804895981082145 0.01599317933871736 -0.0009059094634903151 -0.0009216973431581785 0 0 0 0
4286466 -0.33817862648868763 0.016166773892164758 -0.0009338294092686273 -0.0008961657562558621 0 0 0 0
4319412 -0.3379785032308777 0.016185921304878306 -0.0008810683395931092 -0.0009172953129300052 0 0 0 0
4352358 -0.3381861296028591 0.016320482946254086 -0.0009442703411412927 -0.0008870722944993504 0 0 0 0
4385304 -0.33801669116656746 0.015962948633335333 -0.0009384875360335094 -0.0008418425022694216 0 0 0 0
4418250 -0.33774942434245725 0.016259644844936718 -0.0009396191265131169 -0.0008803326020433486 0 0 0 0
4451196 -0.33780502111480276 0.016340243374936548 -0.0009367183954583766 -0.0008577918713323035 0 0 0 0
4484142 -0.3378492331333556 0.016066311837844006 -0.0009133710827404576 -0.0008387202038990981 0 0 0 0
4517088 -0.3377237030523638 0.015936980154584803 -0.0009502546751970494 -0.0008186637210146374 0 0 0 0
4550034 -0.3376701448919806 0.01598784842057065 -0.0009445556676772962 -0.0008159700190054638 0 0 0 0
4582980 -0.33760066577653886 0.01603374037007048 -0.0009643483990834763 -0.0008010065068262471 0 0 0 0
4615926 -0.33736740229739537 0.015908917626456784 -0.0009469211522206204 -0.0007944121482865369 0 0 0 0
4648872 -0.33766832417008114 0.01628285545038513 -0.000976755404272138 -0.0008121151678898649 0 0 0 0
4681818 -0.33773338603686576 0.016210832099851514 -0.0009460924747899668 -0.000776586422452482 0 0 0 0
4714764 -0.33732991767862164 0.016214063372975988 -0.0009844953611747632 -0.0007779431939224002 0 0 0 0
4747710 -0.33746215424731174 0.01571985094826855 -0.0009983825036142268 -0.0007637207814407292 0 0 0 0
4780656 -0.3374319527817214 0.015871344953044854 -0.0009745482739332962 -0.0007452409394454541 0 0 0 0
4813602 -0.33727654935699924 0.016039094665419373 -0.0009784622815481353 -0.0007465949259615386 0 0 0 0
4846548 -0.33718809415349876 0.01614116996822045 -0.0009944682128171325 -0.0007121349660149402 0 0 0 0
4879494 -0.33720953920758007 0.015770255197070246 -0.0009794488591739591 -0.0007100101724399143 0 0 0 0
4912440 -0.3371792392225721 0.01585511000483053 -0.0010002133247910842 -0.000703991499757293 0 0 0 0
4945386 -0.33707045909438454 0.015698824705552967 -0.0009775509317752824 -0.0006908789839433433 0 0 0 0
4978332 -0.3370330978172285 0.015822088302263004 -0.0010049821518220458 -0.0007254236072683194 0 0 0 0
5011278 -0.33726579477845264 0.015855821706890212 -0.00098460653404822 -0.0006885321567570101 0 0 0 0
5044224 -0.33714837928885993 0.0159819054516018 -0.0009892925984110337 -0.0006980960941724368 0 0 0 0
5077170 -0.3368955371191013 0.015496578544475188 -0.0009781929114135628 -0.0006734902556369147 0 0 0 0
5110116 -0.33705547910794315 0.015704194203792623 -0.0009762146414405073 -0.0006651458339647911 0 0 0 0
5143062 -0.3368430851678863 0.015765815068785723 -0.0009898193340786227 -0.0006553445948603268 0 0 0 0
5176008 -0.33665268922668495 0.015648166114488153 -0.0010190396166384048 -0.00063072082374138 0 0 0 0
5208954 -0.33697578088038566 0.015644467940387475 -0.0010080805772332906 -0.0006525801793106225 0 0 0 0
5241900 -0.3368010145938485 0.015600263571280838 -0.001035327300221089 -0.0006366079917878759 0 0 0 0
5274846 -0.3366976184652753 0.015598751370815784 -0.0009934169616460538 -0.000625846079999883 0 0 0 0
5307792 -0.33680599935065225 0.01546338271567111 -0.0010053479348260796 -0.0006473998597700624 0 0 0 0
5340738 -0.33682663124350387 0.015639155341827422 -0.00103246755384094 -0.0006165514629193091 0 0 0 0
5373684 -0.33645995205074203 0.015434611163994624 -0.0010049791494137121 -0.0006130574646840616 0 0 0 0
5406630 -0.33667967647539737 0.015799753117821717 -0.0009818158586783528 -0.0005989315774306346 0 0 0 0
5439576 -0.33669872694466635 0.015931756454438416 -0.0010015720984088696 -0.0005919887543533226 0 0 0 0
5472522 -0.33642315964836184 0.015453604755541726 -0.001003050467857255 -0.0005829939764629276 0 0 0 0
5505468 -0.33653198791669137 0.015426050397177243 -0.001013153523232596 -0.0005965372536573558 0 0 0 0
5538414 -0.336513666728713 0.015073245062774025 -0.0009884872255483822 -0.0005882939611394075 0 0 0 0
5571360 -0.33660414205572853 0.015370768914402127 -0.0010284622109357799 -0.0005844751307882739 0 0 0 0
5604306 -0.3364533473131168 0.015349474427965581 -0.000990257825942268 -0.0005836151119759712 0 0 0 0
5637252 -0.3364832733387388 0.01520210506002146 -0.0010022170415317684 -0.0005807928276585978 0 0 0 0
5670198 -0.3366069062395501 0.01521523230170063 -0.001008705237000444 -0.0005388417308648071 0 0 0 0
5703144 -0.33625181645161367 0.015269925380796122 -0.0009893358573251454 -0.0005348993867940684 0 0 0 0
5736090 -0.33625257568768824 0.015239793787845969 -0.0009985851431689495 -0.000557166997591638 0 0 0 0
5769036 -0.33623774437171805 0.01515529724192856 -0.0009641009249956832 -0.0006128491375031363 0 0 0 0
5801982 -0.33609422127923666 0.014897697348500376 -0.001007588711028591 -0.0005582849367581809 0 0 0 0
5834928 -0.3363870555812133 0.015016555594331342 -0.0010057504743931835 -0.0005551249327429274 0 0 0 0
5867874 -0.336494031372387 0.014982428559857186 -0.0010007995097611464 -0.0005363052157705931 0 0 0 0
5900820 -0.33606508302870647 0.014902804705128433 -0.0010154101930071702 -0.0005306645978195527 0 0 0 0
5933766 -0.3362387281523674 0.014989192498485997 -0.000990964669847599 -0.0005145205921288047 0 0 0 0
5966712 -0.3360519244015868 0.015052510721303687 -0.0009972387727013666 -0.0005255754609128476 0 0 0 0
5999658 -0.3362973902525924 0.014793782586509567 -0.0009945327328700312 -0.0005126881971743171 0 0 0 0
6032604 -0.3361728688311197 0.014425638067550497 -0.0010020956939508598 -0.0005073943140617249 0 0 0 0
6065550 -0.3361454187441818 0.014562269129227829 -0.0009630307620651419 -0.0005152258452800966 0 0 0 0
6098496 -0.3362008667193933 0.014654944235289296 -0.0010001603841564622 -0.00047979064240477105 0 0 0 0
6131442 -0.33602019139051753 0.014348158411273305 -0.000992890250020608 -0.0004967676518374002 0 0 0 0
6164388 -0.3361153185943629 0.014465185637034524 -0.0009886096678602735 -0.0005010029789837931 0 0 0 0
6197334 -0.3360388570182948 0.013996705746913207 -0.0009719611927592543 -0.0004690004258278282 0 0 0 0
6230280 -0.33599649354429156 0.014319787814930318 -0.0009660571725237652 -0.0004711779895187307 0 0 0 0
6263226 -0.3361675948299184 0.014105037178634107 -0.0009799215329838048 -0.0004815291900681949 0 0 0 0
6296172 -0.33621533481028687 0.013937625168965009 -0.0009960294581653141 -0.0004708014025275119 0 0 0 0
6329118 -0.3362582872948445 0.013914498001421865 -0.0009700885806256954 -0.0004990781890590632 0 0 0 0
6362064 -0.3362763637847893 0.013670068671488017 -0.0009482489691825087 -0.0004548544440359428 0 0 0 0
6395010 -0.3362480183198581 0.013589497970759694 -0.001001247200416147 -0.0004985578524349818 0 0 0 0
6427956 -0.33621360366800523 0.01347654803768566 -0.0009774566990487699 -0.00047066819440222407 0 0 0 0
6460902 -0.33688109491337787 0.013304851389421665 -0.0009519303756067458 -0.00045237927812235386 0 0 0 0
6493848 -0.33646472545755474 0.013091927278178286 -0.0009801435324155489 -0.0004296067024392664 0 0 0 0
6526794 -0.3365769268202292 0.013094452966980783 -0.0009837297557156116 -0.00046168418054856207 0 0 0 0
6559740 -0.33683267673240636 0.012967075464254024 -0.000948568291149913 -0.0004380753516669407 0 0 0 0
6592686 -0.33691264719414715 0.012422859191830811 -0.0009597888963266876 -0.0004542972696991262 0 0 0 0
6625632 -0.337082612210687 0.012264977392339187 -0.000985892277242919 -0.0004572722000348679 0 0 0 0
6658578 -0.3373929478479758 0.012081120195617847 -0.0009772452163846952 -0.00041561947997100353 0 0 0 0
6691524 -0.33781063708989634 0.011719053796770507 -0.0009551285038714047 -0.00041929969710811086 0 0 0 0
6724470 -0.3380341616435726 0.011712843236147553 -0.00100233160702531 -0.0004530388336453471 0 0 0 0
6757416 -0.33844948666848457 0.011025036444303202 -0.0009758350577333713 -0.000436846536466897 0 0 0 0
6790362 -0.33898619509198946 0.010719650511561948 -0.0009299335135993782 -0.0004525909327709283 0 0 0 0
6823308 -0.3395255590289968 0.010719092268390193 -0.0009769710962566596 -0.0004460776964647275 0 0 0 0
6856254 -0.3409490304166983 0.01030891314160525 -0.0010100972723497293 -0.00045452209291535733 0 0 0 0
6889200 -0.3417235263417075 0.010271149676667325 -0.000980826089068539 -0.0004124888675476857 0 0 0 0
6922146 -0.34208694439594595 0.008048922941177497 -0.0009591429612718773 -0.00041151151275192977 0 0 0 0
6955092 -0.3435341180036167 0.008408935277842937 -0.0009423781628846855 -0.0004192886147372882 0 0 0 0
6988038 -0.3454870489562077 0.009229333862593933 -0.0009313918581619307 -0.0004288694119841059 0 0 0 0
7020984 -0.34667053643808304 0.011057649808459495 -0.000997057077180323 -0.0004345573114846599 0 0 0 0
7053930 -0.3478533406282637 0.013275033274119491 -0.0009757237379042969 -0.0004434022777428979 0 0 0 0
7086876 -0.34798634195217115 0.016019463427068857 -0.0009730226106161421 -0.00041467801790864606 0 0 0 0
7119822 -0.3474372907559947 0.01905886137880254 -0.0009600722016338034 -0.0004386801158927807 0 0 0 0
7152768 -0.345745127152337 0.021088346641190848 -0.0009666046296619958 -0.0004057234859157109 0 0 0 0
7185714 -0.343636877192007 0.022662500338256477 -0.0009109899918138874 -0.00042892374214525817 0 0 0 0
7218660 -0.3416457718930823 0.022813153520510755 -0.00091883315737719 -0.00041351531079527806 0 0 0 0
7251606 -0.34024285743227417 0.023126434472870997 -0.0009591277076657257 -0.00041485650175738994 0 0 0 0
7284552 -0.33884761307828287 0.02270715367921854 -0.0009560744100500372 -0.0004203271718123446 0 0 0 0
7317498 -0.3379787661114516 0.02254093760433222 -0.0009367325083998127 -0.0003850766327302255 0 0 0 0
7350444 -0.33667692017144457 0.02212253906668194 -0.0009682762847043836 -0.0004021569908087332 0 0 0 0
7383390 -0.33615215505203555 0.021911553322964444 -0.0009482926169507667 -0.0004224144216888845 0 0 0 0
7416336 -0.3353265753611746 0.021142146775721654 -0.000948113354979479 -0.0004182082644971391 0 0 0 0
7449282 -0.3351120868530534 0.020775541583256327 -0.000937667574427386 -0.00041691770297004344 0 0 0 0
7482228 -0.33475044660232073 0.02064875032042917 -0.0009538611761603168 -0.00038179731541245935 0 0 0 0
7515174 -0.33445404661714284 0.020356166974335035 -0.0009371012531594161 -0.0004007488859042455 0 0 0 0
7548120 -0.3341933183299302 0.020102957866683282 -0.0009301634096114044 -0.0004206900490929864 0 0 0 0
7581066 -0.33399550451998083 0.01965661055522179 -0.0009530263717245969 -0.00041172652532089796 0 0 0 0
7614012 -0.3336539949717392 0.019255421709481253 -0.0009246704661401927 -0.00040045188679864566 0 0 0 0
7646958 -0.33390676897177435 0.01929416506679943 -0.0009508012321566005 -0.00039852032288432824 0 0 0 0
7679904 -0.33366751390952515 0.019007209830722224 -0.0009278206093133291 -0.0004203595335407268 0 0 0 0
7712850 -0.33353772064692183 0.01879625272980409 -0.000932730111834031 -0.00039287731807753455 0 0 0 0
7745796 -0.3334923663145192 0.018642010274440714 -0.0009615465562233038 -0.0004083013105494012 0 0 0 0
7778742 -0.3332025065213992 0.01841855388726618 -0.0009527932661299939 -0.00038418610476328866 0 0 0 0
7811688 -0.33313678334643176 0.018300462941664333 -0.0009422093626405792 -0.00041847180660449176 0 0 0 0
7844634 -0.3330577877394853 0.018235513089760225 -0.000935514385174878 -0.0004183660859571482 0 0 0 0
7877580 -0.33302398735279 0.0181107247051871 -0.0009557620623016869 -0.00038990219408291686 0 0 0 0
7910526 -0.3329873827400985 0.017881622417928778 -0.0009470755586028118 -0.00038495634115646434 0 0 0 0
7943472 -0.3330561612770829 0.017909472603511598 -0.0009330930060921496 -0.0004170259586543513 0 0 0 0
7976418 -0.3330886322758064 0.0176870841002713 -0.0009160194075341545 -0.00040895928432550923 0 0 0 0
8009364 -0.33294334607999587 0.01786907768885405 -0.0009347399011484712 -0.00039302303251954873 0 0 0 0
8042310 -0.33281987966564686 0.017641009578192132 -0.0009430482237919177 -0.000399381702334369 0 0 0 0
8075256 -0.3325179030651457 0.017591206953206213 -0.0009225179583750417 -0.00037681507000713563 0 0 0 0
8108202 -0.3326409877418593 0.01741202826079259 -0.0009270217012490226 -0.00040533636074864776 0 0 0 0
8141148 -0.33273961968576016 0.017486965205843523 -0.000927824168951154 -0.00041389541325589853 0 0 0 0
8174094 -0.3325635183699846 0.01744689169695106 -0.0009479827269194374 -0.00039164795535821323 0 0 0 0
8207040 -0.3327600629311025 0.017439367181179596 -0.0009411106022795173 -0.0003618432568086439 0 0 0 0
8239986 -0.33230603252746116 0.01713017609644026 -0.000933513696394056 -0.00039327202516214484 0 0 0 0
8272932 -0.33236119255167274 0.017211529123225863 -0.0009471685821216208 -0.0003987644585371204 0 0 0 0
8305878 -0.33232864778232557 0.01699628494685232 -0.000943492201892492 -0.0003720518466692621 0 0 0 0
8338824 -0.3325978596263374 0.017108002545528994 -0.0009395158258441103 -0.00037238474810891083 0 0 0 0
8371770 -0.33252108497233823 0.01712015679114617 -0.0009187404722064284 -0.0003824970466009965 0 0 0 0
8404716 -0.3325110395402692 0.017274724411451822 -0.0009270137803880459 -0.00039066237275650693 0 0 0 0
8437662 -0.3321911765039154 0.017013276848432554 -0.0009220329495375937 -0.00039042655536033235 0 0 0 0
8470608 -0.3321875331913711 0.01686047560776669 -0.0009365651778772367 -0.0003501150957270179 0 0 0 0
8503554 -0.33224754952941393 0.016767319953757038 -0.0009341630090480055 -0.00035794960621495355 0 0 0 0
8536500 -0.33219351079750326 0.016760970576223812 -0.0009054929522224384 -0.0003801316261395276 0 0 0 0
8569446 -0.3322777431397352 0.016945519295614435 -0.0009157748608276981 -0.00038407462667374754 0 0 0 0
8602392 -0.33241266233854194 0.01690548935521982 -0.0009285606505184271 -0.0003843918477329938 0 0 0 0
8635338 -0.33213912672027174 0.016853623904222376 -0.0009558808483607376 -0.0004086040422861366 0 0 0 0
8668284 -0.33206021740349867 0.01666542589302373 -0.0009204755260892182 -0.0003531267204578351 0 0 0 0
8701230 -0.3319158133472611 0.016676107317255086 -0.0008947752668432714 -0.00039226685901735405 0 0 0 0
8734176 -0.3320275442012905 0.01671871733116346 -0.0009313834862793858 -0.0003534965789370002 0 0 0 0
8767122 -0.33210505010676517 0.016954101654255416 -0.0009147960897057561 -0.00038889459721685706 0 0 0 0
8800068 -0.331947734194288 0.016756449538552123 -0.0009507840777323392 -0.0003804377464671503 0 0 0 0
8833014 -0.3319798040650129 0.01675940935117701 -0.0009467430261635466 -0.0003968714462206965 0 0 0 0
8865960 -0.3319251973314467 0.01677992233556495 -0.0009147764391065242 -0.00038552239384820927 0 0 0 0
8898906 -0.3319723671828162 0.016625790142806806 -0.00095873413265973 -0.00035468474650575356 0 0 0 0
8931852 -0.33194317228849185 0.016563014618483696 -0.000926138027183189 -0.0003892191039110598 0 0 0 0
8964798 -0.33177991883315805 0.016589836157616056 -0.000912212778003065 -0.0003712275050974849 0 0 0 0
8997744 -0.3319279192828863 0.016575254590230043 -0.000945278770143725 -0.0003645463898657857 0 0 0 0
9030690 -0.3318197918077226 0.0164902557080625 -0.0009263779917881562 -0.000402194749365831 0 0 0 0
9063636 -0.3318251126737869 0.01639417336112907 -0.0009362792043679973 -0.00039399699522403223 0 0 0 0
9096582 -0.3318142356945258 0.01658726781180925 -0.000937947001055008 -0.0003784234554545019 0 0 0 0
9129528 -0.33175051415201945 0.016581748943328152 -0.0009195569843632497 -0.00033658802273189365 0 0 0 0
9162474 -0.33170450267610635 0.016559306432379472 -0.0009228645047055089 -0.00035554804708258546 0 0 0 0
9195420 -0.33152246835381205 0.016484703454062215 -0.0009173338071745978 -0.00039106618045871327 0 0 0 0
9228366 -0.3317141445057328 0.016558928350826677 -0.0009417486804991149 -0.0003586063992473183 0 0 0 0
9261312 -0.33182230749734415 0.016499299109653164 -0.0009313139209096318 -0.0003698231274275519 0 0 0 0
9294258 -0.3316119330088622 0.01645443665192747 -0.0009300207869567281 -0.00036878478378487797 0 0 0 0
9327204 -0.33165632590741806 0.016509393531003162 -0.0009066855813076944 -0.0003411471329316005 0 0 0 0
9360150 -0.3316092004499959 0.016539649079303276 -0.00093874523378045 -0.00037087537496432516 0 0 0 0
9393096 -0.3316889080149224 0.016528565725665703 -0.000916097184089243 -0.00036235601364206435 0 0 0 0
9426042 -0.33173498566488663 0.016502467733366246 -0.0009148465089654469 -0.0003496678775765704 0 0 0 0
9458988 -0.33158629915153737 0.016429146291262228 -0.0009394075174790094 -0.0003581243092095449 0 0 0 0
9491934 -0.3312675346967564 0.0164742125789049 -0.0009324926584336881 -0.00036608631646593224 0 0 0 0
9524880 -0.33150201813129426 0.016440121996774647 -0.0009347882653148775 -0.0003867655351655001 0 0 0 0
9557826 -0.3316650313211376 0.016448668777422976 -0.0009111001877553746 -0.0003778676061968717 0 0 0 0
9590772 -0.3315031656447084 0.016378268939111502 -0.0009372909041312667 -0.00040321129502337276 0 0 0 0
9623718 -0.33158659021209463 0.016536547631114094 -0.0009499502031268888 -0.0003831796278584523 0 0 0 0
9656664 -0.33151573094623804 0.016623170159412025 -0.0009189085440787798 -0.0003685353661487175 0 0 0 0
9689610 -0.33141482551091056 0.01628442396231403 -0.0009214887774493118 -0.00037662564341842494 0 0 0 0
9722556 -0.33149576658337493 0.01642242179864956 -0.0009185667597003412 -0.0003577927803965625 0 0 0 0
9755502 -0.3316315849986512 0.016390831777932397 -0.0009259225285855128 -0.0003753672205840604 0 0 0 0
9788448 -0.3314540917224798 0.016540797745082266 -0.0009576054104367301 -0.00036407154915738666 0 0 0 0
9821394 -0.3313478466336196 0.01651875991642675 -0.0009092743107721203 -0.00038234910810441586 0 0 0 0
9854340 -0.33126691946191594 0.01641762351880937 -0.0009244419773763167 -0.0003578189251098846 0 0 0 0
9887286 -0.33149941815175055 0.016447261084140054 -0.0009147772759542413 -0.0003840990371046578 0 0 0 0
9920232 -0.33120036854183277 0.016546301241302595 -0.0008905592097044228 -0.0003693157452002901 0 0 0 0
9953178 -0.33141076097849426 0.016409144541974157 -0.000892468412985377 -0.00037082464887242396 0 0 0 0
9986124 -0.33147414854647445 0.01658881685194714 -0.0009455166224075494 -0.0003483178699381748 0 0 0 0
10019070 -0.33119877339362547 0.016398904915477113 -0.0009322132505384672 -0.00037073432876784905 0 0 0 0
10052016 -0.331166379852432 0.01648110843194065 -0.0009291230721633983 -0.0003937342899847221 0 0 0 0
10084962 -0.3313560989329029 0.016364943604014342 -0.0009188295730847944 -0.0003908017822529159 0 0 0 0
10117908 -0.33136435056036995 0.016410573180541434 -0.0009425774238216748 -0.00036184090094265337 0 0 0 0
10150854 -0.3314081976650794 0.016443813651160225 -0.0009048228979885431 -0.0003647742557306922 0 0 0 0
10183800 -0.3314413040469725 0.016564863324918563 -0.0009165896711583494 -0.00035457510198461594 0 0 0 0
10216746 -0.33121732280073 0.016605083018480283 -0.0009163881359482274 -0.00037423252765780715 0 0 0 0
10249692 -0.3310350086896399 0.016492142776023434 -0.0009172776624445717 -0.0003468186903297912 0 0 0 0
10282638 -0.33131915316262533 0.01636992578113137 -0.000929868739498955 -0.00038357397277489244 0 0 0 0
10315584 -0.33118497757577575 0.016593371254972733 -0.0009200727874667645 -0.00036659467838986634 0 0 0 0
10348530 -0.3313343979278927 0.016498562184796863 -0.0009174836466107468 -0.0003703059911325101 0 0 0 0
10381476 -0.33136325017908846 0.016449268400417754 -0.0008949405708074415 -0.0003580314013361936 0 0 0 0
10414422 -0.3312389458875238 0.0164209702119252 -0.0009323207453133352 -0.00037091912555678707 0 0 0 0
10447368 -0.3313171276265659 0.016410237200443763 -0.0009077484109929827 -0.00038156383688038435 0 0 0 0
10480314 -0.3311273733996646 0.01660745747090906 -0.0009439673061991543 -0.00036031895365971705 0 0 0 0
10513260 -0.3311783878894564 0.016444103175574667 -0.0009572828044047053 -0.0004125437049204156 0 0 0 0
10546206 -0.3312471264296786 0.016522919395701812 -0.0009035087111288542 -0.00035550092389406387 0 0 0 0
10579152 -0.33103185128968515 0.016564238086133772 -0.0009128279737786828 -0.00037992976344641095 0 0 0 0
10612098 -0.33112131031589576 0.016508010966669494 -0.0008969074149063759 -0.00038215022146494756 0 0 0 0
10645044 -0.33104647330296805 0.01649596975396668 -0.000913598890049652 -0.0003556097519091144 0 0 0 0
10677990 -0.3310476707704974 0.016797004686188832 -0.0009087685688166468 -0.00035565653762082756 0 0 0 0
10710936 -0.3312483272752913 0.01662842237139897 -0.0009160540910774603 -0.0003682645222188709 0 0 0 0
10743882 -0.3310008067592127 0.01656544416520014 -0.000915778593422972 -0.00035431174449966537 0 0 0 0
10776828 -0.3310101587162704 0.016530848359516452 -0.0009290639852030988 -0.000352625726420437 0 0 0 0
10809774 -0.3310744120550772 0.016598657033353073 -0.0009115616817179117 -0.0003695964535190962 0 0 0 0
10842720 -0.33106048694432927 0.016707178234539818 -0.0009061167873816912 -0.0003621733394072819 0 0 0 0
10875666 -0.3308505888365402 0.016468829711987383 -0.000901868191536684 -0.00034529884361755815 0 0 0 0
10908612 -0.33123367599107933 0.016569993059299855 -0.0009497976557482108 -0.00039084293464027226 0 0 0 0
10941558 -0.33095853963511807 0.016631382778753007 -0.0009114925500889467 -0.00036097342680976115 0 0 0 0
10974504 -0.33110850661867824 0.016485887654257087 -0.0009378631232471593 -0.0003633571571218219 0 0 0 0
11007450 -0.33100218294092604 0.016704603758694515 -0.0009214179545053712 -0.0003459786017962472 0 0 0 0
11040396 -0.3311958723854265 0.016699232715450936 -0.0009217106812242094 -0.0003454540815124387 0 0 0 0
11073342 -0.33111090992854497 0.016700564239330074 -0.0009223399058643223 -0.0003665213638365988 0 0 0 0
11106288 -0.3308969173776594 0.016738786331982003 -0.0009311527744543329 -0.00037194955575817353 0 0 0 0
11139234 -0.33104819888545167 0.016656324602801774 -0.0009198993014253488 -0.00037374357041088026 0 0 0 0
11172180 -0.33077130945407784 0.01655114264648785 -0.0009027113064186709 -0.0003771188139702019 0 0 0 0
11205126 -0.3308974401380238 0.016606821750545776 -0.0009046111567488385 -0.0003664047485993856 0 0 0 0
11238072 -0.3310785913459418 0.01684310424246467 -0.0009128207601068975 -0.0003753884124366594 0 0 0 0
11271018 -0.33102452013701933 0.016649954456798757 -0.0008940341098007959 -0.0003602600056987023 0 0 0 0
11303964 -0.33111804385368176 0.016650158571253296 -0.0008877609156902963 -0.0003809244886669597 0 0 0 0
11336910 -0.3307929812562935 0.016630579888234128 -0.0008997081237010707 -0.0003844325040624707 0 0 0 0
11369856 -0.33088168327213646 0.016752478470250635 -0.0009029461612857327 -0.00033295122125765874 0 0 0 0
11402802 -0.330905058764073 0.01657369911651951 -0.0009243251330998115 -0.0003918428566533554 0 0 0 0
11435748 -0.3308482013861703 0.0165395583586869 -0.00088573705354788 -0.00034926980413358115 0 0 0 0
11468694 -0.3308021714788655 0.016710895567037587 -0.0009159246692893394 -0.0003679283254049645 0 0 0 0
11501640 -0.3307734436641536 0.016630830790507412 -0.0009056944065539949 -0.0003965950581838861 0 0 0 0
11534586 -0.3310865564140777 0.016677748653316896 -0.0009270868449944389 -0.00037210384615003674 0 0 0 0
11567532 -0.33080758172377484 0.0167460990606987 -0.0009148150179419832 -0.00035643328042542487 0 0 0 0
11600478 -0.33078158415220815 0.016658029753032252 -0.0009139158089001741 -0.00037242999939749474 0 0 0 0
11633424 -0.3308234493628808 0.01665392753345268 -0.000915050522831348 -0.00036696348149106977 0 0 0 0
11666370 -0.3307802997033923 0.016839514082592807 -0.0009349263562384552 -0.00037566413877891566 0 0 0 0
11699316 -0.33081131211651055 0.016846604550353514 -0.000887655384896276 -0.0003786843372426901 0 0 0 0
11732262 -0.3309493482979226 0.016782924107079326 -0.0009304330821590836 -0.0003689773733119315 0 0 0 0
11765208 -0.3308044121962159 0.016926061471358278 -0.0009057781830774052 -0.00037206151891364765 0 0 0 0
11798154 -0.3308443740098073 0.016644848752964073 -0.0008963663045720023 -0.00036499991058683767 0 0 0 0
11831100 -0.33089868832253244 0.016903323123600926 -0.0009269537840322561 -0.00036248263808243424 0 0 0 0
11864046 -0.3308440848609793 0.016892065249121638 -0.0009093201266431926 -0.0003656603329198943 0 0 0 0
11896992 -0.3308146792888797 0.01689217619623978 -0.0009215081358067906 -0.0003699415960892333 0 0 0 0
11929938 -0.33109327411252026 0.01698290451643945 -0.0008964113878546467 -0.00036738171040263907 0 0 0 0
11962884 -0.33082038309834366 0.016892324932306392 -0.0009029457214101397 -0.0003778446660247824 0 0 0 0
11995830 -0.33077057362327333 0.016801065192764933 -0.000902848056293943 -0.0003761504500093023 0 0 0 0
12028776 -0.3306270566659568 0.01694985534133111 -0.0009034722539026567 -0.00035347355571560074 0 0 0 0
12061722 -0.3307496712099052 0.016815648378974563 -0.0009199761837271517 -0.0003851376612591406 0 0 0 0
12094668 -0.33068115770885076 0.017038921296571762 -0.0009285051842517706 -0.00038692580145126574 0 0 0 0
12127614 -0.3307276459551976 0.01700077985197429 -0.0009090784049836938 -0.0003627863047656204 0 0 0 0
12160560 -0.33099097186976495 0.017004465466755367 -0.0009069634779281864 -0.00035733347553220155 0 0 0 0
12193506 -0.3308572477424565 0.016894413438707453 -0.0009356627352376758 -0.00037457608150959676 0 0 0 0
12226452 -0.3306893496443517 0.017029468541533532 -0.0009389448082792973 -0.0003835473431284278 0 0 0 0
12259398 -0.33075685629886037 0.016834071362711513 -0.0009017322057610549 -0.00036390909367174136 0 0 0 0
12292344 -0.3309287629668686 0.01704443290057358 -0.0009294599999311691 -0.0003949580152172762 0 0 0 0
12325290 -0.3307953750988306 0.01703634139968992 -0.000903121623856161 -0.00040658309709943317 0 0 0 0
12358236 -0.33069007294426106 0.016887333634922872 -0.0009216005353787645 -0.00037878684745283814 0 0 0 0
12391182 -0.33063128731728864 0.016848952864457433 -0.0009417174475991008 -0.00038109137883747356 0 0 0 0
12424128 -0.33064496376875296 0.017027417648635114 -0.0008896948158403461 -0.00038008941547599997 0 0 0 0
12457074 -0.3308430178168866 0.01689515627960195 -0.0009103166067362202 -0.000400997374592881 0 0 0 0
12490020 -0.3308136169874121 0.01713891286546236 -0.0009287123678534831 -0.00035783423823210225 0 0 0 0
12522966 -0.3307083775724959 0.01716999542211658 -0.0009181523042038955 -0.0003739103345751238 0 0 0 0
12555912 -0.3307827027213846 0.01715677957571595 -0.0009131820363868329 -0.00040563122951445236 0 0 0 0
12588858 -0.33086607163177406 0.017100319707844987 -0.0008984294269275063 -0.0003836542772238907 0 0 0 0
12621804 -0.33061988789435987 0.016995505037787177 -0.000936698576849577 -0.00038220813340742116 0 0 0 0
12654750 -0.3306635962028746 0.017113287543734784 -0.0009084724945564943 -0.0003785809791461557 0 0 0 0
12687696 -0.33054525872846857 0.01703454382788609 -0.0009168142027814576 -0.0004098421992312704 0 0 0 0
12720642 -0.3306767160934978 0.017101177521776183 -0.0009133834818108743 -0.0003869535200508814 0 0 0 0
12753588 -0.3305833269097937 0.01727082845822473 -0.0009159150790451928 -0.00035267051164462274 0 0 0 0
12786534 -0.3308891262402687 0.017313872439796634 -0.000924352940333294 -0.00039507589637730544 0 0 0 0
12819480 -0.3307203518446662 0.017237896727105535 -0.0009279708493369961 -0.0003844873451918218 0 0 0 0
12852426 -0.33077837461470766 0.0171928841600761 -0.0008910923303480694 -0.0003733064658491044 0 0 0 0
12885372 -0.33059612264289434 0.017182428683860062 -0.0009264612590358552 -0.0003926399099945264 0 0 0 0
12918318 -0.33062361370872473 0.0173639463166385 -0.0008955597857854535 -0.000345901859084817 0 0 0 0
12951264 -0.33084610048792046 0.017317069649902542 -0.0008886350443881434 -0.0003784591890819281 0 0 0 0
12984210 -0.3306494866160393 0.01732318620552166 -0.000923767744936151 -0.00036856897577453685 0 0 0 0
13017156 -0.3307735414949028 0.01742970197095976 -0.0009337033714631526 -0.0003727077058610986 0 0 0 0
13050102 -0.33066331435993646 0.01739233199952069 -0.0009155441599087106 -0.0003808216293944247 0 0 0 0
13083048 -0.33061959879787395 0.017038035891877665 -0.0009219289372491571 -0.0003754922087027452 0 0 0 0
13115994 -0.3307769179462377 0.017336378322644615 -0.0008871050359246811 -0.00037605498652563366 0 0 0 0
13148940 -0.330532384224371 0.017286571704435403 -0.0009072854752231711 -0.000373349974195419 0 0 0 0
13181886 -0.3307174853094274 0.01748277404315738 -0.0009260022888287685 -0.00040917172673577107 0 0 0 0
13214832 -0.3305076662353895 0.017211199021322843 -0.0009177856106711802 -0.00040271698894258327 0 0 0 0
13247778 -0.33062853686772825 0.01734676406068349 -0.000897397702505607 -0.00037376725248767503 0 0 0 0
13280724 -0.330811059883838 0.01744529563560273 -0.000903255540603133 -0.000375649306741267 0 0 0 0
13313670 -0.33046033343664327 0.01735313137618537 -0.0009065745865252031 -0.00037916524254625217 0 0 0 0
13346616 -0.33069048476800844 0.01756084650970419 -0.0009141662117768024 -0.0003858914430121964 0 0 0 0
13379562 -0.33064632274381905 0.017528043156503862 -0.000898697522053803 -0.0003583181686479666 0 0 0 0
13412508 -0.3305763055893916 0.017528932066351335 -0.0008860347477358715 -0.0003978152352092298 0 0 0 0
13445454 -0.3306035593361765 0.01744931863759001 -0.000915623071554841 -0.0003775523924270728 0 0 0 0
13478400 -0.330718054544546 0.01756843141975473 -0.0009173629967786829 -0.0003808822463492039 0 0 0 0
13511346 -0.3306621108951197 0.017474994569193297 -0.0009131687558152508 -0.00037938430319676774 0 0 0 0
13544292 -0.33075486505311447 0.01751596473909283 -0.0009308548798820885 -0.0003877954056933838 0 0 0 0
13577238 -0.33074765889136076 0.01753215043662362 -0.0009509971588737609 -0.00042261195038203786 0 0 0 0
13610184 -0.33070867522763375 0.017727840929172636 -0.0009107855111104624 -0.00039803831122959697 0 0 0 0
13643130 -0.33057708808815617 0.017664352668440044 -0.0009107731475618456 -0.00038611845255124823 0 0 0 0
13676076 -0.3307005539644463 0.017733981351367945 -0.0009162516252328787 -0.00037345063195045393 0 0 0 0
13709022 -0.33077756485166243 0.017867480870733476 -0.0009407221532116559 -0.00037746240478636373 0 0 0 0
13741968 -0.3304682866161284 0.01772653467443983 -0.0009322560388410244 -0.000389506135937717 0 0 0 0
13774914 -0.3305810571234132 0.017650893178156272 -0.0009088740284405505 -0.0004037558744844997 0 0 0 0
13807860 -0.3305679164916004 0.01766025632305622 -0.0008995884267929982 -0.0003817537839888399 0 0 0 0
13840806 -0.3306284775548831 0.017778748956124104 -0.0009280053852753191 -0.0003919796059933477 0 0 0 0
13873752 -0.33079167427555756 0.017763308318574124 -0.0009197888861623481 -0.00038790568924969515 0 0 0 0
13906698 -0.33050840822979144 0.017729859729302057 -0.0009247199429185026 -0.00038973560184917493 0 0 0 0
13939644 -0.33061931340383627 0.01777553144544519 -0.0009183018600856811 -0.0003828235297032147 0 0 0 0
13972590 -0.3305139919733283 0.017777263918834416 -0.0009233888113531852 -0.0003964517702124482 0 0 0 0
14005536 -0.33082789813947433 0.017889071795808793 -0.0009236238634046601 -0.00038712935242479703 0 0 0 0
14038482 -0.33064003932846026 0.01783994540071772 -0.0008966091387910856 -0.00036622415744483935 0 0 0 0
14071428 -0.33086236342310793 0.017979637592392628 -0.000924443761906849 -0.00042753383457298403 0 0 0 0
14104374 -0.33061134680811566 0.01773174192695644 -0.000895327731479902 -0.0003929467489112048 0 0 0 0
14137320 -0.33051291433297436 0.01769049938648273 -0.0008837808596714779 -0.00040245403694794173 0 0 0 0
14170266 -0.3306603701801947 0.01798118532557031 -0.0009084453610865263 -0.0003952467525974065 0 0 0 0
14203212 -0.33051795393719724 0.017885807256522255 -0.0009174799037752275 -0.00036489297904484635 0 0 0 0
14236158 -0.33065117913056374 0.017990693072620762 -0.000927759686372232 -0.00039201671425843747 0 0 0 0
14269104 -0.3305843340112896 0.017959656768536756 -0.000928738612654387 -0.00038695803828014757 0 0 0 0
14302050 -0.3307196523916335 0.018089649374314818 -0.0009160594896144489 -0.0003834103501130474 0 0 0 0
14334996 -0.3306012053683509 0.018023344349672638 -0.0009298543953567128 -0.0004099016459845434 0 0 0 0
14367942 -0.3305024849096315 0.01807239529779263 -0.0009437571616994447 -0.00037952549272191863 0 0 0 0
14400888 -0.3304917675214753 0.0180059710491972 -0.0009167472979798491 -0.0003594205487271957 0 0 0 0
14433834 -0.33063843758184214 0.01804030922653514 -0.0009010848167358641 -0.00038824402921260916 0 0 0 0
14466780 -0.3307536762250447 0.01803738006976584 -0.0009282963573669981 -0.00041021403846771296 0 0 0 0
14499726 -0.3308475906294455 0.0181929831642816 -0.0009094666696860272 -0.0003977797369469783 0 0 0 0
14532672 -0.3306703658222564 0.018258281737142258 -0.000908397209775415 -0.0003929950897405272 0 0 0 0
14565618 -0.33043637108170837 0.017868449684417996 -0.0009112303289432483 -0.00039093428375903234 0 0 0 0
14598564 -0.3306182144840864 0.01815135818821796 -0.0009149044487903881 -0.0003928160306761414 0 0 0 0
14631510 -0.3307660019875683 0.018179025888677498 -0.0009230878918649353 -0.00041584012019241586 0 0 0 0
14664456 -0.3305758594484389 0.018085418999961193 -0.0009005009416509044 -0.00041495112693089325 0 0 0 0
14697402 -0.33084011498127913 0.018422260446748703 -0.0009236914339635382 -0.00042204234723970235 0 0 0 0
14730348 -0.3303845015113193 0.018057953444974503 -0.0009285491857265278 -0.00038680720727327393 0 0 0 0
14763294 -0.3303826536240921 0.018041394922306647 -0.000914801489875421 -0.0004040589501029295 0 0 0 0
14796240 -0.33083950713129867 0.018380194951226413 -0.0009264426579198335 -0.0004090214011345682 0 0 0 0
14829186 -0.3305012530870712 0.018261058544427576 -0.0009379967870927072 -0.00041297224480898445 0 0 0 0
14862132 -0.3304459683353928 0.018347214618121995 -0.0009248000817307347 -0.0004252091702692722 0 0 0 0
14895078 -0.33089089533737837 0.018431911175835706 -0.000923229169410163 -0.0004038914338239849 0 0 0 0
14928024 -0.3305155417356639 0.018214410358023778 -0.000919555865914118 -0.0003946140179698477 0 0 0 0
14960970 -0.33055312795876934 0.018308974150934288 -0.0009388245770938755 -0.00038297020908110914 0 0 0 0
14993916 -0.3306151661913105 0.01848516790461096 -0.000905588943245766 -0.00038175878513245124 0 0 0 0
15026862 -0.3306792423540856 0.018430931168709926 -0.0009297779727528236 -0.00039645284370242183 0 0 0 0
15059808 -0.33076900746181825 0.018516897372618236 -0.0009241958478317468 -0.000414623419396484 0 0 0 0
15092754 -0.33081009888240803 0.018534838446201993 -0.0009376250888597441 -0.0003900737056626238 0 0 0 0
15125700 -0.3308643188545128 0.018514793925268815 -0.000925282578366919 -0.00042246104755710783 0 0 0 0
15158646 -0.33040090556887475 0.0183191910100125 -0.0009092393995750743 -0.0004023548068884663 0 0 0 0
15191592 -0.33063245980778727 0.01845857494274531 -0.0009376295686270466 -0.00040381115036642 0 0 0 0
15224538 -0.33077749229817327 0.018496140141807425 -0.0009132889793079836 -0.0003919070952625776 0 0 0 0
15257484 -0.33074916219049416 0.018505477998962325 -0.0009398716336394553 -0.00042965629297114 0 0 0 0
15290430 -0.3306832440548311 0.018402579554788745 -0.0009037196133645813 -0.00039719274575232625 0 0 0 0
15323376 -0.33075010285644374 0.018735171556349385 -0.0009478439777634836 -0.0004164007809908261 0 0 0 0
15356322 -0.33052813731172964 0.01855573750995314 -0.0009041213241105983 -0.0004089798848337142 0 0 0 0
15389268 -0.3305606585251781 0.018572001240706137 -0.0009468667296081743 -0.0004149252949353387 0 0 0 0
15422214 -0.33063556082944784 0.018610999108930302 -0.0009008312613915337 -0.0004306169884652732 0 0 0 0
15455160 -0.33058544888873015 0.01860839744237489 -0.0009018027488407154 -0.00040943581572403794 0 0 0 0
15488106 -0.33061517666429724 0.018641723340387873 -0.000918578070105556 -0.0004106072583654029 0 0 0 0
15521052 -0.33062013214924946 0.018742846651997287 -0.0009168471212179212 -0.0004112304890959545 0 0 0 0
15553998 -0.33079896079791765 0.01882542016730249 -0.0009186803768471164 -0.00042987839344218 0 0 0 0
15586944 -0.33043340659657106 0.01861798758292645 -0.0009392532522575495 -0.00040815098096610135 0 0 0 0
15619890 -0.3306355489551688 0.018780353868489915 -0.0009193209352247808 -0.0004124398159760141 0 0 0 0
15652836 -0.33076086734458193 0.018799174032834685 -0.0009601946123456303 -0.0004010233985658344 0 0 0 0
15685782 -0.330865381443163 0.018971574556016866 -0.0009557548976251133 -0.0004387501980472544 0 0 0 0
15718728 -0.33063202273826287 0.018693635693922135 -0.0009714492590791753 -0.0003663181606264664 0 0 0 0
15751674 -0.3306897558848002 0.018842781270711775 -0.0008638098693509177 -0.00038068173574865857 0 0 0 0
15784620 -0.3307470264932314 0.01874611697384608 -0.0006892180041642949 -0.0005785229286619049 0 0 0 0
15817566 -0.33058123031036607 0.018736743121984582 -0.0012621601399072147 -0.0004873387255619323 0 0 0 0
15850512 -0.330694754156719 0.018748707590361187 -0.0008819472413677361 -0.0004118348419577151 0 0 0 0
15883458 -0.3307427458662389 0.019036085265659572 -0.0009997465872668909 -0.0003849469985753367 0 0 0 0
15916404 -0.3307302817441594 0.018828075678895186 -0.0008241920449039008 -0.0005163866178121729 0 0 0 0
15949350 -0.33078940331998646 0.018932929149727447 -0.0009346041325039915 -0.0004407559173256506 0 0 0 0
15982296 -0.3306802321642365 0.019030928576135375 -0.0009452498215872838 -0.00041810517550847374 0 0 0 0
16015242 -0.3305995406340796 0.018940809880076997 -0.0009444133193866948 -0.0004131349141209302 0 0 0 0
16048188 -0.3308132616185523 0.019258885622395867 -0.0009056889736730139 -0.0004421986523159262 0 0 0 0
16081134 -0.3308500290055757 0.019200010539311044 -0.000961221760749394 -0.0004053207329677414 0 0 0 0
16114080 -0.33062478171630033 0.019036325658932905 -0.0009192969028947622 -0.0004421539630702785 0 0 0 0
16147026 -0.33077319588346055 0.01900888696600992 -0.0009163403851075607 -0.00040902136115709406 0 0 0 0
16179972 -0.3308479975409868 0.019060727781709245 -0.0009241193487289127 -0.00040547759652012 0 0 0 0
16212918 -0.33072334159793854 0.01915706920237712 -0.000924994750575714 -0.0004231377429093758 0 0 0 0
16245864 -0.33072692929890335 0.019130946860903122 -0.0009346840210734771 -0.00046909592529120433 0 0 0 0
16278810 -0.33061572572554093 0.019066301770140265 -0.0009139260535174348 -0.0004308387813787662 0 0 0 0
16311756 -0.3307773320084267 0.019133410286834924 -0.0009599556507178972 -0.00042060369999823166 0 0 0 0
16344702 -0.3308017900289429 0.019248382600708963 -0.0009255819873854339 -0.00041442577684298914 0 0 0 0
16377648 -0.33097549035560364 0.019127970758956305 -0.0009269422880048837 -0.00038432103846464794 0 0 0 0
16410594 -0.330633359140283 0.01927220077544794 -0.0009264822524549141 -0.0004548665940747804 0 0 0 0
16443540 -0.3308063416617256 0.019427063575795697 -0.000905485872271328 -0.0004305130333081138 0 0 0 0
16476486 -0.3308156859371984 0.01911622402251548 -0.0009238496351865337 -0.0004099975227788181 0 0 0 0
16509432 -0.3306382448785074 0.019218340975886816 -0.0009334689372784821 -0.00040688966671221036 0 0 0 0
16542378 -0.3307590543575899 0.01945830173825155 -0.0009034892991656082 -0.0004151467030488978 0 0 0 0
16575324 -0.330684592300937 0.019465759792325975 -0.0009642658820262379 -0.0004253997069959199 0 0 0 0
16608270 -0.33066258245836794 0.019441411903727217 -0.000948575995395815 -0.00042289496614261393 0 0 0 0
16641216 -0.3307205162975626 0.0193571631957262 -0.0009454404072558832 -0.0004448098727525216 0 0 0 0
16674162 -0.33090890990101546 0.019577681119511612 -0.000922988655543064 -0.0004230389867290054 0 0 0 0
16707108 -0.33041406908848836 0.019501345990761584 -0.000953013546223477 -0.00044276426707410323 0 0 0 0
16740054 -0.3307246026447514 0.019555503496992394 -0.0009155575898137861 -0.000430818518571818 0 0 0 0
16773000 -0.33096883316432213 0.01964722296309652 -0.0009178089289373278 -0.0004388764971502482 0 0 0 0
16805946 -0.3306150248867365 0.019500496849248934 -0.0009294805017175956 -0.0004544589931340161 0 0 0 0
16838892 -0.3307188725546516 0.019102330181730163 -0.0009065601875967184 -0.00043125786139238287 0 0 0 0
16871838 -0.3308719532498119 0.019374106560020615 -0.0009252749898052664 -0.0003919926652364644 0 0 0 0
16904784 -0.3306796411613872 0.019572437132482162 -0.0009371870234113154 -0.00043929100805390614 0 0 0 0
16937730 -0.33064179223790585 0.019850012680094835 -0.000912113742591669 -0.00044076615333297456 0 0 0 0
16970676 -0.330609806023621 0.019716167793412613 -0.0009387195921836359 -0.00044916365044362765 0 0 0 0
17003622 -0.3310352138324371 0.01973456235592894 -0.0009264356588542393 -0.0004378283596238988 0 0 0 0
17036568 -0.33094070191191927 0.01955289899077145 -0.0009358446087048807 -0.00041877255396625956 0 0 0 0
17069514 -0.3308932211240135 0.019793513467147576 -0.0009327452944392342 -0.00040846445631420873 0 0 0 0
17102460 -0.3307726227772307 0.019833123184397016 -0.0009209442800183834 -0.00044165537854776865 0 0 0 0
17135406 -0.33090891501980557 0.01987655787451864 -0.0009490106483095504 -0.00043154451159081926 0 0 0 0
17168352 -0.3307699727064219 0.01960418529393849 -0.0009548676657778199 -0.00044393481822603017 0 0 0 0
17201298 -0.33077997251035784 0.01970623852452562 -0.0009416365890564615 -0.0004519296032636578 0 0 0 0
17234244 -0.33117342593417515 0.01987394290488101 -0.0009475526711760829 -0.0004691494736531501 0 0 0 0
17267190 -0.33084162931694894 0.01988621146272951 -0.0009576540244111264 -0.0004097771169508055 0 0 0 0
17300136 -0.33081779834222386 0.020038720905205948 -0.0009149869763854915 -0.00044809177901833385 0 0 0 0
17333082 -0.33096504025410006 0.020046341797037574 -0.0009293768420162212 -0.00044561950513713656 0 0 0 0
17366028 -0.3308660348370135 0.019898949264399893 -0.0009235670979939944 -0.00043509007165566514 0 0 0 0
17398974 -0.33093934418525905 0.020292234495520665 -0.0008982013806874356 -0.000467754713877181 0 0 0 0
17431920 -0.3307403133417916 0.019981010202172418 -0.0009654209452385779 -0.0003868546835768508 0 0 0 0
17464866 -0.3310299952079553 0.019981059704661564 -0.0011194374797675473 -0.0003290653942599199 0 0 0 0
17497812 -0.33066942070930105 0.02007670391622344 -0.0009045707176207157 -0.0003870370575825459 0 0 0 0
17530758 -0.33047803313788177 0.019921359362759163 -0.000771314892982204 -0.0002126809280244876 0 0 0 0
17563704 -0.3308613565307557 0.01989297358861855 -0.0008062706744324862 -0.00030932296150926506 0 0 0 0
17596650 -0.330774517084219 0.020073411785734782 -0.0009063630131849701 -0.0004903884369042666 0 0 0 0
17629596 -0.33087247659888197 0.020066307524104623 -0.0008614347923991827 -0.0004544802099676681 0 0 0 0
17662542 -0.3309018567253706 0.020319591164376365 -0.0012104678797015 -0.00041773699557267035 0 0 0 0
17695488 -0.3308591824345734 0.02002562898417277 -0.0009507966177144248 -0.0004313621011017568 0 0 0 0
17728434 -0.3309055125299421 0.020092928653641155 -0.0009394040857713976 -0.00043066660148883456 0 0 0 0
17761380 -0.3310763558555947 0.020097636547388182 -0.0009467451541768601 -0.00046304457274322526 0 0 0 0
17794326 -0.33091357600272264 0.02021955556473044 -0.000951534937802198 -0.00045873485016595345 0 0 0 0
17827272 -0.3307654744472614 0.020395019263178646 -0.0009455837306567325 -0.0004212272848346331 0 0 0 0
17860218 -0.3308719980164588 0.020444611930633814 -0.0009390026369472124 -0.00045086293634689987 0 0 0 0
17893164 -0.330911376037357 0.020384475348285216 -0.0009218210925672988 -0.00044748425557018947 0 0 0 0
17926110 -0.33106027520908027 0.020359977701169353 -0.0009303373711029966 -0.0004411247875593253 0 0 0 0
17959056 -0.33088685082489977 0.02025365677944976 -0.0009193855398452906 -0.000448223318961293 0 0 0 0
17992002 -0.3312727761441202 0.02046772056321852 -0.0009307923964214508 -0.00043584228126265843 0 0 0 0
18024948 -0.33124374897658143 0.020614074585942586 -0.0009236587111616946 -0.00044343403294121473 0 0 0 0
18057894 -0.33085556621810847 0.02021547157623179 -0.000946866384336437 -0.00042109441764388514 0 0 0 0
18090840 -0.33110044037813524 0.0206502347144895 -0.0009467569542962154 -0.0004661793932809653 0 0 0 0
18123786 -0.3311221302837966 0.020387098620091203 -0.000942149194800807 -0.00046726903742430083 0 0 0 0
18156732 -0.33082132597831027 0.02055508959083266 -0.000967624759084605 -0.00043203814166261435 0 0 0 0
18189678 -0.33103568258590593 0.020473955889862994 -0.0009462773325062123 -0.0004583077183092916 0 0 0 0
18222624 -0.33095704995617437 0.020483183149763648 -0.0009569476564243693 -0.0004498582597643909 0 0 0 0
18255570 -0.3310222164953748 0.02050919596764129 -0.0009601821024393234 -0.0004379909535900787 0 0 0 0
18288516 -0.33100167535516306 0.020321994705360103 -0.0009692156736929943 -0.00044170392387678453 0 0 0 0
18321462 -0.33113967160093877 0.020612302558738086 -0.0009504984400735828 -0.00044678639714089695 0 0 0 0
18354408 -0.3308054776634951 0.020510965827779698 -0.0009337444536022492 -0.000452227424259617 0 0 0 0
18387354 -0.3311639920435281 0.02062167765570927 -0.0009365686951530307 -0.0004717399190287262 0 0 0 0
18420300 -0.3312563086497148 0.020865786772123092 -0.0009418992173225841 -0.0004821686425709523 0 0 0 0
18453246 -0.3309489180628271 0.020680253576450248 -0.0009479003482450076 -0.0004422567198354744 0 0 0 0
18486192 -0.3311217069933429 0.02060980490296391 -0.0009490369690662269 -0.000462300431646725 0 0 0 0
18519138 -0.3313892293205303 0.02076819108675268 -0.0009395990414864817 -0.00045020057029132295 0 0 0 0
18552084 -0.3310425846650796 0.020670769909304623 -0.00094298597534631 -0.0004590001069459834 0 0 0 0
18585030 -0.3309154306404945 0.020987706938252967 -0.0009397498091597023 -0.0004458514796349154 0 0 0 0
18617976 -0.3309351647150583 0.020867494183251845 -0.0009525939885972507 -0.0004643356873873741 0 0 0 0
18650922 -0.33108583023671867 0.020866171017223937 -0.0009408426427658851 -0.00044604441564620494 0 0 0 0
18683868 -0.3311061708841782 0.020823493166039 -0.0009281118001823204 -0.0004846089412535134 0 0 0 0
18716814 -0.3311064568056732 0.020937179114370843 -0.0009593546306333077 -0.00047322584931730786 0 0 0 0
18749760 -0.3313073255005188 0.020961404420168313 -0.0009538413653918227 -0.00045501369242030603 0 0 0 0
18782706 -0.3307203979101279 0.020797429650482032 -0.0009265351137089116 -0.0004275539576022183 0 0 0 0
18815652 -0.3310788035883646 0.021179012639190305 -0.0009518917927697804 -0.0004765267146584083 0 0 0 0
18848598 -0.3311863833474536 0.021125549423209322 -0.0009701347114157056 -0.00044979510277577933 0 0 0 0
18881544 -0.3311020397833091 0.021139833800012563 -0.0009609873494783988 -0.0004827785579590517 0 0 0 0
18914490 -0.33117367570995565 0.020972935660678378 -0.0009709820784308842 -0.00043478623960084594 0 0 0 0
18947436 -0.3312201318664892 0.021142129246350474 -0.0009325718599979115 -0.00045504435010244735 0 0 0 0
18980382 -0.3312135215784703 0.0211282763858877 -0.0009501573399324129 -0.00048070731026194003 0 0 0 0
19013328 -0.33119518875893583 0.021341279088020297 -0.0009424175323258307 -0.0004631437624044776 0 0 0 0
19046274 -0.33130262685777845 0.021320131016248266 -0.0009425787750981644 -0.00047102040349348526 0 0 0 0
19079220 -0.3311459632980008 0.021009997275848527 -0.0009743494420996336 -0.0004587682755374422 0 0 0 0
19112166 -0.3313342857721444 0.021138098739057094 -0.000952115657724505 -0.000468971539494328 0 0 0 0
19145112 -0.33104898010598194 0.02114389164011636 -0.0009627940891071018 -0.00046523644988632785 0 0 0 0
19178058 -0.33118374556222235 0.021246180681466675 -0.0009577679342970447 -0.00045342170558464135 0 0 0 0
19211004 -0.33132718641270725 0.021269324907899474 -0.0009673142501240026 -0.00047251122737073005 0 0 0 0
19243950 -0.3311726754622332 0.021456715943470026 -0.0009334449367362805 -0.0004835675667457386 0 0 0 0
19276896 -0.33116530964420526 0.021196101970244543 -0.0009413082935516873 -0.00046017690534361975 0 0 0 0
19309842 -0.3312458028270006 0.02145832740675274 -0.0009695202542163887 -0.00048009491234704543 0 0 0 0
19342788 -0.3313134747969562 0.021678690536835157 -0.0009570047818075022 -0.00048437768896497635 0 0 0 0
19375734 -0.331272844274102 0.021232004830453493 -0.000970026207577749 -0.00048280498844595555 0 0 0 0
19408680 -0.3314360370131056 0.021460437012202037 -0.0009438197029167522 -0.00048229524046445276 0 0 0 0
19441626 -0.3313343608539817 0.021293415411164432 -0.0009616838395128455 -0.0004633622711396717 0 0 0 0
19474572 -0.3309246881207816 0.021409798537236728 -0.0009580244223344446 -0.0004601791745343097 0 0 0 0
19507518 -0.33134124203231263 0.02183641047073562 -0.0009723130300011532 -0.0004769728397717176 0 0 0 0
19540464 -0.3310508463132139 0.021554620615093535 -0.0009601526346545983 -0.0004794008999152277 0 0 0 0
19573410 -0.3313882727677662 0.02163878316135177 -0.0009638608324748195 -0.0004930643865079598 0 0 0 0
19606356 -0.331437174544167 0.021380817467385793 -0.00095616237318197 -0.0004902942534130663 0 0 0 0
19639302 -0.3304189240452954 0.017844425468560254 -0.0009466021688928508 -0.0004694170542154532 0 0 0 0
19672248 -0.33052443983436003 0.01807039578811053 -0.0009549316006059337 -0.00047659215985693224 0 0 0 0
19705194 -0.33045542069587464 0.018181974834760264 -0.0009787199313577625 -0.0004683960800687513 0 0 0 0
19738140 -0.3307051076602653 0.01821962324212309 -0.0009902715037315127 -0.00048638388167132125 0 0 0 0
19771086 -0.3301559848726776 0.018007223681961365 -0.0009571606371347451 -0.0004967219017767852 0 0 0 0
19804032 -0.3304927617711171 0.01811294052382464 -0.0009573985753183739 -0.0004900243742206748 0 0 0 0
19836978 -0.330539461719077 0.018231806142247727 -0.0009663540984847558 -0.0004645978257753588 0 0 0 0
19869924 -0.33056910998612876 0.01841251807744504 -0.0009556374133807891 -0.0005170635482522955 0 0 0 0
19902870 -0.33011681654860797 0.01804855321615424 -0.0009729274040908097 -0.0004803203714676279 0 0 0 0
19935816 -0.3305732446395029 0.018397294687158654 -0.0009422266969966424 -0.0004779835971864137 0 0 0 0
19968762 -0.3305453349746714 0.018238755420214556 -0.0009733379830989372 -0.00045824416523255617 0 0 0 0
20001708 -0.33039941114656785 0.018250488136167843 -0.0009571994352388885 -0.0004878070747949655 0 0 0 0
20034654 -0.33034958254207203 0.018269554908603335 -0.0009912415464242328 -0.0005107775020932158 0 0 0 0
20067600 -0.3305254511554817 0.018378416816253997 -0.0009553025790925219 -0.0004925262502242315 0 0 0 0
20100546 -0.3305463644105284 0.018423639612322296 -0.0009610168162088386 -0.0004855651976194289 0 0 0 0
20133492 -0.33043439161354926 0.018413836000731112 -0.0009769093160645254 -0.0005093535028811771 0 0 0 0
20166438 -0.33159720439169504 0.022102359410012665 -0.0009719018554825957 -0.00047466957011369024 0 0 0 0
20199384 -0.33138168902037957 0.02211919890928042 -0.0009836106548166074 -0.0004990661631376873 0 0 0 0
20232330 -0.3314847630600678 0.022218122351883956 -0.0009600096228503423 -0.0004961901724668243 0 0 0 0
20265276 -0.3315541257953973 0.022136547365104023 -0.0009767225115907539 -0.0004911635841588936 0 0 0 0
20298222 -0.3315108541965346 0.02221366038216439 -0.0009696979980819694 -0.0004979097202949865 0 0 0 0
20331168 -0.3313108061395503 0.022267858927553816 -0.0009859177732024758 -0.0005140818356453731 0 0 0 0
20364114 -0.33148283559020614 0.02212408874932401 -0.0009735042831340825 -0.0004906666984907225 0 0 0 0
20397060 -0.3304823191320083 0.018697805992375867 -0.000971860464138016 -0.00047491736976620756 0 0 0 0
20430006 -0.3307340972094815 0.01878327741060294 -0.0009504309216321211 -0.0004926154087049102 0 0 0 0
20462952 -0.3303984500305194 0.018632018695704876 -0.0009675343816221732 -0.00049310231101003 0 0 0 0
20495898 -0.3306033317811484 0.018704158516423444 -0.0009822233098106114 -0.00047787809601889525 0 0 0 0
20528844 -0.3305619430394795 0.01865908277798533 -0.0009783797540266793 -0.0005064448419750696 0 0 0 0
20561790 -0.330512487893994 0.018800347310926186 -0.0009656061802095897 -0.000483254815394983 0 0 0 0
20594736 -0.33085466640745037 0.01885839503987184 -0.0009560711231899629 -0.00048192495133646046 0 0 0 0
20627682 -0.3304826744020724 0.01885838594536558 -0.0009858226974001018 -0.000507356377539693 0 0 0 0
20660628 -0.33051225931348666 0.018666949145282222 -0.000987961861338007 -0.0004928939972473086 0 0 0 0
20693574 -0.33051258764156816 0.01887166603484602 -0.0009456239809272807 -0.0005261828845885225 0 0 0 0
20726520 -0.33056859713536946 0.01877281368706934 -0.0009727741017444103 -0.0005000571169465868 0 0 0 0
20759466 -0.3305257263680068 0.01869413231042284 -0.00098202024051023 -0.00048483998934509525 0 0 0 0
20792412 -0.3307155175129639 0.0189514656496689 -0.0009720542249922347 -0.0005248134414533308 0 0 0 0
20825358 -0.33077346905271976 0.01896650414883668 -0.001001262879332119 -0.0004708876115829339 0 0 0 0
20858304 -0.3306698091352131 0.018992015109320696 -0.0009568571703285387 -0.0004897876243638138 0 0 0 0
20891250 -0.330556608625866 0.019033840061003254 -0.000964274615978685 -0.0004978013044796039 0 0 0 0
20924196 -0.3305963355695672 0.018934496097473275 -0.0009701520606492361 -0.00048244899642339856 0 0 0 0
20957142 -0.3309087196676066 0.019131780478716786 -0.0009771411824371452 -0.0005247637340613545 0 0 0 0
20990088 -0.3308842191194131 0.019274349699784307 -0.0009927485887486346 -0.0004967521992853467 0 0 0 0
21023034 -0.3308160536959511 0.019190579259955473 -0.0009458801201443789 -0.0005181841939016106 0 0 0 0
21055980 -0.33068777320878673 0.01921183398688046 -0.000983261784694799 -0.0005067389712035627 0 0 0 0
21088926 -0.3306310509144576 0.01920626273576308 -0.0009727750611709501 -0.0004663007562738033 0 0 0 0
21121872 -0.3305880313753742 0.019165159521119392 -0.0009757899999988106 -0.0005010259328436592 0 0 0 0
21154818 -0.3307035174268597 0.01927033336021987 -0.0009588639304310223 -0.0005245151569520787 0 0 0 0
21187764 -0.3307072511035235 0.019298523020555892 -0.0009591675465795053 -0.00047705895837498217 0 0 0 0
21220710 -0.3308422878816864 0.019430546656665104 -0.0009895497255162714 -0.0004955309252509803 0 0 0 0
21253656 -0.33084842325211966 0.019313785342914235 -0.000983272857198979 -0.0005144603152233373 0 0 0 0
21286602 -0.3308776306749726 0.01950017411679955 -0.0010010261072851145 -0.0004791370508011795 0 0 0 0
21319548 -0.3307310315196667 0.019440880574635583 -0.0009907693986677584 -0.0005042855093849213 0 0 0 0
21352494 -0.3306768060624708 0.01946137279111987 -0.0010045733852715167 -0.0004984263308123473 0 0 0 0
21385440 -0.33074763821398795 0.01942263899500073 -0.000979659927717424 -0.0005069432045600519 0 0 0 0
21418386 -0.3309714552936696 0.019409509636775468 -0.0009818499422667541 -0.0005092820341929228 0 0 0 0
21451332 -0.3307335082145467 0.01947587745142382 -0.0009702076564186059 -0.0005014998225924153 0 0 0 0
21484278 -0.33103009685162754 0.019648031564571063 -0.0009582619851346326 -0.0005178356663742875 0 0 0 0
21517224 -0.33107995175148275 0.01971920346923129 -0.000996413984860733 -0.0005031601504169639 0 0 0 0
21550170 -0.3308789679686001 0.019590555942828804 -0.0010012328182146364 -0.0005030020264395591 0 0 0 0
21583116 -0.3308451899768046 0.01953618408521952 -0.0009760218831356483 -0.0005193538133945227 0 0 0 0
21616062 -0.33090413246416717 0.01972762904489091 -0.0009927226257791552 -0.0005213368273508297 0 0 0 0
21649008 -0.33088288511983427 0.019679108875081328 -0.0009908139724293793 -0.0005231560508492284 0 0 0 0
21681954 -0.33085066836976423 0.01978994501054616 -0.0009993259517890982 -0.0005214013436848309 0 0 0 0
21714900 -0.33096389037091895 0.01976339506372899 -0.0009682695528374194 -0.0005422373026825674 0 0 0 0
21747846 -0.3307258674543527 0.01966426515095102 -0.0009834284499739296 -0.0005038061651729507 0 0 0 0
21780792 -0.33095690679316114 0.019865593384284903 -0.0009962150344195015 -0.0005256545565437267 0 0 0 0
21813738 -0.3308686862694696 0.019842860113048262 -0.000978226741673238 -0.000519440757923294 0 0 0 0
21846684 -0.3311229686259019 0.020036804154409848 -0.000954981861599195 -0.0005047608611119338 0 0 0 0
21879630 -0.3308030783455114 0.01980831682106712 -0.000984144638338476 -0.0005190551847556369 0 0 0 0
21912576 -0.33085895483707123 0.019798163277322426 -0.000970888873996088 -0.000526965264028591 0 0 0 0
21945522 -0.33082844064762484 0.019793702329468497 -0.0010005622141386595 -0.0005587538319933512 0 0 0 0
21978468 -0.33094466949236734 0.01983042982288963 -0.0009853399062547542 -0.000541778531431781 0 0 0 0
22011414 -0.33091665915627333 0.019962444596596518 -0.0009918399975593752 -0.0005094261569510647 0 0 0 0
22044360 -0.33088529171207093 0.0200314951855197 -0.0009670204968784654 -0.000492769367420041 0 0 0 0
22077306 -0.33129737230119316 0.020143654511960637 -0.0009935785140323453 -0.0005202332457554479 0 0 0 0
22110252 -0.331048441085765 0.02005958514763988 -0.000995949530508301 -0.0005079578027376229 0 0 0 0
22143198 -0.33100710991885796 0.020242442777705812 -0.0009818731264146369 -0.0005434224059190933 0 0 0 0
22176144 -0.33108552792266377 0.020071655645538252 -0.0009836063197283436 -0.0005356467888144815 0 0 0 0
22209090 -0.3312729698447942 0.020226522559004537 -0.0010093732153835663 -0.0005342015853532869 0 0 0 0
22242036 -0.33100648442326036 0.020198200268864663 -0.0009803008613497707 -0.0005212030069884227 0 0 0 0
22274982 -0.3309210212902295 0.020042855547599683 -0.0009899569496764726 -0.0005231687108024237 0 0 0 0
22307928 -0.3310956711738092 0.020305434937253987 -0.0009914031208278812 -0.0005330215744920686 0 0 0 0
22340874 -0.33092469154401544 0.020308737357022804 -0.0009834339609847333 -0.0005261119012830706 0 0 0 0
22373820 -0.3309447788494725 0.020343410909766227 -0.0009889071023316586 -0.0005248751738910404 0 0 0 0
22406766 -0.33097428370034243 0.020422365887649983 -0.0009847633507618738 -0.0005256221597138584 0 0 0 0
22439712 -0.33107198734269777 0.02028372155831373 -0.0010043999711282408 -0.0005567367293317139 0 0 0 0
22472658 -0.33118248920466525 0.02040509840078217 -0.000988513160162021 -0.0005112144846001391 0 0 0 0
22505604 -0.3308803932682979 0.02033703878002056 -0.001012308394526608 -0.0005463427148130736 0 0 0 0
22538550 -0.33108735247235016 0.02041527473737002 -0.0010059646273762018 -0.0005010619902361654 0 0 0 0
22571496 -0.3310866426820508 0.020454748198828487 -0.000979723412275402 -0.0005096043850049479 0 0 0 0
22604442 -0.3311218759145385 0.020453804732142696 -0.0009866940772552987 -0.0005160885204017574 0 0 0 0
22637388 -0.33102945176770426 0.02053798492654088 -0.0009801025615505624 -0.000523938464560169 0 0 0 0
22670334 -0.3314069365082633 0.020607230227088196 -0.001000459573627034 -0.000544127159364875 0 0 0 0
22703280 -0.33115584776559703 0.02052138110449627 -0.0010130527734946023 -0.0005329086515459364 0 0 0 0
22736226 -0.331181088448791 0.020681440233920118 -0.0010032580012424531 -0.0005358516503796784 0 0 0 0
22769172 -0.33105645928537303 0.020579407920512677 -0.0010069557525966852 -0.0005073214526572731 0 0 0 0
22802118 -0.33118966736996625 0.020688160710840973 -0.0010045743687892338 -0.0005418929963844105 0 0 0 0
22835064 -0.33150023462295575 0.020794384846082 -0.0009863553213447331 -0.0005458581242493645 0 0 0 0
22868010 -0.33104174578367646 0.020779871095669925 -0.0009990048102368773 -0.0005528091686082276 0 0 0 0
22900956 -0.331144920852935 0.020665647290817588 -0.0010271501078436803 -0.0005432629095105846 0 0 0 0
22933902 -0.33106274786855583 0.020742500468363637 -0.0010001215701663706 -0.0004963281852053362 0 0 0 0
22966848 -0.33120624276449717 0.020909920375582425 -0.0009732954211444701 -0.0005154435124999231 0 0 0 0
22999794 -0.33116868327480886 0.020855522641392184 -0.001021395488301347 -0.0005368966548456027 0 0 0 0
23032740 -0.33155496735679796 0.021041429520756678 -0.0010037909673616709 -0.0005410758897525138 0 0 0 0
23065686 -0.3311779984843452 0.020938750783360265 -0.0009814218109828248 -0.0005283510005331457 0 0 0 0
23098632 -0.33129702137782696 0.02091973072244034 -0.0010103391743253743 -0.0005421809599503592 0 0 0 0
23131578 -0.33128392705627796 0.020970212450372908 -0.000987379910322965 -0.0005420393736395942 0 0 0 0
23164524 -0.33120836753248034 0.020876395969777334 -0.0010010801862111497 -0.0005192542250781932 0 0 0 0
23197470 -0.3312054377796846 0.02095410397818722 -0.0010013255231336555 -0.0005269674550589751 0 0 0 0
23230416 -0.3312668143662709 0.02109768625794747 -0.0010295889006650943 -0.000551051374496156 0 0 0 0
23263362 -0.3313126077869516 0.021079546770796875 -0.0010094369120913203 -0.000571209042486634 0 0 0 0
23296308 -0.3313752902129216 0.021294185249859408 -0.0010110138027297144 -0.000528331523208647 0 0 0 0
23329254 -0.33127814132278716 0.021129693473057067 -0.001047405548658354 -0.000549219124797111 0 0 0 0
23362200 -0.33137839133519004 0.021203928059366623 -0.001025832846737618 -0.00052071551690004 0 0 0 0
23395146 -0.33109881855154977 0.021134781018806694 -0.0010102395320556344 -0.0005374166582909311 0 0 0 0
23428092 -0.331295665423506 0.021202079091043182 -0.0010097891175257293 -0.0005534862223128195 0 0 0 0
23461038 -0.33157294968066886 0.021355092423854166 -0.0009604977416370751 -0.0005438598175734872 0 0 0 0
23493984 -0.33150502315406344 0.021332655461281894 -0.0009924127815584113 -0.0005563257038957896 0 0 0 0
23526930 -0.33134433850123735 0.021384737731958047 -0.0010354659276512464 -0.0005392951105945251 0 0 0 0
23559876 -0.33121405093115847 0.021314907615239315 -0.0010088375246643706 -0.0005298590631708674 0 0 0 0
23592822 -0.3316480007363984 0.021421635366537194 -0.0010208914842720267 -0.000547658788661007 0 0 0 0
23625768 -0.33138487172649944 0.021355357633093507 -0.0010057461669539282 -0.0005433528276459449 0 0 0 0
23658714 -0.33158209715404563 0.021390082706267414 -0.0010093712448129327 -0.0005371642265945591 0 0 0 0
23691660 -0.3315779370734674 0.021526453883732633 -0.001023727425420618 -0.0005554635725007703 0 0 0 0
23724606 -0.3313443204641074 0.02131323754076745 -0.0010024261183180525 -0.0005458367455649778 0 0 0 0
23757552 -0.3315439053126329 0.021581324906570786 -0.0010186293457249418 -0.0005565339307028042 0 0 0 0
23790498 -0.331521533784834 0.02168105851446847 -0.001013163517537609 -0.0005685218801236669 0 0 0 0
23823444 -0.3316405567853154 0.021629608835207693 -0.0010206024072366838 -0.0005346023315710216 0 0 0 0
23856390 -0.3313820028427429 0.021596189714195895 -0.0009918419870278388 -0.0005399928595091959 0 0 0 0
23889336 -0.3313373449892011 0.02149530905530521 -0.001009657793640974 -0.0005573661804706047 0 0 0 0
23922282 -0.33160718084036817 0.021724961720090086 -0.0009922001522737584 -0.0005643869008208309 0 0 0 0
23955228 -0.33134212154178133 0.021749751954104165 -0.001014032549817879 -0.000556359845665614 0 0 0 0
23988174 -0.33145804998000467 0.021791911913924523 -0.0010332669356756298 -0.0005457802377161158 0 0 0 0
24021120 -0.3315428532023889 0.02178717131440768 -0.0010084981070416683 -0.0005962100821471228 0 0 0 0
24054066 -0.33166927070044566 0.021768172823154852 -0.0010038511328293335 -0.0005655398279767133 0 0 0 0
24087012 -0.33154328121563276 0.02172130792213936 -0.0010314046933345147 -0.0005307918488902195 0 0 0 0
24119958 -0.33157013003893576 0.022006875741097987 -0.0010126720856869673 -0.0005678219257709302 0 0 0 0
24152904 -0.331800926068479 0.02197431188043575 -0.0010082824453720872 -0.0005569919952612692 0 0 0 0
24185850 -0.33162962798752826 0.02192535430419308 -0.00104392957056301 -0.0005529274339354794 0 0 0 0
24218796 -0.33160991892977015 0.021869353771700444 -0.001005173529651702 -0.0005576558946764779 0 0 0 0
24251742 -0.3315506792547725 0.02174682508075744 -0.0009926040949364786 -0.0005748872762046924 0 0 0 0
24284688 -0.33164777962120934 0.022098313247519107 -0.001019517144568111 -0.0005732491022997094 0 0 0 0
24317634 -0.33181165706900156 0.022082936020188765 -0.001014674546833902 -0.0005941779873485001 0 0 0 0
24350580 -0.3316594518234304 0.022130101208036383 -0.0009961855342601298 -0.0005381532787608794 0 0 0 0
24383526 -0.3317443761184728 0.02199465637090249 -0.0010304317318462727 -0.000573381708013259 0 0 0 0
24416472 -0.3317194284575393 0.022067447864026517 -0.0010209293063075642 -0.0005548946389253376 0 0 0 0
24449418 -0.3316387866286342 0.022062723107379893 -0.0010023539520608831 -0.0005400210770687496 0 0 0 0
24482364 -0.33155675869534984 0.022361152777918784 -0.0010148262331460642 -0.0005827498995786264 0 0 0 0
24515310 -0.33163280722631533 0.022233042778930286 -0.0010220152727446782 -0.0005522905974038391 0 0 0 0
24548256 -0.33184032126963986 0.02224755551220645 -0.001012677636382408 -0.0005691178753734771 0 0 0 0
24581202 -0.33173261516243907 0.022149233581825897 -0.0010262507688831312 -0.0005459731554615853 0 0 0 0
24614148 -0.3315262350879634 0.02208153093445848 -0.0010472201814675612 -0.0005577253990200996 0 0 0 0
24647094 -0.3316996148196845 0.022336098089204323 -0.0010112543106451917 -0.0005497672593869741 0 0 0 0
24680040 -0.33169464466852605 0.02241674359142452 -0.0010574249101395307 -0.0005809692072902987 0 0 0 0
24712986 -0.3317383956459383 0.02245221683459032 -0.001025353547949292 -0.0005502794444899259 0 0 0 0
24745932 -0.3315913747776029 0.022382720522571373 -0.001030655062203153 -0.0005588260490632997 0 0 0 0
24778878 -0.3318102147117072 0.022509164065034826 -0.0010091588041177798 -0.0005627192605301796 0 0 0 0
24811824 -0.3318305923371285 0.022286982205779834 -0.001014090572680083 -0.0005770640264816921 0 0 0 0
24844770 -0.33179676637150934 0.022484042373517442 -0.001009205207811102 -0.0005691023970519145 0 0 0 0
24877716 -0.33179299739309664 0.022435844086347405 -0.001028355979046827 -0.0005813075385784456 0 0 0 0
24910662 -0.3318104105589481 0.022725095553717812 -0.0010275297178120436 -0.0005482259273367977 0 0 0 0
24943608 -0.33194367126673374 0.022762338499221952 -0.001013137723615409 -0.0005713597241168111 0 0 0 0
24976554 -0.3318754946509903 0.022581707604302757 -0.0010245697866912485 -0.0005601830516882238 0 0 0 0
25009500 -0.33179213462183677 0.02255895077270297 -0.0010482080425426518 -0.0005516433168369767 0 0 0 0
25042446 -0.3320053962714606 0.02280686776587255 -0.0010342160705384003 -0.0005740366489463097 0 0 0 0
25075392 -0.33195681298569996 0.022601801776601656 -0.001004203976946776 -0.0005618447255543593 0 0 0 0
25108338 -0.33178761476429264 0.022706576018658515 -0.0010075176274036617 -0.0005873298431170775 0 0 0 0
25141284 -0.33193301451391577 0.02297790670915077 -0.0010287232012297228 -0.0005442820641440847 0 0 0 0
25174230 -0.3319749396725725 0.02282072830002434 -0.0010393110292767464 -0.0005800378864808051 0 0 0 0
25207176 -0.3319190377790529 0.02280282765857532 -0.001029960663129618 -0.000575625635902978 0 0 0 0
25240122 -0.33184255230670384 0.022823864306120916 -0.0010433652483720997 -0.0005635272454778148 0 0 0 0
25273068 -0.33187071325882156 0.022833874351603764 -0.0010267358142056165 -0.0005925052025268729 0 0 0 0
25306014 -0.3319260078359494 0.022831841942436613 -0.0010839749718647396 -0.0005798902642459889 0 0 0 0
25338960 -0.3319225283545555 0.022974632972712374 -0.001030600168909847 -0.0005534638992098261 0 0 0 0
25371906 -0.33203350154178396 0.022997878722504667 -0.0010450421925151223 -0.0005896136579761316 0 0 0 0
25404852 -0.3320701204494118 0.023064390597428572 -0.001024577093935066 -0.000578010100114478 0 0 0 0
25437798 -0.331900891449485 0.02284683571464286 -0.00102180169102637 -0.0006104897822539037 0 0 0 0
25470744 -0.3319599890806207 0.022975933653968227 -0.001031357211384705 -0.0005996730619291319 0 0 0 0
25503690 -0.3320508443290583 0.02320645331286784 -0.001044812486706022 -0.0005447777636522353 0 0 0 0
25536636 -0.33219208991873694 0.023144258381199455 -0.001028613858858643 -0.0005785486328900877 0 0 0 0
25569582 -0.33223228039987207 0.023185426087673766 -0.0010325859844614862 -0.0005741595895358072 0 0 0 0
25602528 -0.3321990996091037 0.02312882175258783 -0.0010585402817718391 -0.0005615158906335262 0 0 0 0
25635474 -0.33219310327518153 0.023197991549170113 -0.001025102398710897 -0.0005896067571842747 0 0 0 0
25668420 -0.3321891995605664 0.02318013759487771 -0.0010236425433791728 -0.0005890712259767095 0 0 0 0
25701366 -0.3321243294281227 0.023271791121480125 -0.001026086929406422 -0.0005851845070622273 0 0 0 0
25734312 -0.33202140292808424 0.02339120177694583 -0.0010206720203162682 -0.0005782228129810462 0 0 0 0
25767258 -0.33216231650093336 0.02333011569022173 -0.0010161843327283404 -0.0005651833427211189 0 0 0 0
25800204 -0.3321195205175789 0.02330241668458443 -0.001025692894986787 -0.000579465252204854 0 0 0 0
25833150 -0.3320904595205387 0.02331051792621143 -0.0010422651972225837 -0.0005859041943371621 0 0 0 0
25866096 -0.3321823809341753 0.023309993635764092 -0.0010317060302091835 -0.000582089636750647 0 0 0 0
25899042 -0.3322061244384685 0.023531374783382943 -0.001039449860445862 -0.000603038116900152 0 0 0 0
25931988 -0.33236574685842346 0.023616361093135658 -0.0010538443658666442 -0.0006034936120423174 0 0 0 0
25964934 -0.33226907009063944 0.02352130519211756 -0.0010543107533172663 -0.0005768094107399133 0 0 0 0
25997880 -0.3322926335024579 0.023682436110461332 -0.0010142865339795653 -0.0005911842196910175 0 0 0 0
26030826 -0.33234728739131025 0.02364364887872268 -0.0010594122239487218 -0.0006002655336386529 0 0 0 0
26063772 -0.33231800191028915 0.023603123738606263 -0.0010795315707360267 -0.0006113710899991423 0 0 0 0
26096718 -0.33221904970104194 0.02358888265624376 -0.0010526974749517743 -0.0005719601340889059 0 0 0 0
26129664 -0.33219605886617437 0.02362532800031462 -0.0010587357893166258 -0.0006028649606862962 0 0 0 0
26162610 -0.33220930626297784 0.023690410790018372 -0.0010391501612897233 -0.0005898284702186469 0 0 0 0
26195556 -0.3322956489271871 0.023791470187747472 -0.001032519679727481 -0.000610925226400425 0 0 0 0
26228502 -0.33240354946543915 0.02384629428994776 -0.0010661723169126613 -0.0005974916413653022 0 0 0 0
26261448 -0.33233689062598015 0.02396574956178101 -0.0010590277392187818 -0.0005879708956258658 0 0 0 0
26294394 -0.33231942929119324 0.023878325739963874 -0.0010489335203272348 -0.0006075119314724987 0 0 0 0
26327340 -0.3324317717323427 0.023849622882049025 -0.0010580060993779226 -0.0006073448678762533 0 0 0 0
26360286 -0.3324148633080689 0.02368169989644648 -0.001054589870503332 -0.0005970829199935582 0 0 0 0
26393232 -0.3321232973786472 0.02382765269192723 -0.0010388408002711682 -0.000592026545133624 0 0 0 0
26426178 -0.332300176747182 0.024003798484300214 -0.0010578453460374194 -0.0005844044714916355 0 0 0 0
26459124 -0.3324830029263415 0.023978409098943946 -0.0010602330216110231 -0.0005867569901023711 0 0 0 0
26492070 -0.33234615617258206 0.023994824337256207 -0.0010465940994529165 -0.0005896313606865509 0 0 0 0
26525016 -0.33234838744410145 0.02406334818739045 -0.0010779713482141633 -0.0005886139306988982 0 0 0 0
26557962 -0.3323187994285859 0.02415314942307044 -0.0010452563166220591 -0.0005952455322837973 0 0 0 0
26590908 -0.33263588182078235 0.024001184116462796 -0.001060070337320397 -0.0006320480367050536 0 0 0 0
26623854 -0.3322648027036048 0.023981829286523895 -0.001052289775805515 -0.0005995147668883306 0 0 0 0
26656800 -0.33254767555752707 0.024097636329848057 -0.0010567502799267645 -0.0006010633091025879 0 0 0 0
26689746 -0.332511836928295 0.02412926053456313 -0.001051601543556759 -0.0006020539147196745 0 0 0 0
26722692 -0.3325443094812386 0.024436244506295467 -0.0010301120144841022 -0.0006206115498259902 0 0 0 0
26755638 -0.33240811213577554 0.024317136207006297 -0.0010794108649921099 -0.0006050684188548454 0 0 0 0
26788584 -0.33262939607106246 0.024284199457940095 -0.001073809984478148 -0.0006011766342984027 0 0 0 0
26821530 -0.332471738121015 0.024341126431057285 -0.0010414340908883447 -0.0006139495498999621 0 0 0 0
26854476 -0.33240005756764424 0.024357065005122986 -0.001059100458355548 -0.000595917671002471 0 0 0 0
26887422 -0.3326190296269245 0.024367140191438402 -0.0011011436418831124 -0.0005881688478271909 0 0 0 0
26920368 -0.3324736054802848 0.024447544245983235 -0.001055006777428258 -0.0006019859169100901 0 0 0 0
26953314 -0.33265395603638476 0.024620906163867456 -0.0010646256868448397 -0.0006164301565292809 0 0 0 0
26986260 -0.33265480407382 0.024352638387404132 -0.001065037347125975 -0.000600276498941142 0 0 0 0
27019206 -0.33259681299955507 0.024585455806198062 -0.001069344952527001 -0.0006013392553449407 0 0 0 0
27052152 -0.3327493710582756 0.024567976970540896 -0.0010606332012645118 -0.0006102450641699189 0 0 0 0
27085098 -0.33251568101715184 0.02463916507900702 -0.0010604860701354537 -0.0006095954152819172 0 0 0 0
27118044 -0.3326341496264494 0.024643398993047697 -0.001056258105263816 -0.000606977232060705 0 0 0 0
27150990 -0.3327778793275791 0.024764358154131586 -0.001070863858660855 -0.0005884306015171999 0 0 0 0
27183936 -0.3326478247446886 0.024655122489847726 -0.0010541112536986915 -0.0005832423184917068 0 0 0 0
27216882 -0.33270863251255167 0.024728705516133213 -0.0010686271053417847 -0.0005830768154431049 0 0 0 0
27249828 -0.3328085667057164 0.024595544697949952 -0.0010653207071566516 -0.0006050267189097305 0 0 0 0
27282774 -0.3327256049015063 0.024693756542662978 -0.0010978770822138268 -0.0005994643619448813 0 0 0 0
27315720 -0.3325799918736163 0.02478567590451508 -0.0010720614174226219 -0.0006111568199118546 0 0 0 0
27348666 -0.33256457986035415 0.0249298155364421 -0.0010676977080943911 -0.0006077707749668383 0 0 0 0
27381612 -0.33283969806157615 0.024718831264248866 -0.001057513115409417 -0.0006048967948493969 0 0 0 0
27414558 -0.33283624374018905 0.02507717824710671 -0.0010679697898801645 -0.000622393003973437 0 0 0 0
27447504 -0.3327806206326043 0.024739685328621364 -0.0010744489136475014 -0.0006051353463167996 0 0 0 0
27480450 -0.33286993106915114 0.02490936196385281 -0.0010857769428277955 -0.0006116584716526569 0 0 0 0
27513396 -0.33274550409492953 0.025004754592209192 -0.001066131894957655 -0.0005970889099277934 0 0 0 0
27546342 -0.3329002962471737 0.025117735994813314 -0.0010562517772857685 -0.0006111718647459687 0 0 0 0
27579288 -0.33290246606068663 0.02514940402064198 -0.0010813301715306082 -0.0006183046514691713 0 0 0 0
27612234 -0.33291949466756293 0.024959495885140945 -0.001060684308496286 -0.0006016840013948398 0 0 0 0
27645180 -0.3327805917496116 0.02501801378061541 -0.001056371438110254 -0.0006016343252505836 0 0 0 0
27678126 -0.3330214024857584 0.02522685244148866 -0.0010599754360478481 -0.0005988079384021482 0 0 0 0
27711072 -0.3328918086065211 0.025076028531863147 -0.0010850658164549293 -0.0005963986867863529 0 0 0 0
27744018 -0.33270354832010735 0.025185741782031902 -0.0010733629168411998 -0.0005949872126870804 0 0 0 0
27776964 -0.33297081514613003 0.025149527076967278 -0.0010697616888243845 -0.0006135873706558968 0 0 0 0
27809910 -0.33303862389676386 0.025274066992547146 -0.00107709058316165 -0.0006321045989388637 0 0 0 0
27842856 -0.3328039578214817 0.025304900161809564 -0.0010617485215810736 -0.0006133251712993542 0 0 0 0
27875802 -0.3331206811680179 0.02516871483191687 -0.0010992600126791163 -0.0006337442533310614 0 0 0 0
27908748 -0.33306949909193295 0.025165732358527416 -0.001088915041044233 -0.0006086063652283206 0 0 0 0
27941694 -0.33303900410450227 0.025418958169786118 -0.0010545721992069566 -0.0006022960692324674 0 0 0 0
27974640 -0.3331980343288658 0.025617035539779225 -0.0010838894132897752 -0.0006336087459315911 0 0 0 0
28007586 -0.33299477359081736 0.02544767109832602 -0.001066903805372619 -0.0006177182132729508 0 0 0 0
28040532 -0.3331049265190985 0.025639898827508695 -0.001086741497749734 -0.0006294078962095721 0 0 0 0
28073478 -0.33307412538993475 0.025455640931032246 -0.0010653265126090345 -0.000638425547566918 0 0 0 0
28106424 -0.3328036665756527 0.025473804105586598 -0.0010608043307846497 -0.000634412437919727 0 0 0 0
28139370 -0.33305794639353303 0.025725040879480576 -0.0010781768815068817 -0.0006063768175967251 0 0 0 0
28172316 -0.33300415801928135 0.025493346193610246 -0.0010896006448620145 -0.0006416031658563765 0 0 0 0
28205262 -0.3330612846169689 0.025720602752959038 -0.0010768445646059635 -0.000603948038799013 0 0 0 0
28238208 -0.33331544985490685 0.02594281260809821 -0.0010864731965629121 -0.0006465632180360269 0 0 0 0
28271154 -0.33328446674967954 0.02564760576667823 -0.0010979224023323364 -0.0006483116003719022 0 0 0 0
28304100 -0.3331632347393069 0.025771721874703127 -0.0010789857303635886 -0.0005995726100509955 0 0 0 0
28337046 -0.33329440088403445 0.025959460897463194 -0.0010960898933047574 -0.000643986464796918 0 0 0 0
28369992 -0.33324661225261853 0.025905552399925903 -0.0010830158986545246 -0.0006249434343922006 0 0 0 0
28402938 -0.33313841827695906 0.025758167384481168 -0.0011108618092350684 -0.0006305863167481734 0 0 0 0
28435884 -0.33319362987513973 0.025842303640899688 -0.0010958991146983565 -0.0006243255021822035 0 0 0 0
28468830 -0.33317908156319126 0.026045210904039218 -0.0010931692691756435 -0.0006291357405243185 0 0 0 0
28501776 -0.33340184070911033 0.02576615979640293 -0.0010714668861166985 -0.0006548712561485375 0 0 0 0
28534722 -0.33323346677678206 0.025982127902590087 -0.0010463227993690915 -0.0005955600413501044 0 0 0 0
28567668 -0.3334976605162959 0.026095056833807154 -0.00109534812742756 -0.0006335147716909427 0 0 0 0
28600614 -0.33336173754766907 0.02623269529841017 -0.001075095271320501 -0.0006297460208207781 0 0 0 0
28633560 -0.33330525552482 0.02591222747103024 -0.0010681622019085926 -0.0006208013771868611 0 0 0 0
28666506 -0.33312838571798276 0.02606501026138155 -0.0010805090836587049 -0.0006335084618850639 0 0 0 0
28699452 -0.33333422253421835 0.02607820256505003 -0.0010969144002298604 -0.0006288314605867873 0 0 0 0
28732398 -0.33342292614839414 0.026283708027791085 -0.0011114832788468045 -0.0006072102704084127 0 0 0 0
28765344 -0.3334158002030599 0.02597468620543938 -0.001077097334374036 -0.0006412891468335093 0 0 0 0
28798290 -0.33364150642819856 0.026233207821374532 -0.0011088408060027013 -0.0006298894768424584 0 0 0 0
28831236 -0.3334138151325339 0.026180476709490003 -0.0011036174981214231 -0.0006407807522847227 0 0 0 0
28864182 -0.3334581199054291 0.026399921817773193 -0.0011237424851324748 -0.0006094852295435795 0 0 0 0
28897128 -0.33317148185111845 0.026047904304421325 -0.0010815186529703293 -0.0006305565805160388 0 0 0 0
28930074 -0.3333779296769537 0.026315605752570706 -0.001101905470902477 -0.0006619051535586254 0 0 0 0
28963020 -0.33353792474101013 0.026464300154173333 -0.0011090230395700452 -0.0006357569785870299 0 0 0 0
28995966 -0.33342077049624785 0.026459205119686243 -0.0011093803306747086 -0.0006693903761250506 0 0 0 0
29028912 -0.3333666353905661 0.0265413655633671 -0.0010957571492691998 -0.0006403828184901019 0 0 0 0
29061858 -0.3336057560272798 0.026325485500457883 -0.0011032065215801422 -0.0006543843914223487 0 0 0 0
29094804 -0.3336094994896277 0.02656704711903812 -0.0010665776829861283 -0.0006368413705437114 0 0 0 0
29127750 -0.3331432875887115 0.026469464559517836 -0.0010948270691647861 -0.000623564107742435 0 0 0 0
29160696 -0.3335753848672679 0.026556890852144573 -0.001110833385222222 -0.0006319750114337709 0 0 0 0
29193642 -0.33366606638160434 0.026835275300362917 -0.0010758538597969599 -0.0006620419148140489 0 0 0 0
29226588 -0.3337451612080609 0.026580694724868258 -0.0011210429361519397 -0.0006480860251847189 0 0 0 0
29259534 -0.3335650886951133 0.026622241758286525 -0.0010973018138157413 -0.000623773758551063 0 0 0 0
29292480 -0.3336039437542457 0.026706312283200674 -0.0011208316934686006 -0.0006344218252536546 0 0 0 0
29325426 -0.3335714833293972 0.026565931806841695 -0.0011019078599353205 -0.0006469696650308548 0 0 0 0
29358372 -0.33368698995295515 0.026909132074061707 -0.001100479397852078 -0.0006520430741759593 0 0 0 0
29391318 -0.3334502825239455 0.02660735053542178 -0.0011256736750226443 -0.0006411296263321445 0 0 0 0
29424264 -0.33384075818635117 0.0267307514879519 -0.001096311727480304 -0.0006406229562571306 0 0 0 0
29457210 -0.3337726725317245 0.026807151596785934 -0.001106266224669673 -0.000672890948620645 0 0 0 0
29490156 -0.3335739713930007 0.027074733146131402 -0.001102721856935492 -0.0006430282268922252 0 0 0 0
29523102 -0.33369055306426215 0.02703659317259992 -0.0011270578374980903 -0.0006480715453181592 0 0 0 0
29556048 -0.33382714352739323 0.026861007473733926 -0.0010738672745669645 -0.0006568344916757438 0 0 0 0
29588994 -0.33371589228871146 0.027086258003003308 -0.00112359859065262 -0.0006498335144181005 0 0 0 0
29621940 -0.3337754779280091 0.027041467616516563 -0.0011297047763138288 -0.0006437441497272696 0 0 0 0
29654886 -0.3337507438517936 0.02704517021526669 -0.0011042596506553285 -0.000654195060661105 0 0 0 0
29687832 -0.33380392352257166 0.027362923172725095 -0.001085357085432251 -0.0006452175144627931 0 0 0 0
29720778 -0.3338183335188606 0.027394631159552825 -0.0011118594974772894 -0.0006745920942706012 0 0 0 0
29753724 -0.33373689208716695 0.02739130375824273 -0.0011125720203747508 -0.0006474161584756431 0 0 0 0
29786670 -0.3337949626027922 0.027197659676999626 -0.0011039593494811854 -0.0006423721813765562 0 0 0 0
29819616 -0.3339525246772647 0.027418794691948606 -0.0011208631024261422 -0.000633729896005615 0 0 0 0
29852562 -0.3338295436502357 0.027171463014322748 -0.0011215819198229437 -0.0006479985505962345 0 0 0 0
29885508 -0.3337163105721949 0.027142170202103286 -0.0011096286051780857 -0.00064355205935187 0 0 0 0
29918454 -0.3337430840580753 0.02720284390861613 -0.001130104396997316 -0.0006729317187993912 0 0 0 0
29951400 -0.3338669740550047 0.0273148154232177 -0.0011206903198269242 -0.0006551218057764898 0 0 0 0
29984346 -0.33395409273926246 0.02761431108963261 -0.0010998957855732443 -0.0006495718299262933 0 0 0 0
30017292 -0.33374661940159844 0.027225448304130862 -0.0011075566906669978 -0.0006581323906913709 0 0 0 0
30050238 -0.33388229570674427 0.027245155828579542 -0.0011416788822951759 -0.000637887731602735 0 0 0 0
30083184 -0.3341508592415448 0.027316509411246175 -0.0011213335556428167 -0.0006526080133011098 0 0 0 0
30116130 -0.33409018022676495 0.027394185578409037 -0.0011198755548876295 -0.0006381237043138727 0 0 0 0
30149076 -0.3340423104159865 0.02748227841518367 -0.0011063492297456196 -0.000652485577640204 0 0 0 0
30182022 -0.3340557698860566 0.02776220973165772 -0.001109371304774474 -0.0006501807342516724 0 0 0 0
30214968 -0.33427218861724756 0.027857860074327535 -0.0011623124184121393 -0.0006403576654119151 0 0 0 0
30247914 -0.3340080385333252 0.027595444044587254 -0.0011286994540057268 -0.0006817078748598547 0 0 0 0
30280860 -0.3342684915991469 0.027691531868254727 -0.001103826804340426 -0.0007005809028686278 0 0 0 0
30313806 -0.3339936109048402 0.027716078766913666 -0.001102059527903439 -0.0006600827997551804 0 0 0 0
30346752 -0.3338414895019663 0.02776337003352833 -0.0011087974247934406 -0.0006515987021386702 0 0 0 0
30379698 -0.33419305519819315 0.027938198694837973 -0.0011008113176542986 -0.0006615838169985978 0 0 0 0
30412644 -0.33403878544552523 0.02761381562002031 -0.0011239348900385206 -0.0006765949660917834 0 0 0 0
30445590 -0.3342465904073538 0.028131240504971268 -0.0011483614483837157 -0.0006616839512003968 0 0 0 0
30478536 -0.33398114527127243 0.027723341060017823 -0.001111698264997399 -0.0006909115087901537 0 0 0 0
30511482 -0.33433404245291404 0.027841576451488336 -0.0011185316975198842 -0.0006577248902983202 0 0 0 0
30544428 -0.3339818982410418 0.0278666454209371 -0.0011244165072603837 -0.0006938404175967035 0 0 0 0
30577374 -0.3341067188494966 0.0279850651883771 -0.0011407129110925101 -0.0006588489148020852 0 0 0 0
30610320 -0.33446234558001886 0.028247509962892978 -0.0011391497675898121 -0.000676848225167016 0 0 0 0
30643266 -0.3342286245758609 0.028060355978067986 -0.0011253455685724426 -0.0006773126233989082 0 0 0 0
30676212 -0.33406561377458893 0.02785501079235794 -0.0011136449264640444 -0.0006718880609822838 0 0 0 0
30709158 -0.3343690309177119 0.0284140574270839 -0.0011074270144041728 -0.0006624504997159122 0 0 0 0
30742104 -0.33419463498669877 0.027838118264494675 -0.0011058529069134081 -0.0006659592783310613 0 0 0 0
30775050 -0.334442279528318 0.028045452197472575 -0.0011156138257201105 -0.0006694437482642205 0 0 0 0
30807996 -0.3343760816706554 0.028190201729981785 -0.0011469316567852504 -0.0006542638217705669 0 0 0 0
30840942 -0.3340724772824648 0.028284749245630424 -0.001112649390779702 -0.0006949175219602418 0 0 0 0
30873888 -0.33414863844671344 0.02831037462209202 -0.001160292034072939 -0.000700019074319537 0 0 0 0
30906834 -0.3343936602726685 0.028386413730534202 -0.0011254380395282879 -0.0006519677280570692 0 0 0 0
30939780 -0.33429232615296856 0.02808519379172227 -0.001108854022033613 -0.0006793661053998308 0 0 0 0
30972726 -0.3345587275734053 0.028353938678305966 -0.0011429437456360646 -0.0006700234329413554 0 0 0 0
31005672 -0.3339804423752099 0.02844318473256782 -0.0011553818602065345 -0.0006851167431931307 0 0 0 0
31038618 -0.3346384676296145 0.028637311233973686 -0.0011470377132280067 -0.0006530802537745974 0 0 0 0
31071564 -0.33451903927954946 0.028710711981346716 -0.0011504525128339914 -0.0007047377088845174 0 0 0 0
31104510 -0.33439814518367045 0.028505515161361867 -0.0011321999730610937 -0.0006708999800065855 0 0 0 0
31137456 -0.3346071364735777 0.028506664283600307 -0.0011461853296053366 -0.0006491127715017911 0 0 0 0
31170402 -0.33445937756753064 0.02872594221486436 -0.0011405375445930376 -0.0006888095685453982 0 0 0 0
31203348 -0.33442314266462303 0.028624673456062535 -0.0011325266285779436 -0.0006721562378112437 0 0 0 0
31236294 -0.33462306790241686 0.028647346244759234 -0.0011665185320270488 -0.0006816509450529023 0 0 0 0
31269240 -0.33461862290836264 0.02856783261010126 -0.0010974984784400507 -0.0006853292428113659 0 0 0 0
31302186 -0.3343579404077151 0.0288208885263987 -0.0011461689735588485 -0.0006819863944886635 0 0 0 0
31335132 -0.3343898908656406 0.028800230253692882 -0.0011436514317509734 -0.000686990698002403 0 0 0 0
31368078 -0.3347001389631083 0.028607587528897343 -0.0011436042148532458 -0.0006398665311082961 0 0 0 0
31401024 -0.3347207944651919 0.028596444459098896 -0.0011213697677244408 -0.0006729121739259702 0 0 0 0
31433970 -0.334521415967086 0.028963722818070345 -0.001191149515345153 -0.0006938707104643247 0 0 0 0
31466916 -0.33455190565352955 0.02875653972910243 -0.0011817660291536156 -0.0007149689554630115 0 0 0 0
31499862 -0.33472627389496246 0.028839125923892085 -0.0010786190584044046 -0.0007313033408142274 0 0 0 0
31532808 -0.33492578259552164 0.028752933114292122 -0.0011691339555861815 -0.0007153554999545101 0 0 0 0
31565754 -0.3344592173274318 0.029030605864591764 -0.0011105434996986749 -0.0006947618383474429 0 0 0 0
31598700 -0.33459082289340625 0.029026889126345257 -0.0011263582097199968 -0.0006917493150875378 0 0 0 0
31631646 -0.3347018936851247 0.02937629180535544 -0.0011754609481035598 -0.0007007465940843604 0 0 0 0
31664592 -0.3346722881879839 0.029249167356431585 -0.0010934579585137533 -0.0006484671138247928 0 0 0 0
31697538 -0.33475204226940536 0.029002657307635862 -0.001085274467322446 -0.0007413548874649962 0 0 0 0
31730484 -0.3346570416417818 0.029326401464729 -0.00119940194215194 -0.0006746018237775102 0 0 0 0
31763430 -0.3348223309673658 0.02901931857239157 -0.0011096303933919496 -0.0006103867275415138 0 0 0 0
31796376 -0.3348116654376232 0.029423877232566807 -0.0011482765105763437 -0.0007137001128950873 0 0 0 0
31829322 -0.33490104034503504 0.029061833196225302 -0.0012134926459885264 -0.0007044046866891861 0 0 0 0
31862268 -0.3346616780359381 0.029241055516775066 -0.0011507104338562865 -0.0006716116536136803 0 0 0 0
31895214 -0.3350074072147483 0.029382735065212155 -0.0011891688253440132 -0.0006837028179220273 0 0 0 0
31928160 -0.3349262007188801 0.02930171211643161 -0.0011669257412974384 -0.0006633987617235558 0 0 0 0
31961106 -0.33484379323171937 0.029368304260769796 -0.00115549682497717 -0.0007112653060710626 0 0 0 0
31994052 -0.3349339524403749 0.029364564910657903 -0.0011321080899233474 -0.0006819090499427538 0 0 0 0
32026998 -0.3349297872977783 0.029571053989344207 -0.0011656850016489567 -0.000698032173356933 0 0 0 0
32059944 -0.33494019363362104 0.029401708454902177 -0.0011409513210558788 -0.0006734113812390847 0 0 0 0
32092890 -0.335160678067966 0.029481391424736787 -0.0011627930947461027 -0.000678041709934758 0 0 0 0
32125836 -0.33499929917547294 0.029700904929639418 -0.001166251765762368 -0.0007021456117111243 0 0 0 0
32158782 -0.3350790094403897 0.029747833547980333 -0.0011682178639883499 -0.0006968698036315219 0 0 0 0
32191728 -0.3349483591226468 0.029810846318131107 -0.0011860621558985119 -0.0006844926983630787 0 0 0 0
32224674 -0.3349054112282916 0.029651611885100005 -0.0011386717493220646 -0.0006910013813067502 0 0 0 0
32257620 -0.33488207594749825 0.02972326251559178 -0.0011567271615835497 -0.0007074257430711115 0 0 0 0
32290566 -0.3350622949361573 0.029664899808712904 -0.001181502221572382 -0.0006994923429719421 0 0 0 0
32323512 -0.33481391189814197 0.029721347869927923 -0.0011785751303440392 -0.0007153263742827477 0 0 0 0
32356458 -0.3350577706789124 0.029690714815732346 -0.0011530531284037393 -0.00069206195446987 0 0 0 0
32389404 -0.3349372434321486 0.02999829304956808 -0.0011718307902876372 -0.0006929831674107104 0 0 0 0
32422350 -0.33501556990082515 0.029839195596155946 -0.0011508789940689907 -0.0007117143443978119 0 0 0 0
32455296 -0.3351694633974414 0.029957665148548286 -0.0011667940350730223 -0.0006697460070577203 0 0 0 0
32488242 -0.3353360211096327 0.029940813083792372 -0.0011383992874274447 -0.0007039355954400724 0 0 0 0
32521188 -0.3351374134504405 0.030150214626667123 -0.0011555522144117505 -0.0006874331842384041 0 0 0 0
32554134 -0.3351882991995327 0.029864006092821017 -0.0011517512149187604 -0.0006915757910077214 0 0 0 0
32587080 -0.33530835462866315 0.029807816760394866 -0.0011529855387614424 -0.000707853213800842 0 0 0 0
32620026 -0.3352466103579148 0.030025270464461414 -0.0011788427466209647 -0.0006884132280638045 0 0 0 0
32652972 -0.3350951262918494 0.03015535463547495 -0.0011665182888003077 -0.0006790179168315239 0 0 0 0
32685918 -0.33545069864004745 0.030087036880806245 -0.0011837879000848508 -0.0007183526338533844 0 0 0 0
32718864 -0.335292352970133 0.030035847902830856 -0.0011767435255114526 -0.0006974079381640969 0 0 0 0
32751810 -0.33526972527564186 0.030245580100448487 -0.001182436768630954 -0.0007060004789021586 0 0 0 0
32784756 -0.3355853569404957 0.030169450387759696 -0.0011668280800679483 -0.0007086703868389395 0 0 0 0
32817702 -0.33506735591318376 0.030183238394513704 -0.0011843972164042025 -0.000713830902756726 0 0 0 0
32850648 -0.33549719005412715 0.0303044797442488 -0.0011833371704488315 -0.0006955217084766803 0 0 0 0
32883594 -0.33515945475833286 0.030423322641853236 -0.001175527735004676 -0.0007051499144155064 0 0 0 0
32916540 -0.33526220125107814 0.030176575633725312 -0.0011614138455244085 -0.0007149640114991562 0 0 0 0
32949486 -0.3355723939219203 0.03037916599412035 -0.0011816445610110529 -0.0006907120206923318 0 0 0 0
32982432 -0.3354574636425781 0.030154972439907207 -0.0011893647564115695 -0.000701051861030359 0 0 0 0
33015378 -0.33546278168874744 0.030458466119921226 -0.0011881330244488506 -0.0007193437153490741 0 0 0 0
33048324 -0.3356165094780217 0.03034468774155055 -0.0011506320591619613 -0.0007345816125566376 0 0 0 0
33081270 -0.33551832639462925 0.0306478173214711 -0.0011760524422442455 -0.0006841623782129904 0 0 0 0
33114216 -0.33551094812250815 0.030642984838600004 -0.0011809614298869452 -0.000718814967949866 0 0 0 0
33147162 -0.33551871475093425 0.030335333283800694 -0.001209343535413697 -0.0007261045471755283 0 0 0 0
33180108 -0.33542374817161197 0.030592633343009892 -0.0011989007507871422 -0.000697303944696715 0 0 0 0
33213054 -0.3357089900874836 0.030822014008211353 -0.0011747866539928908 -0.0007130173022274744 0 0 0 0
33246000 -0.33565030322769746 0.030862321050277683 -0.0011762614462827697 -0.0007101459856746802 0 0 0 0
33278946 -0.33548132931223545 0.03086101078756153 -0.001187729529474586 -0.0007014709075005856 0 0 0 0
33311892 -0.3355081353314869 0.030852924451196917 -0.0011640724970819925 -0.0007234545553758783 0 0 0 0
33344838 -0.335529304969352 0.030683991292733543 -0.0012070388746541318 -0.0007171493547756582 0 0 0 0
33377784 -0.3356551378053311 0.03101201337037539 -0.0011864702451932004 -0.0007083679726672211 0 0 0 0
33410730 -0.3356828285694903 0.03063487686380677 -0.0012066040518326645 -0.0007062639128699059 0 0 0 0
33443676 -0.335565409276724 0.03092424303717847 -0.0011919821824169497 -0.0007239008023484551 0 0 0 0
33476622 -0.3354964313692516 0.031052976628413966 -0.0011769213007708469 -0.0007190361115800057 0 0 0 0
33509568 -0.3357737307407859 0.031097716553363887 -0.0011700305163513639 -0.0007197911759248036 0 0 0 0
33542514 -0.3357133584519339 0.03108428959683883 -0.0011673369949331959 -0.0007204782348792868 0 0 0 0
33575460 -0.3358617954981408 0.031031976450873425 -0.0011931335620860841 -0.0007263387809461812 0 0 0 0
33608406 -0.33588938009192004 0.03090233586670118 -0.0011723288242000596 -0.0007187417051025624 0 0 0 0
33641352 -0.3356364153886582 0.03103984045482036 -0.0012083389031235306 -0.0006873602782580594 0 0 0 0
33674298 -0.335881146330901 0.031190086949314876 -0.0011887204408271422 -0.0007088244433152086 0 0 0 0
33707244 -0.33573912873097334 0.031174130622204938 -0.0011788810454383995 -0.0007413180588845543 0 0 0 0
33740190 -0.33583189266049834 0.0312009050671185 -0.0011954782376206174 -0.000740529840256375 0 0 0 0
33773136 -0.3357574376745783 0.031165470381164625 -0.0011948216771969545 -0.0007225513074032736 0 0 0 0
33806082 -0.3356033829023591 0.031226930124047033 -0.0012074759457553225 -0.0007137926005874621 0 0 0 0
33839028 -0.335934012984996 0.03140184115512323 -0.001233000537360057 -0.000728579315262696 0 0 0 0
33871974 -0.3357921722207505 0.031301259880301205 -0.0011759838226790987 -0.0007253338714963938 0 0 0 0
33904920 -0.335952782627562 0.031352091159838995 -0.0012025529356869073 -0.0007117839354624352 0 0 0 0
33937866 -0.3360218763669985 0.03125173102209176 -0.001184844031859152 -0.0007202316803433535 0 0 0 0
33970812 -0.3357477484435871 0.03140174476414046 -0.0011940304368526409 -0.0007432015492794447 0 0 0 0
34003758 -0.3361545844983577 0.031692407678654444 -0.0011892069808360744 -0.00074689461292824 0 0 0 0
34036704 -0.3360198750941728 0.03163920860582871 -0.0011853163152608622 -0.0007794566372582865 0 0 0 0
34069650 -0.3358604038935842 0.0314729174608296 -0.0012052390467325502 -0.0007207638828654839 0 0 0 0
34102596 -0.33612177625911255 0.03165880583315081 -0.0012367354943325663 -0.0007043596813599626 0 0 0 0
34135542 -0.3361718406926368 0.031517538255448875 -0.0012235253212164467 -0.0007231544688389832 0 0 0 0
34168488 -0.33630118838473166 0.03154516718742042 -0.0012027179914467388 -0.0007377566790329258 0 0 0 0
34201434 -0.3361056177454196 0.03158608567746429 -0.0012222896376575122 -0.0007359471189302074 0 0 0 0
34234380 -0.3361396476746792 0.03174747409877635 -0.0012010432667446257 -0.0007335024179121355 0 0 0 0
34267326 -0.33622357566864164 0.031883534226602804 -0.0012104092536359586 -0.0007196171734117256 0 0 0 0
34300272 -0.3363086563996116 0.03171384422260924 -0.001225954181918677 -0.0007271472032015728 0 0 0 0
34333218 -0.336117901315525 0.03190803450276311 -0.0012163884391654983 -0.0007524383616333571 0 0 0 0
34366164 -0.33626728782503573 0.03194466839004142 -0.0011983231015580882 -0.0007656960262401128 0 0 0 0
34399110 -0.3362658529958325 0.031877975535317044 -0.0012040509164925799 -0.0007487002571558252 0 0 0 0
34432056 -0.336186974044089 0.03191492062312025 -0.001230797046693097 -0.0007406285737091151 0 0 0 0
34465002 -0.3363625963023383 0.03183254452046352 -0.0012113442411095941 -0.0007288657230372513 0 0 0 0
34497948 -0.33610266927916504 0.032121577642171814 -0.0012109996016826134 -0.0007305085670230976 0 0 0 0
34530894 -0.33613691027279397 0.032107211756303176 -0.0012067818847627556 -0.000712405348309483 0 0 0 0
34563840 -0.3362444389702183 0.032162713237656904 -0.001199480886239307 -0.0007318644542549243 0 0 0 0
34596786 -0.3362382279208523 0.03213951487657234 -0.0012161743122897106 -0.000756149908423677 0 0 0 0
34629732 -0.3362182362982015 0.032214701227080415 -0.0012060991782458946 -0.0007476331443922401 0 0 0 0
34662678 -0.3365268182386969 0.032261688408194635 -0.001219375574359046 -0.0007172541289187708 0 0 0 0
34695624 -0.33648198806427937 0.03201483766988311 -0.0012128951918307452 -0.0007314388249737315 0 0 0 0
34728570 -0.3363692810004352 0.03218638202069582 -0.0012195149220711877 -0.00073284793489193 0 0 0 0
34761516 -0.3362247349212609 0.03235937366581685 -0.0012015241428706162 -0.0007554031272990854 0 0 0 0
34794462 -0.3365926945438173 0.0323629494081301 -0.0012318839920947703 -0.0007291414970539133 0 0 0 0
34827408 -0.33632333978852014 0.03245187394647033 -0.001218793997495946 -0.0007578574143791438 0 0 0 0
34860354 -0.336625197154477 0.03254440963512354 -0.0012240444173509926 -0.0007495540062788551 0 0 0 0
34893300 -0.33671344425739375 0.0324695791343662 -0.001227280090391715 -0.0007314615199538452 0 0 0 0
34926246 -0.33654716812515667 0.032298599324316626 -0.0012207456845649387 -0.0007481191465234006 0 0 0 0
34959192 -0.33665907618956836 0.03236881378179383 -0.0012303069329733587 -0.0007083505031675233 0 0 0 0
34992138 -0.33644862129884673 0.032571697542367134 -0.001223141967902286 -0.0007150281667958966 0 0 0 0
35025084 -0.33669911724482215 0.03271729725924877 -0.0012374036981719762 -0.0006590395652950648 0 0 0 0
35058030 -0.3366701912609569 0.03264425718731811 -0.0012643880008160165 -0.0007624993333976625 0 0 0 0
35090976 -0.3366261208960567 0.032381095313361 -0.0012195590742077082 -0.000671303483643062 0 0 0 0
35123922 -0.33666541452320065 0.03266756978498807 -0.0012555130232700417 -0.0007094404013405534 0 0 0 0
35156868 -0.33673219116675257 0.03272255222186367 -0.0012612365865972061 -0.0006861366116091968 0 0 0 0
35189814 -0.3366666801478224 0.03286309923047687 -0.0012603637303189444 -0.0007102297009277634 0 0 0 0
35222760 -0.3368293382032585 0.0328791083569873 -0.0013175521660275238 -0.0006845789456578061 0 0 0 0
35255706 -0.3368034108802605 0.032716858940691505 -0.0012241015941412466 -0.0007520698437549935 0 0 0 0
35288652 -0.3369135907207867 0.03268154161766726 -0.0013097559171996887 -0.0007802755466420518 0 0 0 0
35321598 -0.3367035334166795 0.032953548613875124 -0.0012966506587984037 -0.0008258206579219048 0 0 0 0
35354544 -0.33689229393081793 0.033263324002075226 -0.0012173523901157935 -0.0007835736181298442 0 0 0 0
35387490 -0.3368922985657504 0.032845344946048315 -0.0012384830598260383 -0.0007534894406554918 0 0 0 0
35420436 -0.3369578637702936 0.033032324910139195 -0.0012490140274965442 -0.0007622849462644763 0 0 0 0
35453382 -0.3369708640093665 0.03306004875936674 -0.0012437615732657887 -0.0007647177806286454 0 0 0 0
35486328 -0.33695814509161287 0.0329649727646645 -0.0012404909570857135 -0.0007461452819645414 0 0 0 0
35519274 -0.3368727525594239 0.03292320361100895 -0.0012479542812124703 -0.0007407527912473633 0 0 0 0
35552220 -0.33692888187026077 0.03306409997089622 -0.0012362360607334787 -0.0007501082001241072 0 0 0 0
35585166 -0.3369250296582553 0.03328894816459054 -0.0012169604368373504 -0.0007691203998410409 0 0 0 0
35618112 -0.3371049635003663 0.03328317735033603 -0.0012476262063746426 -0.0007401290246874476 0 0 0 0
35651058 -0.33714383969391026 0.033071664536349576 -0.0012331078775661114 -0.0007425462098744232 0 0 0 0
35684004 -0.3371563917530122 0.033104570748789905 -0.001255434171163468 -0.0007694111672020144 0 0 0 0
35716950 -0.33688375754507405 0.03330583209158228 -0.0012347506314754732 -0.0007473185251762927 0 0 0 0
35749896 -0.33697422779994285 0.03331116250631208 -0.0012078921861454243 -0.0007569493309273933 0 0 0 0
35782842 -0.3371463323022773 0.0333904480657117 -0.0012658661835651661 -0.0007287719197701694 0 0 0 0
35815788 -0.3372259624054378 0.03340740812328427 -0.001263100162977485 -0.0007351043136367469 0 0 0 0
35848734 -0.3371860893315333 0.033303240972144814 -0.0012467404967840753 -0.000768669273246417 0 0 0 0
35881680 -0.33720413796260007 0.0336690653517954 -0.0012540715219243402 -0.0007745355673170457 0 0 0 0
35914626 -0.3370939713972254 0.0334791487745272 -0.0012389619970714666 -0.0007465775306475859 0 0 0 0
35947572 -0.33711719014171976 0.033692328937981283 -0.001256507004216031 -0.0007576404873456083 0 0 0 0
35980518 -0.33706423911797423 0.03357691580898046 -0.0012389793901337275 -0.0007594319849345611 0 0 0 0
36013464 -0.3374274853753515 0.033750704362539984 -0.0012271637632731644 -0.0007582148060198546 0 0 0 0
36046410 -0.33734029098719615 0.033452071041800285 -0.001255330107904092 -0.0007602188332896262 0 0 0 0
36079356 -0.3372533010666555 0.03367813202783539 -0.001251005728117252 -0.0007824057105772523 0 0 0 0
36112302 -0.3369435833976319 0.03376041791120296 -0.0012604467822543977 -0.0007758409162149111 0 0 0 0
36145248 -0.3369271222058079 0.03385758491676035 -0.0012675587368866782 -0.0007306321472990759 0 0 0 0
36178194 -0.3372034659714987 0.033775927796024084 -0.001264501804279801 -0.0007570144606340102 0 0 0 0
36211140 -0.33759439863840673 0.033836532647574746 -0.001242768515351345 -0.0007731956317595429 0 0 0 0
36244086 -0.33732872330132796 0.03362146436674481 -0.0012474462877299956 -0.0007462915150427062 0 0 0 0
36277032 -0.33752132873572566 0.03359790088857775 -0.0012551889908758956 -0.0007698762114909083 0 0 0 0
36309978 -0.33727834178590405 0.03401018825675661 -0.0012663126350722523 -0.0007496234091738613 0 0 0 0
36342924 -0.3376309000800447 0.03392404001711768 -0.001253605202025751 -0.0007890410889106855 0 0 0 0
36375870 -0.33764824762550044 0.0342225564287419 -0.0012773171627051972 -0.0007817441935451388 0 0 0 0
36408816 -0.33758904633375447 0.03396386250278004 -0.00126433602936444 -0.0007509764820196536 0 0 0 0
36441762 -0.3371660749007274 0.03408486848034175 -0.0012766484933703708 -0.0007723716493577228 0 0 0 0
36474708 -0.3374877886663757 0.034154561914632973 -0.0012528907062711026 -0.0007394317483327492 0 0 0 0
36507654 -0.33737347586802013 0.03406856469844281 -0.0012630394709913333 -0.0007680579618330707 0 0 0 0
36540600 -0.33741314243451087 0.034032773161545696 -0.001262826379719444 -0.0007601293663343595 0 0 0 0
36573546 -0.33767297326825235 0.03418595704074766 -0.0012580989779079905 -0.0007586673339566696 0 0 0 0
36606492 -0.3375401782602017 0.034081915544170914 -0.0012465460839901446 -0.0007831230904045235 0 0 0 0
36639438 -0.3376408627864498 0.0340016302434901 -0.0012794171900620175 -0.0007578505685302821 0 0 0 0
36672384 -0.3374156156013024 0.03443831015610773 -0.0012656404026893527 -0.0007585839351653263 0 0 0 0
36705330 -0.33772233619799064 0.0343686793030559 -0.001288326337285305 -0.0007595485754858886 0 0 0 0
36738276 -0.3374263311795982 0.03448872266295569 -0.001278458133300089 -0.0007664662155657881 0 0 0 0
36771222 -0.33787394204832677 0.03456394758040057 -0.0012901062312107772 -0.0007775635419412949 0 0 0 0
36804168 -0.33794218526678554 0.034517338319630525 -0.001276518612348124 -0.0007621479113347576 0 0 0 0
36837114 -0.3376214367567655 0.034435611091518006 -0.001296712845898141 -0.0007668951543765595 0 0 0 0
36870060 -0.3377935627986611 0.03442639782376457 -0.0012405412957333067 -0.0007810299492218046 0 0 0 0
36903006 -0.33764801548976114 0.03442894212407506 -0.001291475967947012 -0.0007508387413715941 0 0 0 0
36935952 -0.3376930541997315 0.034802960796403284 -0.0012734294302083591 -0.0007804733101500787 0 0 0 0
36968898 -0.33783512225808193 0.034594216517780545 -0.0012767465708762116 -0.0008065140583561866 0 0 0 0
37001844 -0.33769948252917925 0.03480264858654905 -0.001281158266084417 -0.0007894725616690863 0 0 0 0
37034790 -0.33781632240229875 0.03466398602650689 -0.0012654254212046663 -0.0007841668420799641 0 0 0 0
37067736 -0.3378432244525866 0.03464996550064299 -0.0013014474400500767 -0.0007745792016791254 0 0 0 0
37100682 -0.3378910370368728 0.03486619285027499 -0.001272453250096719 -0.0007740690069052012 0 0 0 0
37133628 -0.33790647561404985 0.034915776288094155 -0.0012845739600200032 -0.0007904215278579755 0 0 0 0
37166574 -0.33786811807179984 0.03468588303273326 -0.001291566836672773 -0.0007632340339562006 0 0 0 0
37199520 -0.3382231776853504 0.035017847323007896 -0.0012793009806083971 -0.0007829194895349451 0 0 0 0
37232466 -0.33798308950047073 0.034948283151550984 -0.001290892871650459 -0.0007846353820214236 0 0 0 0
37265412 -0.33789116552812215 0.034956857708644255 -0.0012786306176252146 -0.0007773511989305006 0 0 0 0
37298358 -0.338105025721958 0.03513331283310059 -0.0012991721025430235 -0.0007637447448743327 0 0 0 0
37331304 -0.33818813446940943 0.03517144092545188 -0.0012928179866417574 -0.0007839052067247388 0 0 0 0
37364250 -0.3382078606124853 0.03511301244116947 -0.0013077366906368544 -0.0007762856940186964 0 0 0 0
37397196 -0.33816839302333757 0.035141672008524895 -0.001282344236725258 -0.0007894766037347894 0 0 0 0
37430142 -0.3378934003212777 0.03525228020517918 -0.0012861700492301173 -0.0007859643667577145 0 0 0 0
37463088 -0.33812912282358426 0.035182866901565725 -0.0013102993251825883 -0.00078225246960901 0 0 0 0
37496034 -0.338156655883012 0.03524013416689336 -0.0012851446184009526 -0.0007722973754367657 0 0 0 0
37528980 -0.33818042700015094 0.03528378016880197 -0.0012568165917987045 -0.0007618980657314397 0 0 0 0
37561926 -0.33818368199255144 0.035212069656852966 -0.0013065088612733906 -0.0008062277102080171 0 0 0 0
37594872 -0.33829009603327465 0.0352704623811927 -0.0012914617837040448 -0.0007813471955080152 0 0 0 0
37627818 -0.3382599572663539 0.03533512784959508 -0.0013062780309302056 -0.0007900473633251858 0 0 0 0
37660764 -0.3382759756851016 0.035396307554851604 -0.0013105849597204531 -0.000799629212421841 0 0 0 0
37693710 -0.3382936499617549 0.03546382728646305 -0.001301200723076 -0.0007905911266843021 0 0 0 0
37726656 -0.33828204043033616 0.03550749968939309 -0.0013081926601410056 -0.000785952108913899 0 0 0 0
37759602 -0.3383747542916792 0.03535861126081277 -0.0013131855933705208 -0.0007849628041876463 0 0 0 0
37792548 -0.3383517588155452 0.03533773354501625 -0.0013151165721003869 -0.000809172563484993 0 0 0 0
37825494 -0.3383323253788005 0.035691402340245273 -0.0013106581263266186 -0.0007813233680895275 0 0 0 0
37858440 -0.3382853054161798 0.035589740179012085 -0.0013102587272305632 -0.0007919208411616179 0 0 0 0
37891386 -0.33837484645639554 0.03568066068754171 -0.001308565234984238 -0.0007987648125485833 0 0 0 0
37924332 -0.3383653560479224 0.03570419489400199 -0.0012858293559862607 -0.0007751444274078849 0 0 0 0
37957278 -0.3385277602528367 0.03590479280173712 -0.0012996190879059045 -0.0007909047946630552 0 0 0 0
37990224 -0.3383635357507356 0.03571752185924845 -0.0012872942924169125 -0.0007956031641478806 0 0 0 0
38023170 -0.33848376052949425 0.03580791324053225 -0.001332553436394801 -0.000790076403622737 0 0 0 0
38056116 -0.3383866219252769 0.03600546464131133 -0.001324181852032607 -0.0007759298214303424 0 0 0 0
38089062 -0.33839302237709173 0.03580889395189001 -0.0013132188531471372 -0.0007980381745332737 0 0 0 0
38122008 -0.3384820577056569 0.03599046215378694 -0.0013104009921536632 -0.000776165262792802 0 0 0 0
38154954 -0.33866658017127943 0.03604290460371677 -0.0013250499667474618 -0.0007893195669061258 0 0 0 0
38187900 -0.33876818682374843 0.03585767635722719 -0.001311456382678335 -0.000817201181521392 0 0 0 0
38220846 -0.3387261541469132 0.03610110101602478 -0.0012645374187404495 -0.0007752532583810022 0 0 0 0
38253792 -0.3387134070061481 0.036100683048251474 -0.001301539001560943 -0.0008115478117527492 0 0 0 0
38286738 -0.33881096606642547 0.03620714577044185 -0.0012862915860577101 -0.0008024231398200883 0 0 0 0
38319684 -0.3386420449398139 0.036213959196298724 -0.001275142505769454 -0.000783320776383965 0 0 0 0
38352630 -0.3388649624274832 0.03622666707470432 -0.0013256247437849116 -0.0007695569021651909 0 0 0 0
38385576 -0.3387664402557519 0.03606421731835429 -0.0013066742435300807 -0.0007766664040252993 0 0 0 0
38418522 -0.3387564521431028 0.036086966109406586 -0.0013132274746727117 -0.0008086763604703821 0 0 0 0
38451468 -0.3386087858926996 0.036336110797181666 -0.0013265402608549674 -0.0008030261585396231 0 0 0 0
38484414 -0.33883951059775497 0.0364845516336494 -0.001332583482969431 -0.000806771521037635 0 0 0 0
38517360 -0.3388505633849179 0.03643462812129335 -0.0012900777401780236 -0.0007951015890693407 0 0 0 0
38550306 -0.3387647399307367 0.036200267406733266 -0.001317689211056362 -0.0007932475461188181 0 0 0 0
38583252 -0.33881341517321506 0.03651756735438213 -0.0012879215380809438 -0.0007946129601246589 0 0 0 0
38616198 -0.33894909779822224 0.03659933249141098 -0.0013193459775429422 -0.0008016175325333285 0 0 0 0
38649144 -0.3389991857101807 0.03655455490163979 -0.0013263294332800579 -0.0007988526619832834 0 0 0 0
38682090 -0.3390474058629577 0.03649038043623065 -0.0013104409195523574 -0.0007947699048570426 0 0 0 0
38715036 -0.33901619658702836 0.03649105155796313 -0.0013493580637748252 -0.0007645743507734581 0 0 0 0
38747982 -0.3386492969128781 0.036556306590625004 -0.0013042421875058348 -0.0007993302465965466 0 0 0 0
38780928 -0.3389211164203663 0.036853020000156334 -0.001315398637026316 -0.0007897577922061605 0 0 0 0
38813874 -0.33900104398179337 0.03671575256657829 -0.0013396110354787555 -0.0007964119459536385 0 0 0 0
38846820 -0.3391218860242071 0.03693391233515906 -0.001317749940218844 -0.0007958066081569165 0 0 0 0
38879766 -0.33908256019504707 0.036797398939467874 -0.0013370515323426007 -0.0007977713575717206 0 0 0 0
38912712 -0.3391426928196937 0.0368778021600581 -0.00131192341520497 -0.0008077666152008926 0 0 0 0
38945658 -0.3389584620313882 0.03693928329385312 -0.0013360495517748656 -0.0008116947225998746 0 0 0 0
38978604 -0.3390897321022874 0.03694812694370979 -0.001345143339281261 -0.0008101124628741411 0 0 0 0
39011550 -0.33910398710160733 0.036726793882615814 -0.0013361635938200322 -0.0008109961049576426 0 0 0 0
39044496 -0.3392121845903495 0.03691791325597106 -0.0013194820812609195 -0.0008019481476364976 0 0 0 0
39077442 -0.3392789158993347 0.037175007260612826 -0.0013267393850028336 -0.0007902253243680657 0 0 0 0
39110388 -0.3393580274702544 0.036917273084568804 -0.001334456872634814 -0.0007957561794432074 0 0 0 0
39143334 -0.33910661305425627 0.03685870251492909 -0.001319038333762125 -0.000800193730771366 0 0 0 0
39176280 -0.33930132510917244 0.03714009513935763 -0.0013500050224307682 -0.0008171975421787894 0 0 0 0
39209226 -0.3391651045794697 0.0372419619434378 -0.0013239475080227441 -0.00079620173447632 0 0 0 0
39242172 -0.33933851048398456 0.03715915505357616 -0.0013617259208919803 -0.0008310017459124278 0 0 0 0
39275118 -0.33939477542813 0.03720219258339926 -0.0013440594351251001 -0.0007973775408394114 0 0 0 0
39308064 -0.3393204530666139 0.03709312431834334 -0.001343255786799108 -0.000812353578588623 0 0 0 0
39341010 -0.33934305538391096 0.03728585185019421 -0.0013412891454955274 -0.0007746614952386881 0 0 0 0
39373956 -0.3394347271687516 0.037468379260598504 -0.0013398129508780158 -0.000795114139728694 0 0 0 0
39406902 -0.3394232301253796 0.03749248681365773 -0.001330019649448147 -0.0008085634697207443 0 0 0 0
39439848 -0.33946352633688914 0.037230404213013074 -0.0013587366965976495 -0.0007936934812396453 0 0 0 0
39472794 -0.33949197399886016 0.037517174015826084 -0.001320254005026803 -0.000818059463391352 0 0 0 0
39505740 -0.33955642608327613 0.037301228592302546 -0.0013299281123296605 -0.0008161673393835394 0 0 0 0
39538686 -0.3395005042339917 0.03764442272435877 -0.001340538366387353 -0.0008114148367420102 0 0 0 0
39571632 -0.33929548727883574 0.03758599055656955 -0.001341477854486492 -0.0007862911098719125 0 0 0 0
39604578 -0.33960978766417166 0.03758484167650546 -0.0013263408434121486 -0.0007979867771944586 0 0 0 0
39637524 -0.3396111992482096 0.03770970034571222 -0.0013495414001143346 -0.000822854820205831 0 0 0 0
39670470 -0.33948551342912175 0.037485978169867235 -0.0013340806767071795 -0.0008135465749062137 0 0 0 0
39703416 -0.3396019008395139 0.03783866730562698 -0.001362809373640092 -0.0007945637681844256 0 0 0 0
39736362 -0.3394379992784422 0.03777261850558168 -0.0013429725265802228 -0.0007874980125189658 0 0 0 0
39769308 -0.33971121627524276 0.03746629490421277 -0.0013484130765061078 -0.0008058494923016897 0 0 0 0
39802254 -0.3397434032301983 0.03785525658555996 -0.0013569349632203537 -0.0007921684879642831 0 0 0 0
39835200 -0.33978838185959964 0.037735856316935136 -0.0013606911414382802 -0.0007823982225818259 0 0 0 0
39868146 -0.33990674714603986 0.037998868045250656 -0.0013457478769242919 -0.0008063360094443909 0 0 0 0
39901092 -0.3395757525788809 0.03800448921202278 -0.0013446346586863053 -0.0008059762675122352 0 0 0 0
39934038 -0.3397001996261726 0.03765297224142827 -0.0013439864272179794 -0.0008310090633968604 0 0 0 0
39966984 -0.3398404994173531 0.03803367486810887 -0.00137035492055884 -0.000828939223487685 0 0 0 0
39999930 -0.3396679305418828 0.037891137213883645 -0.0013625912914479858 -0.0008111711170926481 0 0 0 0
