# HZ S RI R 50
300000 -0.5605529617705075 -0.027503535348912755 0.2910083756484394 -0.017617625574995018 0 0 0 0
332946 -0.5481686186983604 0.051539705081844925 0.26202157788841285 -0.09843719856763668 0 0 0 0
365892 -0.5076721388202224 0.0951227559597554 0.19542701739170348 -0.15430706755280682 0 0 0 0
398838 -0.46853543815164206 0.1115530776924732 0.14730737422092982 -0.16396503230653078 0 0 0 0
431784 -0.46041724730427774 0.09695808758582496 0.1434191416465204 -0.13974858721284714 0 0 0 0
464730 -0.436587952186445 0.0968415626298939 0.11586910478610128 -0.13710624290559545 0 0 0 0
497676 -0.42003882178652097 0.09357336234425301 0.09488958410227234 -0.13112736997551966 0 0 0 0
530622 -0.4074050391951246 0.08922859639216843 0.07901072572902168 -0.12425032634979846 0 0 0 0
563568 -0.39734802423375437 0.08562144180805113 0.06691450507512958 -0.11740523809924544 0 0 0 0
596514 -0.389103336557451 0.08161066603181395 0.057521220553543494 -0.11091578988229289 0 0 0 0
629460 -0.3826598108531764 0.07787950548417359 0.05078003491372966 -0.10351474721001967 0 0 0 0
662406 -0.3772727858568879 0.0744652625555654 0.04474152342786111 -0.09815402862370316 0 0 0 0
695352 -0.37251345758196713 0.07103442597414328 0.039704431922671424 -0.0931654587861038 0 0 0 0
728298 -0.36917808246509265 0.0679358604600537 0.035481829340783096 -0.08859248849738924 0 0 0 0
761244 -0.3651958639955882 0.0650953749002246 0.03186441385199186 -0.08437513394539156 0 0 0 0
794190 -0.36265522150695373 0.06290796575133017 0.028810390280090116 -0.080517490680717 0 0 0 0
827136 -0.35987790840314837 0.06024193600284316 0.026293848976496517 -0.0770818422133601 0 0 0 0
860082 -0.35756920782783774 0.05762159365843789 0.024015884477608333 -0.07378931527346087 0 0 0 0
893028 -0.35601200534435534 0.05532474016782322 0.022121785247149552 -0.07077677622988043 0 0 0 0
925974 -0.35386954829024464 0.05347460044854585 0.0203311034879759 -0.06794581788752489 0 0 0 0
958920 -0.35242077946851413 0.05180023724160897 0.018813179692174137 -0.06544016694847359 0 0 0 0
991866 -0.3510879954457928 0.04967623968569059 0.01745978473052281 -0.06297521888609306 0 0 0 0
1024812 -0.3498224824795278 0.048304998329327116 0.0162768372784194 -0.0606936523370524 0 0 0 0
1057758 -0.3487261727434933 0.0465050086821215 0.015134545126131797 -0.058599790237083185 0 0 0 0
1090704 -0.34792857389070225 0.04487262884809502 0.014116317964845443 -0.05663020050580674 0 0 0 0
1123650 -0.3471837489346236 0.043590242879975066 0.01331029983770152 -0.05473756985728406 0 0 0 0
1156596 -0.3464558732295227 0.04238290579885693 0.012495151837746053 -0.05302509817770449 0 0 0 0
1189542 -0.3450963509389196 0.040946537279444854 0.01178619324900214 -0.05133361556739771 0 0 0 0
1222488 -0.34433902294225993 0.039827379353237956 0.01114731352885968 -0.049730770293938166 0 0 0 0
1255434 -0.3441112007566385 0.038619103035173664 0.010481659552741399 -0.048273778616921614 0 0 0 0
1288380 -0.34358650344049363 0.03739708987041957 0.009821587130384805 -0.046830642472151726 0 0 0 0
1321326 -0.34292504537476814 0.036655805909964846 0.009381248308209782 -0.04553155182269945 0 0 0 0
1354272 -0.3424592432829012 0.035717303152242995 0.008870873088844378 -0.04419368231103094 0 0 0 0
1387218 -0.34205936424144406 0.03459848044506955 0.008400494167875673 -0.042974616234289637 0 0 0 0
1420164 -0.3417441827446188 0.0337021557540382 0.00802043207120767 -0.0418334921614211 0 0 0 0
1453110 -0.34129628961444336 0.03274345173472166 0.0076183549761394825 -0.040717630415040604 0 0 0 0
1486056 -0.34140330769034316 0.031565926873593386 0.007256987318291237 -0.03964173621603548 0 0 0 0
1519002 -0.3412215184857815 0.031115607756007073 0.006876700812285106 -0.038653003071618744 0 0 0 0
1551948 -0.3408124987662154 0.03053638013791571 0.006537556522895654 -0.037625597588058106 0 0 0 0
1584894 -0.34069503782518895 0.02954130324847874 0.0062935245813571005 -0.036671013438441015 0 0 0 0
1617840 -0.3403276272254056 0.029206032726814872 0.005997851681115739 -0.03577928704100226 0 0 0 0
1650786 -0.34023587407379835 0.02857772879123692 0.005672682197101492 -0.034915485323510465 0 0 0 0
1683732 -0.3402058330478007 0.027567767861243393 0.0054524676918701895 -0.034070233207708904 0 0 0 0
1716678 -0.33994798400480447 0.027046236091670183 0.005197487762969408 -0.03325475252260934 0 0 0 0
1749624 -0.34002796094401366 0.026887066952268335 0.004934507417193185 -0.032467796501745076 0 0 0 0
1782570 -0.34001240905878516 0.02624919180194656 0.004717232513804416 -0.03169013278218024 0 0 0 0
1815516 -0.339642621688922 0.0253953531044419 0.004541592966546837 -0.030962811484777805 0 0 0 0
1848462 -0.33949604200625505 0.02513316946292912 0.004321961391413103 -0.030256398596595145 0 0 0 0
1881408 -0.3393810418683343 0.024390006265634444 0.004131071397249165 -0.02955271799294031 0 0 0 0
1914354 -0.33938467590049776 0.0241938113383618 0.00393975568503762 -0.028899471340686333 0 0 0 0
1947300 -0.3394567573321981 0.023713229543274553 0.0037503412540695127 -0.02823597560919922 0 0 0 0
1980246 -0.33944469779206876 0.02316283257246898 0.003576971941215344 -0.02762678941940007 0 0 0 0
2013192 -0.3394046483877145 0.02291329043612869 0.0034319304858824837 -0.02701306592242119 0 0 0 0
2046138 -0.3393653650280912 0.022601294758628942 0.003298746160315393 -0.026433210756942032 0 0 0 0
2079084 -0.3391874927725554 0.02240626511624128 0.003089809684897855 -0.025815208816959225 0 0 0 0
2112030 -0.33922035992504335 0.022077733462353297 0.0029763541650210737 -0.025267027002466597 0 0 0 0
2144976 -0.33900761073347174 0.02169682739811747 0.0028209969973057485 -0.024714596314085287 0 0 0 0
2177922 -0.3391647665655903 0.021075708118463213 0.0027148249665576592 -0.024175860892361324 0 0 0 0
2210868 -0.33918477603627756 0.020872050954819553 0.0026099615194214447 -0.023645949120608495 0 0 0 0
2243814 -0.3394115510988876 0.020650196693566606 0.002434295792183227 -0.023119219460277025 0 0 0 0
2276760 -0.3391736118265221 0.02033790921471371 0.0023199538236841136 -0.022610649460763296 0 0 0 0
2309706 -0.3393035353580562 0.020086031238564218 0.002206266976586387 -0.022129066543220468 0 0 0 0
2342652 -0.33946936110599746 0.019860036550413785 0.0020845396056804223 -0.021598778924930815 0 0 0 0
2375598 -0.33902836141334614 0.01988597895420397 0.0019643098177049654 -0.021188243867415406 0 0 0 0
2408544 -0.3393250876458727 0.0195231426489581 0.0018776009478525394 -0.020714943625357248 0 0 0 0
2441490 -0.33924973388233093 0.019351521035694846 0.0017524822281942034 -0.020266919963390643 0 0 0 0
2474436 -0.339298630276899 0.019095554573409026 0.0016684825666988586 -0.019826547412385213 0 0 0 0
2507382 -0.3394306813286226 0.018843293893334796 0.0015681821708424216 -0.019364507916624325 0 0 0 0
2540328 -0.3393177429502726 0.018890287988674242 0.0014911171344129236 -0.018909885026476576 0 0 0 0
2573274 -0.33935269341954355 0.018737898891793434 0.001398730184436633 -0.018503391768233 0 0 0 0
2606220 -0.33939071304153745 0.018544340851450593 0.0012771812098357513 -0.018093886251829967 0 0 0 0
2639166 -0.33958509574665946 0.018640414945659517 0.0011823607232836393 -0.017688840162472276 0 0 0 0
2672112 -0.33898932006038807 0.018267734455405006 0.0011343927539120358 -0.017259848297312134 0 0 0 0
2705058 -0.33916570276346664 0.017799848405155073 0.0010397672538208157 -0.016880435417724174 0 0 0 0
2738004 -0.33918806448739025 0.01793871702504659 0.0009675556226418566 -0.016489072498853143 0 0 0 0
2770950 -0.33923345257517873 0.017816857556011374 0.0009034300331503019 -0.01607762263986634 0 0 0 0
2803896 -0.33957999554352697 0.017801618188959808 0.0008139727927825422 -0.015706349920560875 0 0 0 0
2836842 -0.33953290390000496 0.017828415633713405 0.0007640941132674424 -0.015327519703532355 0 0 0 0
2869788 -0.3392627943416083 0.017534216952159364 0.0006889030112549868 -0.014964340726305215 0 0 0 0
2902734 -0.33943752680856404 0.017403997747743573 0.0006461620364235126 -0.01459322709119665 0 0 0 0
2935680 -0.33943536302679944 0.017549581770134024 0.000574700848852763 -0.014188776813923809 0 0 0 0
2968626 -0.33954386929300495 0.017666924467717462 0.0004974895402964597 -0.013830530461588188 0 0 0 0
3001572 -0.3392293385104689 0.01741666542527954 0.00047430512755331834 -0.0134868448337332 0 0 0 0
3034518 -0.33930336657526045 0.017087166459980364 0.0004291018552950183 -0.013151447137241389 0 0 0 0
3067464 -0.3395908573412188 0.01745134285794663 0.00037623221053112877 -0.012780574928423038 0 0 0 0
3100410 -0.3393362909382801 0.017256987212329218 0.00033184101703903564 -0.012402448093658662 0 0 0 0
3133356 -0.3392317889820352 0.01722292429061161 0.00030834169837806773 -0.012088249607456053 0 0 0 0
3166302 -0.3394126175910064 0.016879217714259223 0.00024305963611515494 -0.011772413467755951 0 0 0 0
3199248 -0.33897875973009134 0.017000246592590643 0.0002092308911385827 -0.01145607187216127 0 0 0 0
3232194 -0.33951851265071076 0.017062768838404376 0.00019070111672318812 -0.011104069944608398 0 0 0 0
3265140 -0.33939914763664847 0.01720055381428249 0.00014549437157163436 -0.010786553610617717 0 0 0 0
3298086 -0.33917417774863623 0.01698265958970551 0.00013052034856872742 -0.010476375214179311 0 0 0 0
3331032 -0.3390645216294144 0.01686365748304153 0.00010249857484614946 -0.010179351146916336 0 0 0 0
3363978 -0.3392380403043388 0.01685056511469509 8.923402761462568e-05 -0.009836719673021771 0 0 0 0
3396924 -0.33929953138740443 0.016931853668895738 9.15300305266301e-05 -0.009579033541336112 0 0 0 0
3429870 -0.33888272467328834 0.017031330222344793 4.241473404696557e-05 -0.009271765561475015 0 0 0 0
3462816 -0.3390331313807643 0.01712873648961951 4.435004397078649e-05 -0.008941973345753309 0 0 0 0
3495762 -0.3390956697120422 0.01689343002641357 2.7284896405095234e-05 -0.008679145522480832 0 0 0 0
3528708 -0.33868962425626475 0.016532932895080794 4.121761380127768e-05 -0.00839577144454895 0 0 0 0
3561654 -0.33917487724669426 0.016842321089887192 3.353350291951681e-05 -0.008101493881601094 0 0 0 0
3594600 -0.33906869743527235 0.016848516980379768 2.4223414006306886e-05 -0.007824362595402597 0 0 0 0
3627546 -0.33855791364990695 0.016876020582570542 2.506445811488667e-05 -0.0075529682098737175 0 0 0 0
3660492 -0.3389753788625676 0.01704766803561841 2.7754793072781606e-05 -0.007278318026039976 0 0 0 0
3693438 -0.33873851054647286 0.01666147554480098 1.595097743794553e-05 -0.007046555591591292 0 0 0 0
3726384 -0.33865820353428305 0.016783583566074147 9.885631132478583e-06 -0.0067647887764252426 0 0 0 0
3759330 -0.3386644847390562 0.016610244485046523 2.0312836360655568e-05 -0.006556973321243531 0 0 0 0
3792276 -0.33881464267737854 0.016566698483358167 4.6474843128344575e-05 -0.006278821773229863 0 0 0 0
3825222 -0.33834332975423487 0.01669786065143377 4.543150106267573e-05 -0.00599934822721626 0 0 0 0
3858168 -0.33852382633646166 0.01694375037646842 6.580603622857633e-05 -0.005801515613331139 0 0 0 0
3891114 -0.33833895288386706 0.016538891987370602 5.742070928639141e-05 -0.005547941993815212 0 0 0 0
3924060 -0.3385186700177817 0.01656608684174577 8.443522297781121e-05 -0.005329124305900916 0 0 0 0
3957006 -0.338137441686106 0.016489862302429208 6.0795946974396126e-05 -0.005075864237177547 0 0 0 0
3989952 -0.33824802975953017 0.016551791533484305 9.965802878014584e-05 -0.004842651940502334 0 0 0 0
4022898 -0.338364999517432 0.01652606361372947 9.821367891172984e-05 -0.004624090235126977 0 0 0 0
4055844 -0.33795147635329964 0.016757872526348108 9.736974030524844e-05 -0.004391569480878234 0 0 0 0
4088790 -0.33832432971245874 0.016473503659006145 0.00013754854104267646 -0.004180479197652027 0 0 0 0
4121736 -0.3378902752809447 0.016497322622842075 0.0001238685613689758 -0.003955573672349778 0 0 0 0
4154682 -0.3381983050525312 0.016485038355793544 0.00014173990257107706 -0.0037845573374638117 0 0 0 0
4187628 -0.3380413792039162 0.016718948849936424 0.00015337525863999248 -0.003549715365366652 0 0 0 0
4220574 -0.3377868316278172 0.01671747425087991 0.00017561894640336255 -0.003320918571030339 0 0 0 0
4253520 -0.33781274119937077 0.01652695916187942 0.00015130034645792134 -0.0031098071613234767 0 0 0 0
4286466 -0.3381472883294268 0.016398623564220647 0.0001644873593930798 -0.002931073460961307 0 0 0 0
4319412 -0.33768935829848445 0.016441242799476403 0.00021425490332118753 -0.0027268355123876735 0 0 0 0
4352358 -0.3378256389283609 0.016558370692947764 0.0001672937457737559 -0.002514290116218013 0 0 0 0
4385304 -0.3379553651055906 0.016443231713571753 0.00022408145060463599 -0.002317835629884483 0 0 0 0
4418250 -0.3376412539024872 0.0163776867450267 0.000199975641950595 -0.0021741217762529757 0 0 0 0
4451196 -0.33747810615357726 0.016592829012304803 0.00023729511023334315 -0.0019661926446018665 0 0 0 0
4484142 -0.33741996222035964 0.01658788490505905 0.00026049433551729933 -0.001769452512270331 0 0 0 0
4517088 -0.337327373904659 0.01618283589222067 0.0002548394200129029 -0.0015864189338608771 0 0 0 0
4550034 -0.33738166851948964 0.016129378675286236 0.0002816036754961587 -0.001412731074381057 0 0 0 0
4582980 -0.33760092791274343 0.016466377797035876 0.00027755938437725797 -0.0012381552493319725 0 0 0 0
4615926 -0.3371058936996433 0.016192054139721548 0.0003000123546413402 -0.0010616650615886205 0 0 0 0
4648872 -0.3373495922244843 0.016499044429092117 0.00029650987303251453 -0.0009044313648653745 0 0 0 0
4681818 -0.3372531141680236 0.016573614888857162 0.0003234301338033339 -0.0007225134197223989 0 0 0 0
4714764 -0.3370661466602609 0.016173735901123223 0.0003190666613595695 -0.0005624118548987828 0 0 0 0
4747710 -0.33711920113810384 0.016100549122050504 0.00028943401619532403 -0.00039837684550500616 0 0 0 0
4780656 -0.3370010573478732 0.016140369611542613 0.00033704011914340986 -0.00020121484741398717 0 0 0 0
4813602 -0.33689203550181457 0.016191204364919467 0.0003566592334160992 -6.0158019328967615e-05 0 0 0 0
4846548 -0.3368983773068234 0.016386243868270447 0.00037125352660303027 0.0001233869769962981 0 0 0 0
4879494 -0.33684324601358534 0.015942636953650575 0.0003573358646407124 0.0002969152919176687 0 0 0 0
4912440 -0.33704182563618 0.016155028233536924 0.00041271340410732783 0.000419191364465443 0 0 0 0
4945386 -0.3367317681005383 0.015913369971865723 0.00042010802012819944 0.0005883331062372908 0 0 0 0
4978332 -0.33678999497076345 0.01604179087179602 0.0004021761882517763 0.000708933180806632 0 0 0 0
5011278 -0.33676008083869274 0.01619061751612656 0.00042258259743440654 0.0008688228661730329 0 0 0 0
5044224 -0.3367525669970836 0.016138942156957534 0.00044617601072399055 0.0010132703058576237 0 0 0 0
5077170 -0.33672125168425615 0.01585352238025196 0.0004370300012226489 0.001197493323423402 0 0 0 0
5110116 -0.3367209883047359 0.015871736124697663 0.00046531437524537897 0.0013358255374813406 0 0 0 0
5143062 -0.3364501261938616 0.01591053018171599 0.0004724931946686072 0.0014781686946344517 0 0 0 0
5176008 -0.3366161753415106 0.015889238596225923 0.0004602494904322642 0.0016160927895001558 0 0 0 0
5208954 -0.3363679984556417 0.016169024869525126 0.0004539372293122531 0.0017536556936796962 0 0 0 0
5241900 -0.3364087527361266 0.015946791604643563 0.0004514908672817897 0.0019068383817326612 0 0 0 0
5274846 -0.3363216640971591 0.015698594362736414 0.0004837211788397815 0.0020619053395834804 0 0 0 0
5307792 -0.3365013963845656 0.015556809168296276 0.0004836546217543367 0.0021680894123024515 0 0 0 0
5340738 -0.3363482476908891 0.015894870252847748 0.0004989217532217705 0.0022911817936220012 0 0 0 0
5373684 -0.3363633166586361 0.015693423032163062 0.000492668102579884 0.002437445992309592 0 0 0 0
5406630 -0.3362328526736167 0.015771220039564042 0.0005466530788339494 0.0025695802593820355 0 0 0 0
5439576 -0.33622550766802334 0.015724183159170502 0.0005399959324783741 0.002718492473403733 0 0 0 0
5472522 -0.3361772503759659 0.015774619407821926 0.0004954329184399371 0.0028628187468796853 0 0 0 0
5505468 -0.33612332793717453 0.01580738267140439 0.000514492990543947 0.002968689464492486 0 0 0 0
5538414 -0.3361708867297675 0.015532420304586026 0.0005257994960251226 0.0030886558778882942 0 0 0 0
5571360 -0.33596649866826533 0.015411224421471208 0.000479872453987864 0.003214725408656855 0 0 0 0
5604306 -0.3360585184723209 0.015569491706189724 0.0005486352234507853 0.00330530480584812 0 0 0 0
5637252 -0.3361561428720093 0.015444749542443738 0.0005123082100490602 0.0034177041351520876 0 0 0 0
5670198 -0.3360914901289114 0.015344261542703968 0.0005111787540824831 0.003531749319028181 0 0 0 0
5703144 -0.3360377389241975 0.015351337646420786 0.0005378958136276523 0.00368190714078239 0 0 0 0
5736090 -0.3361238200237005 0.015336872688249861 0.0005333639969421844 0.003782315807965191 0 0 0 0
5769036 -0.3358310973713477 0.015434386281796093 0.0005478203932120525 0.003835603807772198 0 0 0 0
5801982 -0.3355438614584065 0.0150525400099656 0.0004713693615864269 0.003993269694115351 0 0 0 0
5834928 -0.33598207881526754 0.015283610269656103 0.0005286654601430905 0.004060743693280555 0 0 0 0
5867874 -0.33590119094236215 0.01514992450239741 0.0004909869467871552 0.004196928205294066 0 0 0 0
5900820 -0.33599703356149135 0.015101715300016501 0.00046520760622149415 0.00427081335085712 0 0 0 0
5933766 -0.33555532740886923 0.015169281123733058 0.0004732068051088523 0.004366660452319658 0 0 0 0
5966712 -0.3357014015041666 0.014869278793041745 0.0004602793657885326 0.0044566360749106575 0 0 0 0
5999658 -0.3358765812466702 0.015176050413632264 0.0004502314751860499 0.004546910321974883 0 0 0 0
6032604 -0.335725630802727 0.01465480592083403 0.00045507422818906197 0.004621005402098541 0 0 0 0
6065550 -0.3358398360807764 0.014755728041270604 0.0004522781028407491 0.0046654085602447605 0 0 0 0
6098496 -0.33585538193923853 0.014733193015381956 0.00041056970802027745 0.004782757092350193 0 0 0 0
6131442 -0.33552790786183617 0.014521153651551077 0.0003691139480520082 0.0048263858013335055 0 0 0 0
6164388 -0.3355993789109401 0.014745091681287726 0.0003509585874934659 0.004896977881518768 0 0 0 0
6197334 -0.33582399583660016 0.014570394834212626 0.0003641001363470372 0.0049720481850874946 0 0 0 0
6230280 -0.3355365733855605 0.014454322851447743 0.0003279940652928537 0.005017404068008276 0 0 0 0
6263226 -0.335849056548144 0.014404768503713132 0.0002857291897520077 0.005048509417118972 0 0 0 0
6296172 -0.3356254844747153 0.014230694048962897 0.0002303247956015828 0.005076767155985961 0 0 0 0
6329118 -0.33557379074559013 0.014018853330521538 0.0001873337853248481 0.005105055673185654 0 0 0 0
6362064 -0.3357586938489857 0.014220857180988526 0.00013533533996137154 0.0051319788172304375 0 0 0 0
6395010 -0.3358621574134259 0.01401301770779266 3.27413164826361e-05 0.005138297640994205 0 0 0 0
6427956 -0.3358742595028903 0.013571646580776529 -2.4265279761756495e-05 0.005133446858605257 0 0 0 0
6460902 -0.33631086505572677 0.013481103894935589 -0.00010604494699357437 0.0051328644338827405 0 0 0 0
6493848 -0.33609796881908977 0.013374101785432743 -0.0002100518623941216 0.005117061731003599 0 0 0 0
6526794 -0.33648663957432223 0.013116516251216686 -0.00034880568469667733 0.005063081266263151 0 0 0 0
6559740 -0.336643342521516 0.01300841550985564 -0.0004624888637381497 0.005029605827774872 0 0 0 0
6592686 -0.33652141318757506 0.013057688738368517 -0.0006329050254673651 0.0049123287291812446 0 0 0 0
6625632 -0.33657856816439036 0.012600756281751323 -0.0008483082814503357 0.004841706510047053 0 0 0 0
6658578 -0.3368207871119654 0.012068220635761965 -0.001105691526957773 0.00474400597812907 0 0 0 0
6691524 -0.33717948517588275 0.01191801240676646 -0.0013594841492015697 0.004619580687669277 0 0 0 0
6724470 -0.3377893416582803 0.011745224979866421 -0.0017307401066894098 0.004423457303811428 0 0 0 0
6757416 -0.3380571771765391 0.011593557613365096 -0.0021596805195768167 0.004295188379172755 0 0 0 0
6790362 -0.3384418051486415 0.010968559498799914 -0.0026675099278572613 0.004110565989463967 0 0 0 0
6823308 -0.33916174508341856 0.010812562088053165 -0.0033498024218108096 0.003955512692087119 0 0 0 0
6856254 -0.3402353907750137 0.010506288861674548 -0.004208961382625365 0.0038209212657899154 0 0 0 0
6889200 -0.34140043664482955 0.010469224788369577 -0.005252643501692817 0.003827418923059988 0 0 0 0
6922146 -0.34170536286715236 0.008326038011191458 -0.006501827896254387 0.004001297159483998 0 0 0 0
6955092 -0.3431096935161203 0.00869030916705899 -0.007994902109492275 0.004485102583028406 0 0 0 0
6988038 -0.3446942254212624 0.009446028836813067 -0.009641583824202833 0.005425901359327129 0 0 0 0
7020984 -0.3462732887231963 0.011316977129348739 -0.01130864740495557 0.007056550342549791 0 0 0 0
7053930 -0.34745324116671067 0.013638474152947892 -0.012433814542711941 0.009410314819200382 0 0 0 0
7086876 -0.3477582551937957 0.0163357813808237 -0.01271195300825249 0.012217993695613438 0 0 0 0
7119822 -0.3470019707894228 0.019293316149461188 -0.011958042133540766 0.014918197761212426 0 0 0 0
7152768 -0.3451989897848371 0.021347621627333436 -0.010435809347171048 0.017090963611824665 0 0 0 0
7185714 -0.34322869550169477 0.022819140446280927 -0.008564288839859123 0.018414305470890145 0 0 0 0
7218660 -0.3409668100558541 0.02290578224616998 -0.006743902672560877 0.019120100229738205 0 0 0 0
7251606 -0.33963225669421837 0.02330617049460906 -0.0052219697532353004 0.019293386485089707 0 0 0 0
7284552 -0.33825274821452356 0.022935334636455522 -0.003917168368579373 0.019223418928791584 0 0 0 0
7317498 -0.3373775863363014 0.022483531414256103 -0.0029308000228679093 0.01905426390184737 0 0 0 0
7350444 -0.3360428761030703 0.02234036411851253 -0.002150344173875031 0.018803041613039525 0 0 0 0
7383390 -0.33556839814169476 0.021948181127044893 -0.00149157547208986 0.018502289562270867 0 0 0 0
7416336 -0.33494461732748504 0.0211716579623098 -0.0009735367280594208 0.018274879762436733 0 0 0 0
7449282 -0.3345460516633187 0.020954118480066085 -0.0005542904723956771 0.018039867337131314 0 0 0 0
7482228 -0.3342332104989777 0.02075689966108741 -0.00023849677694533865 0.01780631606343731 0 0 0 0
7515174 -0.333873058496459 0.020504562308996055 2.8610933820734795e-05 0.017609589915839368 0 0 0 0
7548120 -0.3336094165853121 0.020179080557711202 0.00025468871771287815 0.017454582935312494 0 0 0 0
7581066 -0.33341563542887176 0.019692964155966504 0.00041518724771006244 0.017348600657436663 0 0 0 0
7614012 -0.3331914889064125 0.019400476300661704 0.0005836188410373163 0.01725323127979753 0 0 0 0
7646958 -0.33324799261815535 0.019448031966971955 0.0007387004975179079 0.01715347308880116 0 0 0 0
7679904 -0.3331063431547323 0.019145590252962072 0.000845900817368095 0.01705535845413275 0 0 0 0
7712850 -0.3330834044319122 0.018960424195264357 0.0009481352258410828 0.017005201117390567 0 0 0 0
7745796 -0.33295297399494983 0.01898447084637003 0.0010384994706942297 0.016963135678984328 0 0 0 0
7778742 -0.3326608970930864 0.018659682894848765 0.0010911086567910345 0.016973112393103437 0 0 0 0
7811688 -0.3325102737182193 0.018522675547057773 0.0011620206938295738 0.01693108652368896 0 0 0 0
7844634 -0.33252182700645533 0.018400597231277037 0.0012453062672195382 0.01691790868257338 0 0 0 0
7877580 -0.33256730429882264 0.018270146106978333 0.0012890110235993142 0.016943958661401144 0 0 0 0
7910526 -0.33241342680819164 0.018145416175413896 0.0013342044395460886 0.01692102158261107 0 0 0 0
7943472 -0.3324453994012106 0.01805784910034395 0.0013900782582330405 0.016932968473430933 0 0 0 0
7976418 -0.33253338242204933 0.017987569242434928 0.001434893256717227 0.01696311743940887 0 0 0 0
8009364 -0.3323915461375749 0.01793534106219306 0.0014992836777446613 0.016981351867615697 0 0 0 0
8042310 -0.33230330908790173 0.017799776018324973 0.0015176516955357825 0.017058099162093193 0 0 0 0
8075256 -0.33203850102931387 0.017739460749466564 0.0015472423647045197 0.017069433754811895 0 0 0 0
8108202 -0.3320764732808912 0.01759302493905302 0.0015940575149041604 0.017109187982680137 0 0 0 0
8141148 -0.33216148691495373 0.01761739836510172 0.0016209232909491186 0.017141240344480297 0 0 0 0
8174094 -0.33196065493543825 0.01757822764448453 0.001629797333579204 0.017205941078965864 0 0 0 0
8207040 -0.33215472284341563 0.017579901109561157 0.0016616176930319612 0.01729774407996515 0 0 0 0
8239986 -0.33183598482217463 0.01730212476553427 0.001687313399803967 0.017356209576466552 0 0 0 0
8272932 -0.3319504509454698 0.01732186728657889 0.0017077261436567524 0.017419405481929873 0 0 0 0
8305878 -0.3317930434795495 0.017262870135462804 0.0017626547783694871 0.017461107892529516 0 0 0 0
8338824 -0.3318692255968512 0.017228158797825632 0.001769070943704539 0.017531866558364428 0 0 0 0
8371770 -0.3317725384357444 0.017275565198669126 0.001815184800597915 0.0175655299273738 0 0 0 0
8404716 -0.33187769245935056 0.0174521214411381 0.001812342367683622 0.01765145727477123 0 0 0 0
8437662 -0.33151206572154973 0.017182284948000424 0.0018346799010224566 0.017704539622679386 0 0 0 0
8470608 -0.3315159407279016 0.0169614815895657 0.0018504794506757 0.017816992413812405 0 0 0 0
8503554 -0.33163216224628017 0.017057394544048927 0.0018923038300153025 0.01788019001524644 0 0 0 0
8536500 -0.33161411029040994 0.017021915586032634 0.0019361367049481979 0.017943944741569746 0 0 0 0
8569446 -0.33157718326547364 0.017022916676408324 0.0019472964344445383 0.01802112338732609 0 0 0 0
8602392 -0.33154813953006756 0.017177386862595456 0.0019666431702064016 0.018111205794978772 0 0 0 0
8635338 -0.3315039419746332 0.01716132482698414 0.0019779636843145873 0.018148193944697046 0 0 0 0
8668284 -0.33142516741055894 0.01684164922476692 0.00200174506077831 0.01828389957417387 0 0 0 0
8701230 -0.3313299150496647 0.016803196473500318 0.002024973875944979 0.01835080311958659 0 0 0 0
8734176 -0.33155847182916254 0.016888965950202922 0.002034723216755433 0.01843807861849858 0 0 0 0
8767122 -0.331565184737458 0.016995996351236296 0.002061948632920968 0.018517263730140256 0 0 0 0
8800068 -0.33148826607657605 0.0168779408139754 0.0020491551590877395 0.018599756239732177 0 0 0 0
8833014 -0.3313376570451117 0.016714148332181586 0.00205649001827375 0.018693786942088546 0 0 0 0
8865960 -0.33127528078915114 0.016766895602477364 0.00210746581476524 0.01876851292223394 0 0 0 0
8898906 -0.33134380469410235 0.016875358543320607 0.002102626506555138 0.01886216485442958 0 0 0 0
8931852 -0.331400949323564 0.0167707423266562 0.00212057588373707 0.018925448813492406 0 0 0 0
8964798 -0.3315437646743516 0.016792358667808382 0.0021880021778510955 0.019051723278364404 0 0 0 0
8997744 -0.3312053314662816 0.016919596756864913 0.0021565871017878453 0.019153929361196902 0 0 0 0
9030690 -0.33113294180400543 0.016726172787201562 0.0021801594544111932 0.019212596594116484 0 0 0 0
9063636 -0.33119417778496724 0.016689895634563558 0.0022014068713044604 0.01929041744920673 0 0 0 0
9096582 -0.3312087258560264 0.016711475422003474 0.002221171851969912 0.019392525609620456 0 0 0 0
9129528 -0.3311829554950717 0.016738428369360594 0.0022579856434112554 0.019508848309241884 0 0 0 0
9162474 -0.33108861727286315 0.01675863555324866 0.002245532494294715 0.019603787977681437 0 0 0 0
9195420 -0.33100452171082856 0.016704899687791364 0.002263524470452211 0.019677195245221383 0 0 0 0
9228366 -0.3310396117903101 0.016744310405329286 0.0022845461930036362 0.019753406957238203 0 0 0 0
9261312 -0.3311271555535233 0.016570352434025014 0.0022776378980651846 0.019853023329865924 0 0 0 0
9294258 -0.3310433078503721 0.016642313433795342 0.0023232968700674247 0.01993459842593059 0 0 0 0
9327204 -0.33114926001213196 0.016690024640406947 0.0023549854364679507 0.020068540643097783 0 0 0 0
9360150 -0.33096615760623704 0.016617074187955688 0.0023630115894159383 0.020133103856319192 0 0 0 0
9393096 -0.331377467238811 0.016739941040036777 0.0023971417837374788 0.020231018205455926 0 0 0 0
9426042 -0.3308568904559595 0.01686409951494337 0.002413712148984762 0.020352628308903876 0 0 0 0
9458988 -0.3309818529458044 0.016643801265381192 0.0023963690094199307 0.020427335372621338 0 0 0 0
9491934 -0.33079874522196245 0.016550466561624743 0.0024438367075679457 0.020514420316734876 0 0 0 0
9524880 -0.33090799013200306 0.016687812268309683 0.0024280118909887727 0.02057738378477391 0 0 0 0
9557826 -0.3308791520246111 0.01653821956271746 0.0024697799968494655 0.02070294647197592 0 0 0 0
9590772 -0.3308902584984249 0.016598937112890223 0.0024929711989342403 0.020761751149393468 0 0 0 0
9623718 -0.33077599890525294 0.01667313662734235 0.0025137836406528102 0.02087346185321151 0 0 0 0
9656664 -0.3307838174041485 0.016742279119127446 0.00252071945905204 0.020947838183872896 0 0 0 0
9689610 -0.33078053998891094 0.0165365651264424 0.0025453473225886206 0.02106785710514845 0 0 0 0
9722556 -0.3309725152520692 0.016704377282040567 0.0025695570130994747 0.021144861354253437 0 0 0 0
9755502 -0.3310389933431901 0.01662020190737087 0.002576961927608126 0.021258559900339587 0 0 0 0
9788448 -0.33079420933655207 0.016774306949279956 0.0025627523043399 0.02132941771939269 0 0 0 0
9821394 -0.3307250205579729 0.01669593211532193 0.0025981371135113344 0.021420749109256707 0 0 0 0
9854340 -0.3307154463866317 0.016597160151656142 0.0026356726109192734 0.02153406445451654 0 0 0 0
9887286 -0.3307850952174517 0.01649078561370754 0.002643388861681102 0.021627014020539594 0 0 0 0
9920232 -0.33067463304542555 0.016621410313387725 0.0026975571471733123 0.021703904411083556 0 0 0 0
9953178 -0.33056886942044356 0.016561998053069456 0.0027120623744903666 0.02182806461468072 0 0 0 0
9986124 -0.330916368760887 0.016742071476798348 0.002702114177516864 0.02197779671105329 0 0 0 0
10019070 -0.33054466165932356 0.016651775845691826 0.0026917710690110242 0.022013457879207665 0 0 0 0
10052016 -0.3305921741358642 0.016619168476094036 0.002749535923902447 0.022099290168719653 0 0 0 0
10084962 -0.33077821049818373 0.016645410074569787 0.002742985784846872 0.022217638292974955 0 0 0 0
10117908 -0.33069400972084584 0.01653207045286471 0.002775572648302322 0.0223211782939155 0 0 0 0
10150854 -0.33069083853798886 0.01653324376226966 0.0028055984305538698 0.022425964250992168 0 0 0 0
10183800 -0.3308045938353517 0.016595201197461686 0.002825575268134271 0.02253259189993956 0 0 0 0
10216746 -0.3305849065454452 0.016767318372855004 0.0028480541177440593 0.022602188725049353 0 0 0 0
10249692 -0.3304077992765324 0.016735078537600742 0.0028403333838640816 0.02269975791866812 0 0 0 0
10282638 -0.3306371044651498 0.016493701901731724 0.0028720305717360095 0.022773924530298244 0 0 0 0
10315584 -0.330662061020186 0.01670305666510989 0.0029033451052951254 0.02287580384979064 0 0 0 0
10348530 -0.33053404567687744 0.016618951490853125 0.0029235389950907496 0.02299564474783562 0 0 0 0
10381476 -0.33072879389734994 0.016680690482958595 0.002955045054269472 0.02309098251385195 0 0 0 0
10414422 -0.3304167577681386 0.016533489826749573 0.002918119278872196 0.02317762448783051 0 0 0 0
10447368 -0.33046994247422284 0.01653568250345792 0.0029659010968164532 0.02328671014013541 0 0 0 0
10480314 -0.3305315215003218 0.016698510687831174 0.0029519490424752552 0.023388145954890256 0 0 0 0
10513260 -0.3305122185053505 0.016571242925889594 0.002978234345526327 0.023436577299280222 0 0 0 0
10546206 -0.3306012698811444 0.01666096378272552 0.0030260590870537806 0.023561462014011547 0 0 0 0
10579152 -0.33047659521835177 0.016731030009543596 0.0030569593111083007 0.023624298412163774 0 0 0 0
10612098 -0.33037008868692747 0.016713613370987798 0.0030640191814925864 0.0237828568424794 0 0 0 0
10645044 -0.33036528656162256 0.016646072999555613 0.0030611229614342077 0.023864110099724573 0 0 0 0
10677990 -0.3304054620289524 0.01692443492909681 0.003116618304462681 0.023953005831186647 0 0 0 0
10710936 -0.3305492886171094 0.01673756763819312 0.0031430797187926986 0.024032562164599904 0 0 0 0
10743882 -0.330224427689666 0.016618305930230694 0.0031227486300868766 0.02416022866978285 0 0 0 0
10776828 -0.33027219475335656 0.0167055413420727 0.0031226375714943485 0.024254762450370865 0 0 0 0
10809774 -0.330314649536422 0.016862128541388577 0.003161265066220231 0.024346481146626374 0 0 0 0
10842720 -0.33031760768522417 0.016870229875213246 0.0031924225561001905 0.024427409509476524 0 0 0 0
10875666 -0.3303256551873285 0.01677681419733931 0.00321975165050962 0.02454807057336223 0 0 0 0
10908612 -0.3303137859626732 0.016704181468772037 0.0032050139076480137 0.02462283669170951 0 0 0 0
10941558 -0.33029323739843136 0.01671034611763282 0.0032459260188664268 0.02471483456491094 0 0 0 0
10974504 -0.33034102926102477 0.016686939134578572 0.003226498015459772 0.02483376634529796 0 0 0 0
11007450 -0.33035978403360067 0.01681876908705904 0.003267251077316216 0.02493260144324351 0 0 0 0
11040396 -0.330288030571437 0.016780062063268583 0.0033003084116406947 0.025023232211147904 0 0 0 0
11073342 -0.33045856712265215 0.01683463238780191 0.0033435656364778866 0.025109932758917854 0 0 0 0
11106288 -0.33022409177648554 0.016900548048105646 0.0033374370389162565 0.025208600610907586 0 0 0 0
11139234 -0.3301522516832754 0.016691326241970474 0.0033603073301024487 0.025299900590156802 0 0 0 0
11172180 -0.3301125080598397 0.016651883871523165 0.0033772283432760594 0.025409992516953497 0 0 0 0
11205126 -0.33021150320646814 0.016754258266542782 0.003395215156980561 0.02551798435101647 0 0 0 0
11238072 -0.3302559831967995 0.016714664350274966 0.0034062401525594066 0.025589104367119146 0 0 0 0
11271018 -0.33022787382350266 0.016897472853639038 0.0034392479634620912 0.025678724118270085 0 0 0 0
11303964 -0.3302930703438414 0.01682847264398121 0.003480939116272582 0.02578088821518907 0 0 0 0
11336910 -0.33018339892706977 0.016782664506950595 0.003483825288139437 0.02587755534441667 0 0 0 0
11369856 -0.3301763391659851 0.01693043836170555 0.00351058243996158 0.025996174237710865 0 0 0 0
11402802 -0.3301708297653951 0.016736152906745013 0.0035103960530095206 0.026107925370359983 0 0 0 0
11435748 -0.33012596836867186 0.016622157169374065 0.0035434121788896 0.02619144399524809 0 0 0 0
11468694 -0.33018160641396826 0.016824589883020113 0.003507095071549311 0.026250238797874782 0 0 0 0
11501640 -0.33003627617430925 0.01673491637098184 0.003563591268400369 0.02634221045530887 0 0 0 0
11534586 -0.33034440979289253 0.016891575543134193 0.0035706826575910276 0.026474003762342973 0 0 0 0
11567532 -0.3301205822842759 0.01681694865413015 0.0035683228420735486 0.026590794920014406 0 0 0 0
11600478 -0.329986584128511 0.016815737697108955 0.0036116473193884336 0.026671481656940024 0 0 0 0
11633424 -0.3300850473718014 0.016940478752111864 0.0036339271154434078 0.026773197134877098 0 0 0 0
11666370 -0.33005330851602127 0.017033959632106153 0.0036088897823401828 0.02681396025657668 0 0 0 0
11699316 -0.3300795276181018 0.016868960669070572 0.003736910675462811 0.026950249829566484 0 0 0 0
11732262 -0.3302726091278175 0.016834196786293557 0.0036783448152977838 0.027053747376633474 0 0 0 0
11765208 -0.3299147594219031 0.017047033732886505 0.003726387677617938 0.027141468702115742 0 0 0 0
11798154 -0.3300322540497735 0.016878056761887507 0.0037464459331647756 0.02726256499230666 0 0 0 0
11831100 -0.33003218280344204 0.016970173049386743 0.003755248287545765 0.02731995041143601 0 0 0 0
11864046 -0.3299800834626864 0.016958625362308348 0.0037820868570020037 0.02743675262516757 0 0 0 0
11896992 -0.33019007733685907 0.01696603020761674 0.003804000113182251 0.027535794149379116 0 0 0 0
11929938 -0.33015328325232085 0.01713153368867647 0.0038203368815094424 0.02759881109017684 0 0 0 0
11962884 -0.3298920652736999 0.01703261489157944 0.0038401283502214226 0.027724356243086397 0 0 0 0
11995830 -0.32979167796482894 0.01678761658387973 0.0038642005042101627 0.027812334644464157 0 0 0 0
12028776 -0.32984225630253444 0.01694007134253266 0.0038950502222935227 0.027921640313110042 0 0 0 0
12061722 -0.3300404885346646 0.017003882422942384 0.0038987612490949345 0.027996477536423404 0 0 0 0
12094668 -0.3298873135310736 0.017098423307947246 0.003909062702962858 0.02807587211341552 0 0 0 0
12127614 -0.3299931712830711 0.017238241899373615 0.003936701402753726 0.028182897728968974 0 0 0 0
12160560 -0.3301563956358026 0.017013910942233444 0.003981121220007149 0.02829647963597223 0 0 0 0
12193506 -0.33010410050515415 0.01707563461937919 0.003992362304505215 0.028399246156800027 0 0 0 0
12226452 -0.3297677847671324 0.017147291938849465 0.003996806767176425 0.028495453534605295 0 0 0 0
12259398 -0.33006044834363824 0.017183979917558066 0.0040287079357441205 0.028564026650073363 0 0 0 0
12292344 -0.33017002927348366 0.01727089378517471 0.004043816126408619 0.02864508229518937 0 0 0 0
12325290 -0.3299903490927255 0.017133861371165012 0.004075718858676965 0.028773886969109656 0 0 0 0
12358236 -0.3299770252153192 0.01694573272836554 0.004081325098532261 0.028876907288664787 0 0 0 0
12391182 -0.32975750268805054 0.016969519468020618 0.004122342695991122 0.02896687536640505 0 0 0 0
12424128 -0.32974529681594617 0.017124030868761256 0.004163776678015832 0.0290255928665656 0 0 0 0
12457074 -0.32997131061208657 0.017085453581014782 0.004185928183468024 0.029123785031455338 0 0 0 0
12490020 -0.3302249952485508 0.017398990718143235 0.004192659896459317 0.02924311087222372 0 0 0 0
12522966 -0.3301546972910525 0.017266394232652485 0.0041969199881903615 0.029334092384921805 0 0 0 0
12555912 -0.33006621786601464 0.017293130974874553 0.004235831810326868 0.02939953995325797 0 0 0 0
12588858 -0.33016391433120823 0.01734623976722666 0.004263402485071346 0.029509169587862906 0 0 0 0
12621804 -0.32976172697020845 0.01710064167657525 0.004235922584509507 0.029640376630716645 0 0 0 0
12654750 -0.32992576012125413 0.017295520415121116 0.004276599404932849 0.02974238012179095 0 0 0 0
12687696 -0.3297803045123815 0.017168247159975523 0.004324482465515047 0.029771458301550088 0 0 0 0
12720642 -0.32972520329568367 0.017330040031756318 0.004346460330863367 0.0298684664417768 0 0 0 0
12753588 -0.3297812757258671 0.017310063906280395 0.004356389118137478 0.030040482876531736 0 0 0 0
12786534 -0.33007635387835393 0.017342289727668665 0.004375657144259573 0.030088634273993223 0 0 0 0
12819480 -0.33006491135173877 0.01744899038917399 0.0044048409282269625 0.030199329620912933 0 0 0 0
12852426 -0.32984642057943236 0.017363491544112326 0.004428610184671257 0.03031276288485845 0 0 0 0
12885372 -0.3298546496397189 0.01728321245931602 0.004428908603808086 0.030360815098408794 0 0 0 0
12918318 -0.3295694374888877 0.017482736359763718 0.004478458272535221 0.030486229083856013 0 0 0 0
12951264 -0.33001603422421866 0.01741391678137681 0.004504941610753417 0.03053962699275885 0 0 0 0
12984210 -0.3297320116278325 0.017359937921940783 0.0044897880528133914 0.03068258304609952 0 0 0 0
13017156 -0.3300730980658567 0.017603543298250354 0.004529420476430898 0.03076341856874412 0 0 0 0
13050102 -0.32948438342529623 0.017352708903375366 0.004580737877421846 0.03085325420323311 0 0 0 0
13083048 -0.32992595836852184 0.017323137908120664 0.004598163634275931 0.03094798534885575 0 0 0 0
13115994 -0.32971558473454843 0.017439517241641573 0.004610597761215823 0.03101043205411048 0 0 0 0
13148940 -0.32967243977772925 0.017408046585153627 0.004638524478396807 0.03111394010836052 0 0 0 0
13181886 -0.3295928443912869 0.017414959102905792 0.004628786682467748 0.031228589951200824 0 0 0 0
13214832 -0.3296795193045068 0.017340450198862767 0.004691131443782353 0.03131050495177307 0 0 0 0
13247778 -0.32975057979736005 0.01749908745061578 0.00470662597780844 0.03139979947265657 0 0 0 0
13280724 -0.3296872936551374 0.0175615395309954 0.004728024813856622 0.03152367754828599 0 0 0 0
13313670 -0.3297748180041037 0.01758551111325598 0.00471715095805715 0.03158012361315896 0 0 0 0
13346616 -0.3296864270618358 0.017563370065303473 0.004785682032826572 0.03169200539352321 0 0 0 0
13379562 -0.32992720627388655 0.017790896839241108 0.004801877990245608 0.031775866839079986 0 0 0 0
13412508 -0.329664484220908 0.017560304948580265 0.004796565356388406 0.031888167079876246 0 0 0 0
13445454 -0.3299435825844247 0.017697543695913115 0.004830004453102352 0.031997439380794065 0 0 0 0
13478400 -0.33008751763752414 0.017691737769462056 0.004857114900835867 0.032085146976098614 0 0 0 0
13511346 -0.32965509908272234 0.017624565474928737 0.004895501470590095 0.032161741472606566 0 0 0 0
13544292 -0.3299698302856007 0.017511125390845515 0.004901187225318877 0.03226778603477626 0 0 0 0
13577238 -0.3298866161738683 0.017754227139242254 0.004918310553968718 0.03235141480468112 0 0 0 0
13610184 -0.3297744373109403 0.017746862182052327 0.004942963691902269 0.03244530792527829 0 0 0 0
13643130 -0.3297406094050504 0.017683006038619224 0.004990692191020798 0.03252235396440761 0 0 0 0
13676076 -0.32973295077410997 0.017683499828078965 0.004995925087947717 0.03264919742667729 0 0 0 0
13709022 -0.3296833958200445 0.017804197236973157 0.005007364698488116 0.032713000494894034 0 0 0 0
13741968 -0.3298656513830927 0.01774980309709957 0.005024834611865935 0.0327898704807408 0 0 0 0
13774914 -0.3297865409801301 0.017659637464228214 0.005058732143274153 0.03288247326697892 0 0 0 0
13807860 -0.32956887016205483 0.017709102016177602 0.005089100915016366 0.03301873553055769 0 0 0 0
13840806 -0.32970695919034837 0.0177343731588689 0.005137324073872715 0.03310723315101954 0 0 0 0
13873752 -0.3296415099883573 0.017872565535774588 0.005151174423783351 0.033172714634364664 0 0 0 0
13906698 -0.3296860990151479 0.01784188744563787 0.005138817013216852 0.03323946437418051 0 0 0 0
13939644 -0.32967491034520735 0.017722007523198042 0.0051748757006295715 0.03338340520241128 0 0 0 0
13972590 -0.3295468562935724 0.017706666658438387 0.0052161539036104715 0.03345862850092586 0 0 0 0
14005536 -0.3298307107234795 0.017874074271933115 0.005277509353833223 0.033557904749605724 0 0 0 0
14038482 -0.32957477181658357 0.018045902889706027 0.005302541737588255 0.03366755379925629 0 0 0 0
14071428 -0.3297512327779624 0.017866451245368134 0.005294985241119306 0.03377597340878858 0 0 0 0
14104374 -0.3298348848829476 0.017948639519324284 0.005324898426590879 0.03385152475434789 0 0 0 0
14137320 -0.3297837237610798 0.018034625449354143 0.0053435209962554835 0.033946902442049294 0 0 0 0
14170266 -0.329623504780855 0.017901369080715112 0.005353178920646856 0.03402846561939603 0 0 0 0
14203212 -0.3296463737772089 0.01784596797542223 0.005369899889643892 0.03411350337749499 0 0 0 0
14236158 -0.3296311898530115 0.018007990235416656 0.005411296112497029 0.03419504088657326 0 0 0 0
14269104 -0.3295778732050359 0.01804168311132847 0.005453937315747771 0.03427346158783313 0 0 0 0
14302050 -0.3296593287645328 0.01809381510262724 0.005467220115752408 0.034396471047243214 0 0 0 0
14334996 -0.32988320039409785 0.018245532321050605 0.0054797856545138485 0.0344982375429141 0 0 0 0
14367942 -0.3295001160861963 0.017885452058009902 0.005501121159002403 0.03457326566749577 0 0 0 0
14400888 -0.3297479344180312 0.01812006233244889 0.0055451735471271305 0.034668848815332914 0 0 0 0
14433834 -0.3295219907612606 0.018094453027824458 0.005595203560794411 0.03475252734266129 0 0 0 0
14466780 -0.3297704977077383 0.018082792385457507 0.0055771543805269615 0.03486981601142469 0 0 0 0
14499726 -0.32967546089562827 0.018261187870671693 0.0056047790803803775 0.034969815400229115 0 0 0 0
14532672 -0.32968565120096377 0.01829722766597511 0.005645151872362874 0.03505025511232249 0 0 0 0
14565618 -0.32964910619480026 0.018124894245939712 0.0056863650139771325 0.035144320936864704 0 0 0 0
14598564 -0.32959944175514144 0.017943937540370825 0.005675907789532154 0.03521261643258301 0 0 0 0
14631510 -0.32971406672582004 0.018238521480861223 0.005728906395672262 0.03530432890227372 0 0 0 0
14664456 -0.3296888370334842 0.018321177261278427 0.005767888503014033 0.035391185304880744 0 0 0 0
14697402 -0.32972881220372197 0.01831145498527938 0.005751965761614229 0.03548897380685399 0 0 0 0
14730348 -0.3296859757580245 0.01831180026022802 0.0057681455584874045 0.03558618229556092 0 0 0 0
14763294 -0.3297722809765959 0.018291264784097296 0.005791749010967104 0.035693433638359855 0 0 0 0
14796240 -0.32964345146634844 0.01842351643259775 0.005839986729516323 0.03579708388683963 0 0 0 0
14829186 -0.3295050340516983 0.01813577705122687 0.005858596221345869 0.03586342536546838 0 0 0 0
14862132 -0.32951332440433495 0.018389940128630933 0.005900664820605309 0.035926886252458275 0 0 0 0
14895078 -0.32979935491918455 0.01840044036293072 0.005911081169025716 0.03603001069535244 0 0 0 0
14928024 -0.32966685812479335 0.018335929296350993 0.005934614228985488 0.03615087944701961 0 0 0 0
14960970 -0.32980582987342594 0.01840422131738056 0.00597046576091999 0.036282066447859224 0 0 0 0
14993916 -0.3295581849501157 0.01824886122857293 0.005967660607269583 0.03631012447492096 0 0 0 0
15026862 -0.3296331483816126 0.018428866371175138 0.006026419933020897 0.03643773088638363 0 0 0 0
15059808 -0.32968721388339217 0.018652312789847268 0.006069568574183203 0.036488552904037005 0 0 0 0
15092754 -0.32975718775287693 0.018512332049041978 0.006075845824713624 0.03661800759199418 0 0 0 0
15125700 -0.3297011595127039 0.0186627493430251 0.006115241928722202 0.036681385249665834 0 0 0 0
15158646 -0.3296817760955591 0.018565243775897734 0.006131019637967965 0.036813627462783535 0 0 0 0
15191592 -0.32957540052184153 0.018340078701017243 0.006118505382882006 0.036848826720707314 0 0 0 0
15224538 -0.3296116145953472 0.018408858009066737 0.006166224439811976 0.03695891117303175 0 0 0 0
15257484 -0.3296645906585729 0.01870380743904788 0.00622015343150313 0.037035271743874665 0 0 0 0
15290430 -0.3298293038069217 0.018505013169442523 0.006247398730100681 0.03715189598185792 0 0 0 0
15323376 -0.3296788227161512 0.018626632322899902 0.006219223530937368 0.037250143019504724 0 0 0 0
15356322 -0.3296979610797578 0.018733660393772816 0.006282492538463879 0.03731329587461435 0 0 0 0
15389268 -0.3297269679720537 0.018681092571310218 0.006295917672506132 0.03743546296687331 0 0 0 0
15422214 -0.3295658595719027 0.018395795086130515 0.006336968527291774 0.03748029565720747 0 0 0 0
15455160 -0.32969488049913037 0.018775327604515498 0.006362527812203919 0.037596678319513424 0 0 0 0
15488106 -0.3295625935655786 0.01882651797734482 0.006385838452039598 0.037703083996120726 0 0 0 0
15521052 -0.32975725872657885 0.018743367665688824 0.006420137362611972 0.03778948295084111 0 0 0 0
15553998 -0.329627257207209 0.018695964674912184 0.006466612303975541 0.03787071325865003 0 0 0 0
15586944 -0.32951780327811026 0.018558782586088313 0.00644969224428911 0.03795680516286622 0 0 0 0
15619890 -0.32950875554782955 0.018860094964728055 0.006490309173254434 0.038063126368457156 0 0 0 0
15652836 -0.3295801008116274 0.018795432967899903 0.006475447305790156 0.038161023944627066 0 0 0 0
15685782 -0.32964191569687173 0.018826794223716907 0.00652577850238158 0.03818866523469646 0 0 0 0
15718728 -0.3296167952697801 0.018900159205611236 0.006525478140253619 0.03836414623569007 0 0 0 0
15751674 -0.3296525813090724 0.018838337430261278 0.006599562957079193 0.03835421740892102 0 0 0 0
15784620 -0.32972288617846995 0.01901914769508287 0.006749484695548867 0.038603569231388364 0 0 0 0
15817566 -0.32960329748462364 0.01880235445350601 0.006577564985735818 0.038530400728711015 0 0 0 0
15850512 -0.32972598820833526 0.018969586889098552 0.0067356304003342955 0.03869730185397527 0 0 0 0
15883458 -0.32961487993069344 0.018961795698124465 0.006747586429024735 0.03871676528496298 0 0 0 0
15916404 -0.32976182790327585 0.018840745025590515 0.00674770522407559 0.038887795743685456 0 0 0 0
15949350 -0.3295370205776956 0.01901350110072473 0.006802360015170347 0.03891678942943457 0 0 0 0
15982296 -0.329435164066937 0.018926029915403493 0.006809851422137317 0.039081459390135825 0 0 0 0
16015242 -0.3295902931294477 0.01901399297427285 0.006805333496708101 0.03913770909103963 0 0 0 0
16048188 -0.3296362081785395 0.019012709715609647 0.006858488635478205 0.039216048977909784 0 0 0 0
16081134 -0.32965347748010904 0.01908931236522513 0.006866304190454409 0.03932600010531223 0 0 0 0
16114080 -0.3296086859845697 0.019004277153044067 0.006927880955632285 0.03938957637670754 0 0 0 0
16147026 -0.32951435687878167 0.01898316741420821 0.006952313217260647 0.03949591615998296 0 0 0 0
16179972 -0.3295486003628498 0.019314381803870222 0.007023725869586586 0.03957421427777949 0 0 0 0
16212918 -0.3298112792925285 0.019109495400201928 0.006968778651481116 0.039655059939497146 0 0 0 0
16245864 -0.3294939054138097 0.01894974213032344 0.006999895111584226 0.039753193905910936 0 0 0 0
16278810 -0.32941208582628345 0.019148091719256972 0.007062900451445103 0.03983865381015992 0 0 0 0
16311756 -0.3295148531397472 0.019238752091193793 0.007081653549653577 0.039933111679219924 0 0 0 0
16344702 -0.3296827721989166 0.019256607962496182 0.007118914173593415 0.04003990685766331 0 0 0 0
16377648 -0.3299483544211512 0.019187290409944355 0.0071123081894517 0.04014416061055419 0 0 0 0
16410594 -0.3294744166794692 0.01931673883628814 0.007170320870531244 0.04018569752589931 0 0 0 0
16443540 -0.32954214010670807 0.019145864271211413 0.007222680329518553 0.040287911070067496 0 0 0 0
16476486 -0.3296088462962363 0.019307672609306315 0.007224132092947377 0.04036204652043965 0 0 0 0
16509432 -0.3294705704496224 0.019268015175321482 0.007258599231788931 0.0404920605371589 0 0 0 0
16542378 -0.32974821964007467 0.01933992941357967 0.0072753708134598635 0.0405990066517643 0 0 0 0
16575324 -0.32957280466758027 0.019224649155168173 0.007284672754838451 0.04059805961614724 0 0 0 0
16608270 -0.3295858152464197 0.019465371501030018 0.007357699627655637 0.0407672653577773 0 0 0 0
16641216 -0.32944295065404566 0.019472400503828143 0.00736042722663608 0.04080101131137809 0 0 0 0
16674162 -0.3296446017726338 0.01965074371325414 0.0073969032018342444 0.04094002426219559 0 0 0 0
16707108 -0.3294187103823654 0.01963547050822002 0.007415356938810808 0.040998566550455105 0 0 0 0
16740054 -0.3296212199662204 0.0194336603080204 0.007487611530078145 0.041100376518017595 0 0 0 0
16773000 -0.3298680895511897 0.01956373391136964 0.007515320011914248 0.041197424728654744 0 0 0 0
16805946 -0.32920246573192813 0.019430350962936577 0.007515719828282323 0.0412223266234089 0 0 0 0
16838892 -0.32944304675377195 0.019274894329344254 0.007551267375219901 0.041365396816475 0 0 0 0
16871838 -0.32992377077093216 0.019665421091886643 0.007579761275149285 0.04145029408607564 0 0 0 0
16904784 -0.32961210530959456 0.019639015609894974 0.007590950291500904 0.04152252297148928 0 0 0 0
16937730 -0.3296700502608628 0.01954825683316301 0.007683176976247324 0.04162429937025888 0 0 0 0
16970676 -0.32946810848161184 0.019575777817959546 0.007636194074186279 0.04165130702573589 0 0 0 0
17003622 -0.32975848678735925 0.0197457115703309 0.007751559275905153 0.041763893901840564 0 0 0 0
17036568 -0.32956736784932783 0.019792866417427227 0.007753106734980751 0.04185348400043989 0 0 0 0
17069514 -0.3296163947164597 0.019756638910393268 0.007775411476144143 0.0420485425462001 0 0 0 0
17102460 -0.32952714111967485 0.01977972943085275 0.00781592406091947 0.04206090202072688 0 0 0 0
17135406 -0.32972066902460107 0.019643455617074063 0.007832041301112579 0.042177369046053945 0 0 0 0
17168352 -0.32965820502932336 0.01962217785286192 0.007867279981725189 0.04224145638236557 0 0 0 0
17201298 -0.32960893713561235 0.019726278880348756 0.007899405881224505 0.04237504116041473 0 0 0 0
17234244 -0.3299199349324209 0.019878462836598703 0.007887783067902247 0.042417112357043596 0 0 0 0
17267190 -0.3297007031144246 0.019802724038553612 0.007951329767249911 0.04250980747664931 0 0 0 0
17300136 -0.32950754596527265 0.019822612850444555 0.00800042961236264 0.04257827122641333 0 0 0 0
17333082 -0.3294996430896587 0.019837595369051494 0.00800761311830473 0.04264484481269655 0 0 0 0
17366028 -0.3297378341083784 0.019912321392815086 0.008055986919939615 0.042765900533138654 0 0 0 0
17398974 -0.3297313991023375 0.02023995134162477 0.008098978546237999 0.04286217821555526 0 0 0 0
17431920 -0.32975607159687587 0.019949985348378746 0.00802985129691127 0.04300931761549232 0 0 0 0
17464866 -0.3297819944332819 0.019876885208144384 0.007943921388068228 0.04316622956996635 0 0 0 0
17497812 -0.3295838918629834 0.019902537246177784 0.008266591360120628 0.04327214201397696 0 0 0 0
17530758 -0.32915704422445163 0.019857304550357145 0.007990431358087306 0.04349598560632135 0 0 0 0
17563704 -0.3294490057255615 0.020208038886517832 0.008383538888657532 0.04338969330296117 0 0 0 0
17596650 -0.3295444198145527 0.02017529854546603 0.00828274579251265 0.04332035865659736 0 0 0 0
17629596 -0.3297300355178165 0.02001687709534208 0.00833484665789639 0.04338261060587458 0 0 0 0
17662542 -0.3292973569889241 0.020213724934286213 0.008233885727280026 0.043503416040524476 0 0 0 0
17695488 -0.3295057718337935 0.019928952380361444 0.008365150981466993 0.043641513157685254 0 0 0 0
17728434 -0.3296807548135333 0.0201045979192497 0.008374593851873627 0.04374552319377016 0 0 0 0
17761380 -0.329850337863799 0.02024305672587845 0.008411137153654217 0.04384587003442815 0 0 0 0
17794326 -0.3296026881120264 0.02019556752919529 0.00841482938096189 0.043918973914477966 0 0 0 0
17827272 -0.3296085719691519 0.02023902585378255 0.008442402625879395 0.044039758556530174 0 0 0 0
17860218 -0.3297472891787262 0.020232927451904182 0.008472652593782388 0.044122236026518796 0 0 0 0
17893164 -0.3297465081659579 0.020269857334107445 0.008522669192333682 0.04418431665848685 0 0 0 0
17926110 -0.3296169250268008 0.020068582822335652 0.00855234548791096 0.04426229860405592 0 0 0 0
17959056 -0.3295750173187043 0.02040672477031652 0.008608359565403458 0.044376317256085415 0 0 0 0
17992002 -0.32979037794289257 0.020360422426727087 0.00864124108109119 0.04448572106898168 0 0 0 0
18024948 -0.3300768451693119 0.020284518948893413 0.008617195522069439 0.04454593610237298 0 0 0 0
18057894 -0.3297054527220995 0.020291580862976836 0.008712926332188394 0.04464011336499052 0 0 0 0
18090840 -0.32987142219774307 0.020792520278973013 0.00872992656995306 0.0447024527836563 0 0 0 0
18123786 -0.3296697788675275 0.020389209580594505 0.008738839865204394 0.04480312557350407 0 0 0 0
18156732 -0.32979421110231755 0.02053692596892102 0.008765732951079486 0.04489940403795795 0 0 0 0
18189678 -0.32967896102552785 0.020357717304840487 0.008757921041382868 0.04494442396713227 0 0 0 0
18222624 -0.32974923719804183 0.020196794797344333 0.008827782513676097 0.04505203871853217 0 0 0 0
18255570 -0.3298507754089619 0.02025158457780403 0.008852230925254593 0.04508713672081262 0 0 0 0
18288516 -0.3294179110925829 0.020574618199830353 0.008892805593019176 0.04524026126498898 0 0 0 0
18321462 -0.329696109939636 0.020701446539737687 0.00894252624316587 0.04531145978603784 0 0 0 0
18354408 -0.3297357150038458 0.02096141495874713 0.009018848536436534 0.04543696017410595 0 0 0 0
18387354 -0.33006572430076103 0.020614246128068413 0.008980330493366941 0.045484673723132425 0 0 0 0
18420300 -0.3299563941624418 0.020534323008496468 0.008963150321720703 0.0455490821485594 0 0 0 0
18453246 -0.3296347533954589 0.020797193889445235 0.00908655162423531 0.045703631381234386 0 0 0 0
18486192 -0.32969940561182526 0.020692630596711777 0.009093955778669765 0.04575286147992792 0 0 0 0
18519138 -0.32965775595576907 0.020848735853780775 0.00910379166012954 0.04586193460296218 0 0 0 0
18552084 -0.32980759778378516 0.020667142286090363 0.009136061194031164 0.04589201061524244 0 0 0 0
18585030 -0.3289429583910715 0.01714839005409159 0.009182765659897806 0.04602438258340564 0 0 0 0
18617976 -0.3289079341555242 0.017131774839817284 0.009211731428714882 0.04608350879675545 0 0 0 0
18650922 -0.32880211862766456 0.017298181462352093 0.009257042338303456 0.04616914291305919 0 0 0 0
18683868 -0.3288913805849993 0.017283155467809615 0.009285522276171809 0.04626815883647294 0 0 0 0
18716814 -0.32880427204438756 0.017347618483514578 0.009270629965973096 0.046358676303794796 0 0 0 0
18749760 -0.3288793685481008 0.017260777712798915 0.009330168022826197 0.04647469221070223 0 0 0 0
18782706 -0.3287310153542986 0.017265166206797685 0.009391579021333278 0.04658924279585028 0 0 0 0
18815652 -0.32879395154788427 0.017531969323706223 0.009371522745022 0.046580281842896525 0 0 0 0
18848598 -0.32905341792802595 0.017423522491123306 0.009399627044978159 0.04673252498704138 0 0 0 0
18881544 -0.32875874237274083 0.017344000697644805 0.009480541798024301 0.04677396549619104 0 0 0 0
18914490 -0.3289910559248001 0.017244646473758583 0.00949686582336574 0.046934254581937736 0 0 0 0
18947436 -0.3289360441632017 0.017453981250976486 0.009549471203617385 0.046992395462011755 0 0 0 0
18980382 -0.32889168513535827 0.017455023302813448 0.009536599229444546 0.047011842326683144 0 0 0 0
19013328 -0.32892994724664626 0.017492799965078888 0.009584776833772964 0.0471617010541161 0 0 0 0
19046274 -0.32899518006747547 0.01760425516399108 0.009629101972674636 0.047213705312636016 0 0 0 0
19079220 -0.3289209655489861 0.017628954229247144 0.009673785403512616 0.047339936867191644 0 0 0 0
19112166 -0.32888881138171117 0.017479618952319816 0.009685899701755447 0.0473938484276935 0 0 0 0
19145112 -0.3288412816159956 0.017625858758786965 0.00974244289166628 0.047517714344648534 0 0 0 0
19178058 -0.32903465118833447 0.017574006956603806 0.00977949558175491 0.04759052000614442 0 0 0 0
19211004 -0.328906683162606 0.017608490306962588 0.009780418164703366 0.04763335800912922 0 0 0 0
19243950 -0.32895597706398155 0.01776121076411707 0.009858597009982775 0.047746800862754527 0 0 0 0
19276896 -0.3289321270726664 0.017655638842300595 0.009911189993813348 0.04784769753713645 0 0 0 0
19309842 -0.3290945396338743 0.01770836003261152 0.009907618054912118 0.04791225657617217 0 0 0 0
19342788 -0.32911762925467625 0.017867509016947107 0.009935530854910434 0.04800860392226792 0 0 0 0
19375734 -0.32880110613880725 0.01763198168402589 0.009951218718701358 0.048077761696503 0 0 0 0
19408680 -0.3291575873699083 0.017931442573738302 0.010018654981159437 0.04820394403434245 0 0 0 0
19441626 -0.3290411104431091 0.017744970587950513 0.010010908227815819 0.04827157198605032 0 0 0 0
19474572 -0.3289483734423568 0.017893289163378942 0.010055605403681485 0.04836595983966049 0 0 0 0
19507518 -0.3291520256360581 0.01793774388571649 0.010080468646239342 0.04847221374116308 0 0 0 0
19540464 -0.32911886206781604 0.01789464031235998 0.010120780223919507 0.04851805421081677 0 0 0 0
19573410 -0.3290179642676723 0.018035387617230204 0.010128884006012924 0.04860037293372535 0 0 0 0
19606356 -0.3289392945417835 0.017747173413000698 0.010177995408540039 0.04867974500803215 0 0 0 0
19639302 -0.3288546301286145 0.01777618633156601 0.010236237587321327 0.04876281686231849 0 0 0 0
19672248 -0.32899381578654163 0.017879810634829425 0.010269717026620948 0.048844996946942415 0 0 0 0
19705194 -0.328889153380426 0.018062880067411195 0.010287521413442583 0.048950156903207594 0 0 0 0
19738140 -0.32912052054762786 0.017912004475823955 0.010288976046811416 0.04901558687976969 0 0 0 0
19771086 -0.32877409961028475 0.01790756544442291 0.010352703217692433 0.0491214809305348 0 0 0 0
19804032 -0.32911206021796396 0.01815677900753617 0.010433738785642719 0.04921830437600356 0 0 0 0
19836978 -0.3290806166897465 0.018032258659605328 0.010402359369486252 0.04928673531980173 0 0 0 0
19869924 -0.3289639577034725 0.0182111712468504 0.010463453247778729 0.04931732307193923 0 0 0 0
19902870 -0.3288259303762508 0.01812350175956876 0.010505821961371224 0.04945063885434025 0 0 0 0
19935816 -0.3291132464664927 0.018285593222268026 0.010519145528748532 0.0495667497518585 0 0 0 0
19968762 -0.32891092302976044 0.018136576453281292 0.010575429919539477 0.0496469385268475 0 0 0 0
20001708 -0.32901324089934014 0.018266456294152338 0.010611834691798633 0.0497287385714136 0 0 0 0
20034654 -0.32900591297694615 0.018279189326851724 0.010643056486915698 0.049762243872990164 0 0 0 0
20067600 -0.3291357170838394 0.018269431059973005 0.010654498011716425 0.0498952590908893 0 0 0 0
20100546 -0.328962502583966 0.018246545161075968 0.010714409020047659 0.04995728584273515 0 0 0 0
20133492 -0.32906435980586757 0.01841310945898415 0.010755664431284515 0.05005559233290562 0 0 0 0
20166438 -0.32916837204637056 0.018199699149937316 0.010810853021880234 0.05018824915661989 0 0 0 0
20199384 -0.3290186179848724 0.018388808176503745 0.010795421528017698 0.050225694231230474 0 0 0 0
20232330 -0.32899946073120145 0.01845921420229278 0.010829935676705092 0.05030241281552728 0 0 0 0
20265276 -0.32939548029864985 0.01860287513980764 0.010914737778362028 0.05040908654313347 0 0 0 0
20298222 -0.3291764962261596 0.018406043283266185 0.010933787113029288 0.05046731879284051 0 0 0 0
20331168 -0.32899484833300047 0.018400327459070144 0.010957493846378747 0.050528853056236736 0 0 0 0
20364114 -0.32879240040756513 0.01831803977800417 0.010989030377128672 0.0506279547828016 0 0 0 0
20397060 -0.3292054972160124 0.01865261502094572 0.011003567234725476 0.05073350116642155 0 0 0 0
20430006 -0.32925522583539557 0.018550125765567447 0.01108519156472583 0.05084403414488415 0 0 0 0
20462952 -0.32886159125884473 0.01847007643060763 0.011089965433826617 0.05087190493358895 0 0 0 0
20495898 -0.3291470943918692 0.018647700698729976 0.011133907922292172 0.051021530913416595 0 0 0 0
20528844 -0.32889464212870123 0.018474566325791187 0.01117105351556773 0.051045558241797066 0 0 0 0
20561790 -0.32887707933504534 0.01875107043014321 0.011181847264386367 0.051169886111143814 0 0 0 0
20594736 -0.3292938431629618 0.01886142974900238 0.011298380581177655 0.05124436055330878 0 0 0 0
20627682 -0.32917049825309885 0.018678792535372753 0.011250955375307799 0.0513266911466505 0 0 0 0
20660628 -0.32920140982058005 0.018709660360884874 0.011347773294459376 0.0514556359556491 0 0 0 0
20693574 -0.3290241585631847 0.01868686324615151 0.011345785761505803 0.05149937777707784 0 0 0 0
20726520 -0.3289746149223075 0.018696015995687237 0.01136975364885747 0.05159302838948686 0 0 0 0
20759466 -0.32896684493254486 0.01865262538878222 0.01139673699389406 0.05164945735258517 0 0 0 0
20792412 -0.3292698869822532 0.01887351123538626 0.01146715661284637 0.05175361953192374 0 0 0 0
20825358 -0.3294430254470728 0.01906685210325448 0.01147158074004503 0.05185848129196483 0 0 0 0
20858304 -0.32901941733905965 0.01884319614519541 0.011518798788784508 0.05191069729342921 0 0 0 0
20891250 -0.3289122644185115 0.018918232383680293 0.011566691809999956 0.05198408991737393 0 0 0 0
20924196 -0.3289722944727075 0.01875652577303419 0.011611861651262103 0.05209656963292845 0 0 0 0
20957142 -0.32907197451984926 0.01901324272222467 0.011623219122355422 0.052159928489682414 0 0 0 0
20990088 -0.32936730640698875 0.019096741989107775 0.01165127150885941 0.052248541881775946 0 0 0 0
21023034 -0.3291808165323097 0.018977175490945988 0.011727187552143595 0.05232733703748737 0 0 0 0
21055980 -0.3293789931372936 0.019087115620286643 0.011729215042259088 0.05249021193271445 0 0 0 0
21088926 -0.32911192326889327 0.019012619482083878 0.011805783262649572 0.0525605672467988 0 0 0 0
21121872 -0.32922796644230057 0.01898190273136114 0.011824233584961031 0.052604197093539765 0 0 0 0
21154818 -0.3292878015924381 0.01922966812045025 0.011879095024905745 0.05264794318069144 0 0 0 0
21187764 -0.32917239943853094 0.01916780883748011 0.011912668096490695 0.05277499163125902 0 0 0 0
21220710 -0.3291463985311046 0.019303310567367782 0.011875761666763227 0.052862990814447515 0 0 0 0
21253656 -0.32956479065982475 0.019362751950316576 0.011991654318042888 0.05294858007950481 0 0 0 0
21286602 -0.32911621610540437 0.01910635354968012 0.011960272702583279 0.05305152627761787 0 0 0 0
21319548 -0.3292423350291811 0.01935280912224772 0.01203784212768139 0.05315018459950832 0 0 0 0
21352494 -0.32920119930618097 0.01918540523050794 0.012059893647166042 0.05319515799084173 0 0 0 0
21385440 -0.3292882070602203 0.01924724641721125 0.012086422851297449 0.05329078058589109 0 0 0 0
21418386 -0.32943684172583654 0.019466439810335162 0.012154044448777514 0.053380500589676916 0 0 0 0
21451332 -0.3291037617986787 0.019402763390853384 0.012135419881674433 0.0534206454705469 0 0 0 0
21484278 -0.3294446802501872 0.019531954863598138 0.012215430719249562 0.05351982222264153 0 0 0 0
21517224 -0.3292287695738524 0.019404144383875502 0.01227099857820957 0.05359941727629695 0 0 0 0
21550170 -0.3293277110291492 0.019404787859527775 0.012284965557267467 0.05370651258353307 0 0 0 0
21583116 -0.32939204859582255 0.019477632077898713 0.012340654910410339 0.05379560674507775 0 0 0 0
21616062 -0.32918426935699513 0.01949751889523336 0.012370118967300706 0.05387968707229278 0 0 0 0
21649008 -0.32943211481574813 0.019682085946717883 0.012379901779623292 0.05391230533688614 0 0 0 0
21681954 -0.32948643793635785 0.01981342456552536 0.01243156981657955 0.05402885877369234 0 0 0 0
21714900 -0.32912503362965384 0.019435928670834518 0.012487113008076768 0.05412799523485786 0 0 0 0
21747846 -0.32902600718371117 0.019451272253818014 0.01250828394011248 0.05419423720501429 0 0 0 0
21780792 -0.32925297441650003 0.019772948216037162 0.012559858946669975 0.05428807327942251 0 0 0 0
21813738 -0.32953320098865607 0.01989964533074712 0.01258145634425673 0.0543484128602791 0 0 0 0
21846684 -0.3295159512618415 0.019710291740902903 0.01263566569060314 0.05445464362943256 0 0 0 0
21879630 -0.32927689451440617 0.019676309549881747 0.012661774061506606 0.0545342059978017 0 0 0 0
21912576 -0.3292562985920065 0.019618302382696146 0.01269788874598292 0.05462821823202938 0 0 0 0
21945522 -0.32928669129642113 0.019761502622894174 0.012743862778875454 0.05469040744433058 0 0 0 0
21978468 -0.32923047858078125 0.019663992742624314 0.01273149771182988 0.054745787076065214 0 0 0 0
22011414 -0.3291187777772102 0.019874109681665843 0.012790213960461837 0.05488601758646902 0 0 0 0
22044360 -0.32940552356816116 0.019982697547162996 0.01286342105107281 0.05494904362879984 0 0 0 0
22077306 -0.32963363338550805 0.019822139040019743 0.012895281148256811 0.055077056766887914 0 0 0 0
22110252 -0.329329414000964 0.019920049455788482 0.012907039993619565 0.055136396813925403 0 0 0 0
22143198 -0.32924008972750357 0.020040964346423412 0.012957978934252648 0.05517984151421114 0 0 0 0
22176144 -0.3294939136613987 0.020049926260215248 0.013026158907821403 0.05531540228664929 0 0 0 0
22209090 -0.3296107438735814 0.020140755691516615 0.013047718705959816 0.05538201917588794 0 0 0 0
22242036 -0.32920411662468224 0.019982086833019632 0.013122375678591916 0.05547745851630776 0 0 0 0
22274982 -0.3294693198494757 0.020031934569629314 0.01313545986634471 0.0555674695465542 0 0 0 0
22307928 -0.32930142806558355 0.02000428978641902 0.013161698439994993 0.05563080342527939 0 0 0 0
22340874 -0.3293535002284822 0.02000668468311184 0.01320002373707136 0.05570788076429223 0 0 0 0
22373820 -0.3294303276291498 0.020003924491639843 0.013236996475903129 0.055795972237373835 0 0 0 0
22406766 -0.3292295139065445 0.020195172183700167 0.013222698910536167 0.05584024187254719 0 0 0 0
22439712 -0.3294361135641947 0.02033097150723248 0.013310131733052736 0.05593998131683331 0 0 0 0
22472658 -0.32924688493684945 0.02018799864407126 0.013375091490193931 0.056051654473596106 0 0 0 0
22505604 -0.32916740993993093 0.020259984228834266 0.013384633508917235 0.056105178850985205 0 0 0 0
22538550 -0.3294051642034725 0.020176649054197974 0.01342868084553239 0.05622225541967348 0 0 0 0
22571496 -0.32927986520329705 0.020265027034578467 0.013429790815133564 0.0563044052614978 0 0 0 0
22604442 -0.32945053341453373 0.020451835239243772 0.013515334267007526 0.05638824312537714 0 0 0 0
22637388 -0.3293380771142458 0.0204338854474325 0.013521128948909701 0.056418608977590046 0 0 0 0
22670334 -0.3296814608450144 0.020433694882131814 0.013604876064353125 0.05653645093240793 0 0 0 0
22703280 -0.3292949225966206 0.020294450491641226 0.013617390996000886 0.05662878932116066 0 0 0 0
22736226 -0.3295360232347015 0.020508325005044813 0.013689762066311718 0.05669701890923169 0 0 0 0
22769172 -0.3291832684010505 0.02035966166632919 0.013660058690613245 0.056782911148149075 0 0 0 0
22802118 -0.3294418320969498 0.02048389734982689 0.01375627457364546 0.05683578747779992 0 0 0 0
22835064 -0.329663285536911 0.02049582603742267 0.013828392219309914 0.05694207978184767 0 0 0 0
22868010 -0.3293732729456149 0.020624608097793262 0.013815763108868142 0.057009671897524906 0 0 0 0
22900956 -0.32951977438840535 0.020507081247701685 0.013834405591835566 0.05714165706775027 0 0 0 0
22933902 -0.3293366691182721 0.020540154416752575 0.013884226020772572 0.05722706528557551 0 0 0 0
22966848 -0.32943768572775506 0.020701656510567188 0.013965414762191573 0.05732348636710605 0 0 0 0
22999794 -0.3295283650330573 0.020699160151117738 0.013948205380344894 0.05736355164418832 0 0 0 0
23032740 -0.32974766036025455 0.020772216555988984 0.014043656776929606 0.05743401325719491 0 0 0 0
23065686 -0.32934196706683666 0.0207433642698869 0.014077605780466065 0.057545336577804675 0 0 0 0
23098632 -0.329647875275755 0.020741136368211194 0.014087822791370535 0.057617036980663755 0 0 0 0
23131578 -0.32946550885599046 0.02071681715615598 0.014107588330567043 0.05773183934738867 0 0 0 0
23164524 -0.3295316063871798 0.020746677112011006 0.014167470585688523 0.057800925285622036 0 0 0 0
23197470 -0.3295876886630002 0.02077639484856599 0.014196785528418281 0.057880062588279935 0 0 0 0
23230416 -0.32954671787061346 0.020899177587210153 0.014206564105748437 0.057919712141795796 0 0 0 0
23263362 -0.32958040173505787 0.020958556036626073 0.01428262241076527 0.05802058389973273 0 0 0 0
23296308 -0.32978210658741164 0.02114690679340912 0.014346393099516477 0.05812476256919599 0 0 0 0
23329254 -0.32934186969440915 0.020778662134059704 0.014373496504218045 0.05819992653715161 0 0 0 0
23362200 -0.32952876958866606 0.020945451708421936 0.014410767116492352 0.05832041380182817 0 0 0 0
23395146 -0.32939068819255746 0.020772395167760638 0.014456042703128941 0.058383959711651424 0 0 0 0
23428092 -0.32948374528994717 0.02096118435630191 0.014461693774917492 0.05845348173235881 0 0 0 0
23461038 -0.32962410820927895 0.021194223443055098 0.014576337859176799 0.05852584311683116 0 0 0 0
23493984 -0.32954008427006576 0.021061171931320257 0.014607214232785626 0.05860939249506162 0 0 0 0
23526930 -0.3294706619563713 0.021092089373737015 0.014595175812598393 0.05871645744782802 0 0 0 0
23559876 -0.32944185427008216 0.021122788635603247 0.01462673144806696 0.0587882402019969 0 0 0 0
23592822 -0.32966413900168773 0.021214516456628973 0.014699260476707323 0.05885988420531621 0 0 0 0
23625768 -0.3295531475736644 0.02112161277131529 0.014776393275855473 0.058948619878636005 0 0 0 0
23658714 -0.32965597512850553 0.02116241716472647 0.01477114816354315 0.059032772272397276 0 0 0 0
23691660 -0.32963277792147916 0.02128806121232487 0.014843979375814827 0.05909453760634434 0 0 0 0
23724606 -0.329332274134248 0.021058122981949205 0.014840090831956011 0.05915596810731095 0 0 0 0
23757552 -0.3296380440499806 0.021304639856558415 0.014885552875268994 0.05928758558989025 0 0 0 0
23790498 -0.3297357577834557 0.021553487605644833 0.014964640205636193 0.0593221225781827 0 0 0 0
23823444 -0.32996953366993637 0.02138808755156092 0.01501885004352878 0.05944683202672238 0 0 0 0
23856390 -0.3294907504808402 0.021291261339206054 0.01500866900543623 0.05953460411554093 0 0 0 0
23889336 -0.32948629853797445 0.021237975318171728 0.015050703763871614 0.05958395034974837 0 0 0 0
23922282 -0.3296409116763462 0.02141878949248563 0.015118378008792644 0.05965787206980085 0 0 0 0
23955228 -0.32964193041244333 0.02166425991443395 0.015192598221196424 0.059751663368789745 0 0 0 0
23988174 -0.32965179330671635 0.021510609556291055 0.015214807108865837 0.059808647658000647 0 0 0 0
24021120 -0.3299170631369051 0.021624783553920827 0.01528379173994247 0.059910427885999984 0 0 0 0
24054066 -0.3296742890534146 0.021425503651022873 0.01529193055157453 0.059990839844976385 0 0 0 0
24087012 -0.3297065663683832 0.021520342400059907 0.015309235974146178 0.06011790976760451 0 0 0 0
24119958 -0.32983234050955956 0.02179385757244309 0.015362697878414606 0.06015207384979507 0 0 0 0
24152904 -0.3297205095981138 0.021660856243754176 0.01543245736607664 0.06025042780778739 0 0 0 0
24185850 -0.32976220724418764 0.021622318965658693 0.015445826874422516 0.06030005625770994 0 0 0 0
24218796 -0.32953761884908267 0.021600761750543918 0.01548452826225998 0.06038405526344506 0 0 0 0
24251742 -0.32988702262187275 0.02159381724570515 0.015565305672966516 0.060501855438705364 0 0 0 0
24284688 -0.32961729620545327 0.021818954036993746 0.015555404439980597 0.060571094889976494 0 0 0 0
24317634 -0.32974787059184824 0.021742149981790568 0.0156576107285517 0.06062416831679219 0 0 0 0
24350580 -0.32995146402248976 0.021829383337263565 0.015701314136983863 0.06077927991895133 0 0 0 0
24383526 -0.3297510049636287 0.02181473309117632 0.015698640041946477 0.06081630927050417 0 0 0 0
24416472 -0.3297719360212718 0.02187390071717069 0.015760239731692532 0.060911872862670566 0 0 0 0
24449418 -0.32979483376045166 0.021803540718184838 0.015799658401490436 0.06098234540721726 0 0 0 0
24482364 -0.3298945935388226 0.02208253534980475 0.015843644153101896 0.061056172700727815 0 0 0 0
24515310 -0.3298325535520877 0.02180301270274472 0.015883431334646803 0.06113406374533646 0 0 0 0
24548256 -0.33006571214468633 0.021990153044655927 0.015959500140217037 0.06122291158273758 0 0 0 0
24581202 -0.32978929476002433 0.02189819212027822 0.015965604044934103 0.06131140125766664 0 0 0 0
24614148 -0.3296399759092063 0.021908149739193063 0.015974081310764922 0.06136507541834999 0 0 0 0
24647094 -0.329842286638183 0.022084469942239095 0.01604239104280005 0.06146048102839129 0 0 0 0
24680040 -0.32979108939748525 0.022104274060699605 0.016065697965126052 0.061479526886526976 0 0 0 0
24712986 -0.32967090730629833 0.022103401299567196 0.016141699825752816 0.06163309357341859 0 0 0 0
24745932 -0.32982407463711816 0.02221180539841338 0.01616520778298461 0.061733607296596285 0 0 0 0
24778878 -0.32987493714354144 0.022139770116359023 0.01623046262879336 0.06177238329116682 0 0 0 0
24811824 -0.33004339953754136 0.022059522700408066 0.016322589985479367 0.061909974221269946 0 0 0 0
24844770 -0.32995445354461095 0.022162836220461304 0.016341737453776047 0.061954300202857776 0 0 0 0
24877716 -0.3298845876290231 0.022169316517883578 0.016345001868436685 0.06202923825369648 0 0 0 0
24910662 -0.3298853382115586 0.02242019778236933 0.016350979712317863 0.062087364498614 0 0 0 0
24943608 -0.32977686458758254 0.022474175910093167 0.016440336081249677 0.06219063775876489 0 0 0 0
24976554 -0.3298267485593401 0.02235968263350041 0.0164973326665521 0.0622660078011191 0 0 0 0
25009500 -0.32982425381153946 0.022347273600213213 0.016517190852742437 0.062354718576767394 0 0 0 0
25042446 -0.33015653945889645 0.022429753334362427 0.016600608800926165 0.062438899016775413 0 0 0 0
25075392 -0.3298091965155714 0.02228989898986476 0.016620558224487682 0.06251856014069358 0 0 0 0
25108338 -0.32997388457410176 0.022424186505162726 0.016665729407082355 0.06257981393117662 0 0 0 0
25141284 -0.3299493675365781 0.022753230721059073 0.01671458430181702 0.06270025023914776 0 0 0 0
25174230 -0.32999653064384915 0.02249342806866428 0.016741534122527813 0.06275421319726637 0 0 0 0
25207176 -0.3300638494241073 0.022588746587653682 0.016803612930948973 0.06285954836500818 0 0 0 0
25240122 -0.32982048309141565 0.02252613781972554 0.016856538399064733 0.06291538556730857 0 0 0 0
25273068 -0.3300738388859539 0.022558205062649873 0.01690947319336403 0.06301893040840452 0 0 0 0
25306014 -0.32989723614197897 0.02253874771564272 0.016887354863998394 0.06308686702833183 0 0 0 0
25338960 -0.32979677217917025 0.022664164980763096 0.01698876676531977 0.06315903627416652 0 0 0 0
25371906 -0.3299996460109166 0.02261800872900522 0.01700244986638215 0.06323744717591895 0 0 0 0
25404852 -0.3302018671678242 0.02269031778308949 0.01708758369273405 0.0633217086100231 0 0 0 0
25437798 -0.32974155557042995 0.022579068939607833 0.017110166506517976 0.06335911743928603 0 0 0 0
25470744 -0.33002187361833885 0.022729628476929588 0.01712213553458697 0.0634470043024097 0 0 0 0
25503690 -0.33014853481256745 0.022836363279354926 0.017215241644195398 0.06356916718028029 0 0 0 0
25536636 -0.33004361598696275 0.022877496117931224 0.01725645066969498 0.06365673927243425 0 0 0 0
25569582 -0.3301135304525863 0.02286058633885977 0.01727217020907731 0.06373559990678952 0 0 0 0
25602528 -0.3302318668130666 0.022887040738520673 0.01735850432312395 0.06383812518605682 0 0 0 0
25635474 -0.3301433500621313 0.02282699653151758 0.0173995241724903 0.0638751059369267 0 0 0 0
25668420 -0.32990304712191654 0.022720761324191832 0.017399036263186268 0.0639522105601157 0 0 0 0
25701366 -0.33003875807967215 0.022826639886198517 0.017467987788451964 0.0640320687623031 0 0 0 0
25734312 -0.3301399951927189 0.023140005537771343 0.017538971586536032 0.0641122104026637 0 0 0 0
25767258 -0.33007870719983506 0.022976379735483776 0.017545771271728332 0.06423034825596013 0 0 0 0
25800204 -0.3300551650805377 0.022833367733765056 0.017586332702876215 0.06426685035136974 0 0 0 0
25833150 -0.3300726736459016 0.02321463971471319 0.017640203941358124 0.0643448712478497 0 0 0 0
25866096 -0.3300893981003682 0.023038423874163026 0.017693966015141307 0.0644370776757262 0 0 0 0
25899042 -0.3301963601621393 0.02324731514235828 0.01772445778374129 0.06452691311291567 0 0 0 0
25931988 -0.3303686835229513 0.02307470943843109 0.017761862678371328 0.06459019841998535 0 0 0 0
25964934 -0.33034554315791925 0.02316143110178631 0.017824565880386924 0.06470717229953932 0 0 0 0
25997880 -0.3301547665301449 0.023215324902236725 0.017850913808165673 0.0647819041798942 0 0 0 0
26030826 -0.33011753173326114 0.023285413983128733 0.01788212414119909 0.06483028931125451 0 0 0 0
26063772 -0.3303066980407797 0.023168055632731 0.0179672672962716 0.06490814465710187 0 0 0 0
26096718 -0.3302674013516767 0.023149262678317604 0.01802699116483113 0.06499020805732018 0 0 0 0
26129664 -0.3301180497030985 0.02325237023482156 0.018072423842749416 0.06507473391508976 0 0 0 0
26162610 -0.33022636306239084 0.023362604007549134 0.01813020851596663 0.0651609677705658 0 0 0 0
26195556 -0.33034315343216336 0.02348456530331428 0.018158848365719262 0.06523348701872753 0 0 0 0
26228502 -0.3302703536787127 0.023395785381264383 0.018182326481945343 0.06530856205397248 0 0 0 0
26261448 -0.3302661020542046 0.02357458983704124 0.01827039186055903 0.06539403892081283 0 0 0 0
26294394 -0.33010739916643095 0.02357416041515609 0.018284414116181293 0.0654710645798365 0 0 0 0
26327340 -0.33029717201181735 0.02349581177682257 0.018333586011653084 0.06555522736157986 0 0 0 0
26360286 -0.33033059443795193 0.023375846733535814 0.018379505375021792 0.06562555475994637 0 0 0 0
26393232 -0.3300573750375464 0.023562573586026325 0.018433016319496648 0.06568958082033784 0 0 0 0
26426178 -0.3302348101877169 0.02355760981192521 0.018483074662021415 0.06580953736198163 0 0 0 0
26459124 -0.33031290194569646 0.023554312940574508 0.0184807666631216 0.06588176237298482 0 0 0 0
26492070 -0.33014560760016115 0.023780856377281015 0.018544705307505297 0.06598139542818167 0 0 0 0
26525016 -0.33022986637828283 0.02371543618456113 0.01858346296732737 0.0660096165979768 0 0 0 0
26557962 -0.3302144267026572 0.02378324699597427 0.018634309024753378 0.06607744862437728 0 0 0 0
26590908 -0.33039146551656295 0.023664532159070155 0.0187082234668808 0.06615310475955088 0 0 0 0
26623854 -0.3302384698924368 0.023530050994601363 0.018745803742830074 0.06628762956632649 0 0 0 0
26656800 -0.33029481426374024 0.023689310714704242 0.0187818732433248 0.06634908201459631 0 0 0 0
26689746 -0.3302048733217646 0.023786888983543173 0.01882805474179058 0.06642299658215776 0 0 0 0
26722692 -0.33038452254931416 0.024016819251071027 0.01887930996571601 0.06652640352746274 0 0 0 0
26755638 -0.33025412318767006 0.023893686261502203 0.018879255500508587 0.06657673139242508 0 0 0 0
26788584 -0.3312248790488725 0.02731364102090722 0.01898306327424876 0.06662896166005755 0 0 0 0
26821530 -0.33113922091288317 0.0273886287488844 0.01904168861112046 0.0667444585184039 0 0 0 0
26854476 -0.3311275864149553 0.02738973842600781 0.01905141155621012 0.06681042935903195 0 0 0 0
26887422 -0.3304450324436527 0.023845179772621586 0.01907571194278238 0.06689558423703697 0 0 0 0
26920368 -0.33034112621366457 0.023829576527347088 0.019181432227969537 0.06695895902073475 0 0 0 0
26953314 -0.33036534582636284 0.024171104369213013 0.019186279338096978 0.06698872673262433 0 0 0 0
26986260 -0.33026391860673254 0.024011602551341212 0.019249183715425496 0.06715469833037611 0 0 0 0
27019206 -0.3306031208709901 0.02426288035490842 0.019306395799286467 0.06722940904362606 0 0 0 0
27052152 -0.3306323205082224 0.02418295761448575 0.01938139608669387 0.06729048646971059 0 0 0 0
27085098 -0.3303644100079462 0.024195068209226282 0.01940039673547281 0.06735490467523354 0 0 0 0
27118044 -0.33035723713468385 0.024158553877145866 0.019455138864228685 0.06744877632061752 0 0 0 0
27150990 -0.33049423690578467 0.024149703689390054 0.019443931511238237 0.06755480042145051 0 0 0 0
27183936 -0.3304421496579175 0.024155695803387806 0.019528983109940858 0.06760448287311448 0 0 0 0
27216882 -0.3303432246905497 0.02431099606851764 0.01958725515010881 0.0677230689909212 0 0 0 0
27249828 -0.3304606688350329 0.024286872793017358 0.019597953434554612 0.06780510356280903 0 0 0 0
27282774 -0.33057596260059025 0.024198260763034656 0.019615583154617502 0.06784726855010349 0 0 0 0
27315720 -0.3303015501730501 0.024516250939006366 0.01971316299275038 0.06788317785646157 0 0 0 0
27348666 -0.33031608048431904 0.024565954006809 0.01974075678171097 0.06798773876332147 0 0 0 0
27381612 -0.33070876217542866 0.02434381903612759 0.019769830512396863 0.06810286146816381 0 0 0 0
27414558 -0.3304906212304686 0.024562140327806823 0.019860911938684625 0.06810556186699815 0 0 0 0
27447504 -0.33044651952959414 0.024446261919648743 0.019897131763784364 0.06826868834318561 0 0 0 0
27480450 -0.3305923966862694 0.02460086523164769 0.019923436496036978 0.06831064263278903 0 0 0 0
27513396 -0.3306093341763123 0.024617603756075468 0.020038636123571412 0.0684102444830522 0 0 0 0
27546342 -0.3306292787135125 0.024669420275051063 0.02002816162404073 0.06847158253218699 0 0 0 0
27579288 -0.33051812258872576 0.024607604418194203 0.02009749386474574 0.06852181690558981 0 0 0 0
27612234 -0.33051225384592653 0.024625162775966655 0.020189799172357855 0.06865138855587151 0 0 0 0
27645180 -0.3306210616812236 0.02480227618953161 0.020227408214226368 0.06874080060460921 0 0 0 0
27678126 -0.3307163493406551 0.02475725198292191 0.020203150489707427 0.06879999376682594 0 0 0 0
27711072 -0.3307290155532987 0.024566949493569162 0.020257461236532232 0.06887878540703701 0 0 0 0
27744018 -0.3304509304871468 0.024831193469276223 0.020339624383842465 0.06895880185275417 0 0 0 0
27776964 -0.3308502053687669 0.024665180768644237 0.020369964083436717 0.06904937916404134 0 0 0 0
27809910 -0.330791760330825 0.024696656167651394 0.02036647715452115 0.06911612413609901 0 0 0 0
27842856 -0.3306374501048108 0.024714155186677703 0.02049629720830169 0.06918248382886341 0 0 0 0
27875802 -0.3306143713745228 0.024905146097088667 0.02054646435207376 0.06921488134369266 0 0 0 0
27908748 -0.3307574165712305 0.02479729738907651 0.020555924719074217 0.06937120438415714 0 0 0 0
27941694 -0.33062625308011034 0.02490018603250063 0.020624675585603054 0.06939701999806665 0 0 0 0
27974640 -0.3308824571891318 0.025175597376520236 0.02070090335644875 0.0694860261720783 0 0 0 0
28007586 -0.3307925819816093 0.024773936513917523 0.020722485137884914 0.06954549993214292 0 0 0 0
28040532 -0.3306587326543422 0.025049003684444814 0.020748405736133884 0.06961568305847572 0 0 0 0
28073478 -0.3306361597515012 0.025108750119404614 0.020825074912283848 0.06973065631860782 0 0 0 0
28106424 -0.33075894118287064 0.025121113928135402 0.020882868821455264 0.0697858420639482 0 0 0 0
28139370 -0.33073783458851325 0.025278871965217022 0.02094908331737512 0.06991390814737569 0 0 0 0
28172316 -0.33079145093952755 0.024957964834126937 0.020916444991273018 0.06997612249272256 0 0 0 0
28205262 -0.3308702044686247 0.025104864351991642 0.021018603481896724 0.07004551201440698 0 0 0 0
28238208 -0.33082191250892656 0.02529821134531096 0.021105194751349407 0.07009686509958335 0 0 0 0
28271154 -0.3308662507383585 0.02528882680690316 0.02113335672703517 0.07025067417317922 0 0 0 0
28304100 -0.3308598385912948 0.02523008751191151 0.021163147521776213 0.07026046660178925 0 0 0 0
28337046 -0.3308216603581401 0.025359737703701195 0.02123913659030461 0.07034407234076141 0 0 0 0
28369992 -0.3309485566098888 0.025335439330695056 0.021311597647811032 0.07038778733279015 0 0 0 0
28402938 -0.330907692749403 0.025242156581292606 0.02123625535981862 0.07052885947706053 0 0 0 0
28435884 -0.33099067234597584 0.025184633498807448 0.021337246882084677 0.07055248443009009 0 0 0 0
28468830 -0.3307750973105033 0.025323583051840605 0.02140318175021653 0.0706679023150311 0 0 0 0
28501776 -0.33075254969750845 0.025524037265554106 0.02143495853299037 0.07071793834157412 0 0 0 0
28534722 -0.3311230646640242 0.0254795294986508 0.021545929296801106 0.07081265093055902 0 0 0 0
28567668 -0.3309927560130979 0.025470161848874375 0.021571551251797577 0.07090814017480736 0 0 0 0
28600614 -0.3307446815411941 0.025654068708429623 0.021658698791394444 0.07096990588924623 0 0 0 0
28633560 -0.3309212631042306 0.025426867811321884 0.02166953897016385 0.07101905580524281 0 0 0 0
28666506 -0.3307357129887049 0.02574706313275635 0.02171495399214434 0.07112071882350539 0 0 0 0
28699452 -0.33110273389769146 0.025603320543260796 0.02171405164780321 0.0711989247566836 0 0 0 0
28732398 -0.33091538223389305 0.02570175179236286 0.021769207822258493 0.07127422930752922 0 0 0 0
28765344 -0.3308660000493991 0.025754295721863454 0.021895920958337266 0.07133701964933493 0 0 0 0
28798290 -0.3309783086144666 0.025799890371914557 0.021901336368248536 0.07140775362392744 0 0 0 0
28831236 -0.3310303517926793 0.02564259850803093 0.02197105993466871 0.0715137066074944 0 0 0 0
28864182 -0.33096703565173025 0.02560012124882173 0.021942803626520332 0.07157274665045019 0 0 0 0
28897128 -0.3307980070144988 0.02598208271272802 0.022076200650879667 0.07162070321896037 0 0 0 0
28930074 -0.33105434607138706 0.026036805265568633 0.022129166416050682 0.07170811202884361 0 0 0 0
28963020 -0.3309187767131257 0.02580070864649213 0.02216225759341041 0.07183556133127827 0 0 0 0
28995966 -0.33113795003612523 0.02583482141847541 0.022161522661918998 0.0718640307222971 0 0 0 0
29028912 -0.33100224446396553 0.02589388302751249 0.022233202259390364 0.0719407598602079 0 0 0 0
29061858 -0.33092612500864094 0.0259432454687147 0.022327172770631995 0.07198611655827908 0 0 0 0
29094804 -0.3311352979899021 0.02624391638002737 0.022430479990346794 0.07210065194168161 0 0 0 0
29127750 -0.33098051429394776 0.026257744925572108 0.022441986384538856 0.07221317710845349 0 0 0 0
29160696 -0.33135565131590167 0.025875746308692767 0.022424093104498 0.07226701661963131 0 0 0 0
29193642 -0.33108653911252767 0.02601716616427815 0.02258554113193403 0.07229881366941664 0 0 0 0
29226588 -0.3310186223369899 0.026088170130429945 0.022561713914174063 0.07244760630466661 0 0 0 0
29259534 -0.33110986599864217 0.02606743265486361 0.022642558722502003 0.07251364436534073 0 0 0 0
29292480 -0.33110530932147514 0.026154084546898385 0.022626534582087715 0.07258991114779081 0 0 0 0
29325426 -0.3311980625304665 0.025924408372069545 0.022693546666616177 0.07266786284200773 0 0 0 0
29358372 -0.33123667539130136 0.02627043655482108 0.022802927238778446 0.07269580083726691 0 0 0 0
29391318 -0.3309632143207577 0.02632430038741038 0.022850200075110214 0.07282556949711358 0 0 0 0
29424264 -0.33097959049180425 0.026295373445472652 0.02288898020545347 0.07283277175304724 0 0 0 0
29457210 -0.3312632108066606 0.026255137820030323 0.022956436970932203 0.07295195082115231 0 0 0 0
29490156 -0.3309730061683146 0.026601613748427004 0.022974616565608428 0.07298288177131872 0 0 0 0
29523102 -0.3311681667957975 0.02632596578348911 0.02302025890964113 0.07312776422539469 0 0 0 0
29556048 -0.3313929928462738 0.026271820894380758 0.0230631073209081 0.07320321064848766 0 0 0 0
29588994 -0.3311289256168656 0.026413439063579524 0.0230715155478845 0.07320502217787836 0 0 0 0
29621940 -0.3312122904495083 0.02669284778188206 0.023196371046486246 0.07333008380737184 0 0 0 0
29654886 -0.33122391531218986 0.026461736824699617 0.023229793262924674 0.07345497278245658 0 0 0 0
29687832 -0.33129700309926496 0.0264677649787335 0.023299909442207063 0.07348333664465131 0 0 0 0
29720778 -0.3312936030306818 0.02652825802657204 0.023326930933528903 0.07355036281995025 0 0 0 0
29753724 -0.3311709312250095 0.026815088411130398 0.02344559790170969 0.07362647848346396 0 0 0 0
29786670 -0.3311751449949544 0.026718560976216603 0.023484674008140652 0.0737611524144467 0 0 0 0
29819616 -0.3312459774384618 0.026534404305350315 0.02346370565456411 0.07379185564308544 0 0 0 0
29852562 -0.33132121253583285 0.02653012631086342 0.023471433190363027 0.07385414056709265 0 0 0 0
29885508 -0.3312494524485866 0.026816463962292016 0.023599997933897505 0.07388440671890806 0 0 0 0
29918454 -0.33125350949229526 0.026717818661063344 0.023662229298630842 0.07396211766611178 0 0 0 0
29951400 -0.3312096833742939 0.026870187004768595 0.023715819364906916 0.07411113323420603 0 0 0 0
29984346 -0.33143893191749785 0.026972838166583187 0.023758709840029913 0.07415679330228038 0 0 0 0
30017292 -0.33135583597228635 0.026610204414657706 0.023755581542006136 0.07422921100784895 0 0 0 0
30050238 -0.33117305070475944 0.026927623407103866 0.023864854691789353 0.074296692549998 0 0 0 0
30083184 -0.331409756885282 0.026898289978911603 0.02391769682019127 0.07437484817332161 0 0 0 0
30116130 -0.331390111085335 0.027004376844560498 0.02398389494220551 0.07447743468007353 0 0 0 0
30149076 -0.3311408619625547 0.026911024701059365 0.02396415955243284 0.07453143656696151 0 0 0 0
30182022 -0.33143060994114476 0.026949092188436174 0.024109698759843968 0.07462321383946016 0 0 0 0
30214968 -0.3316517123651169 0.02697424881505232 0.02403436575990907 0.07472255868964899 0 0 0 0
30247914 -0.3311105480211437 0.027076471760778487 0.024164591162910837 0.07478286362517937 0 0 0 0
30280860 -0.3314743152349776 0.027082472566955708 0.02426760211039867 0.07479419658551359 0 0 0 0
30313806 -0.33139969507375006 0.02728255725881502 0.02428812161890978 0.0749400288788327 0 0 0 0
30346752 -0.33135114472002136 0.027193436366474543 0.024352281452790878 0.07500672123998553 0 0 0 0
30379698 -0.33150999299432826 0.027155800835373573 0.024376547327287574 0.07509950911891414 0 0 0 0
30412644 -0.3314557035754938 0.026899075274905 0.02442527989516934 0.07515812409609947 0 0 0 0
30445590 -0.3313384753401765 0.027234946108160803 0.024504875174009472 0.07524232064325354 0 0 0 0
30478536 -0.33134292628814 0.027146219545889288 0.024532203721281922 0.0752833574450739 0 0 0 0
30511482 -0.3314177317412359 0.02733923931450942 0.02463852422518818 0.07539174288590487 0 0 0 0
30544428 -0.33118813609490116 0.02725055814072664 0.02465901615056015 0.07543347766211807 0 0 0 0
30577374 -0.3315691917351868 0.027543538276968763 0.024674143456294807 0.07554726948770094 0 0 0 0
30610320 -0.3316907112180808 0.02737148903654775 0.024754793222331768 0.07561809885862492 0 0 0 0
30643266 -0.3317751451349991 0.027372273165127047 0.024781012505537853 0.07568349075866089 0 0 0 0
30676212 -0.3315008802619858 0.027118318370248383 0.024852725654557133 0.07576438631712838 0 0 0 0
30709158 -0.3315925937558832 0.02752954527291383 0.024925438509219053 0.07580604530568147 0 0 0 0
30742104 -0.3314819076138955 0.027388172756049003 0.024952155397209883 0.07584002456668305 0 0 0 0
30775050 -0.33147003387971363 0.02752044835509614 0.025045818782013327 0.07593566495804918 0 0 0 0
30807996 -0.33155531520914083 0.027436340876629526 0.025072111056920365 0.07608091954432153 0 0 0 0
30840942 -0.33143418650229106 0.027701513535983657 0.025152346356122724 0.07610364617440304 0 0 0 0
30873888 -0.3315009810436741 0.027847101101888715 0.025168012466178 0.07619345471914515 0 0 0 0
30906834 -0.33182990028194365 0.027615093751803797 0.025210457594408594 0.07626364167854287 0 0 0 0
30939780 -0.33154497813983824 0.02767564835099827 0.025310596202500833 0.07629015156311648 0 0 0 0
30972726 -0.3316277501009138 0.027700343112949295 0.025371129621583697 0.076444534642011 0 0 0 0
31005672 -0.3314146156817102 0.02782825143556558 0.025400840713175887 0.07649504704458725 0 0 0 0
31038618 -0.3317629595593059 0.02786223643719324 0.02543646534620662 0.07656932270218152 0 0 0 0
31071564 -0.33171266008830946 0.02771041285248877 0.0254816417007984 0.07659542500148261 0 0 0 0
31104510 -0.3314863286678955 0.027855396706918664 0.025550635658507213 0.07668488880382485 0 0 0 0
31137456 -0.3315723020795198 0.027828920059258116 0.025636624906926437 0.07680785172035237 0 0 0 0
31170402 -0.3317187594241735 0.028038908955150293 0.0256704980891919 0.07684816912159922 0 0 0 0
31203348 -0.33201974955734564 0.02794903566255792 0.02568692508451754 0.07694051940806138 0 0 0 0
31236294 -0.33193185960543137 0.028042742893796765 0.02580469166083921 0.07697284222119515 0 0 0 0
31269240 -0.33151578049531083 0.02786703039950906 0.025875339398065793 0.07707416412478924 0 0 0 0
31302186 -0.3317340098909853 0.02813293708114431 0.0258785842340024 0.07715888470906422 0 0 0 0
31335132 -0.33188892127495345 0.028048455244810484 0.02591202763528642 0.07725226992815384 0 0 0 0
31368078 -0.3319330244196451 0.028261697139581855 0.026049308973084426 0.07729303460392935 0 0 0 0
31401024 -0.33172801814957165 0.02801780189366504 0.026055954533905062 0.07736081766700094 0 0 0 0
31433970 -0.3318220432803683 0.028266574042912697 0.026112166328513705 0.07746056117592601 0 0 0 0
31466916 -0.33184986712589076 0.027969569315529724 0.026131618995493266 0.07751008803369605 0 0 0 0
31499862 -0.33174960305528894 0.028198990874856677 0.026272320335231265 0.0774953441447135 0 0 0 0
31532808 -0.3318834150557299 0.028114295707113424 0.026258421530880777 0.07761523277714018 0 0 0 0
31565754 -0.331841158943947 0.028439946032632543 0.026373551439071514 0.07770666314678032 0 0 0 0
31598700 -0.33170401881492667 0.02802935281035687 0.026384896967576742 0.07781632818854818 0 0 0 0
31631646 -0.3316140040672067 0.028371236063305428 0.026419393819545365 0.07781495819573601 0 0 0 0
31664592 -0.3316470679947892 0.028295668090085643 0.026524109487200676 0.07790444271778406 0 0 0 0
31697538 -0.3317634121309303 0.028376096010577244 0.026632236243966746 0.07802648920398912 0 0 0 0
31730484 -0.33185717419550387 0.028484680981089926 0.026648047694500153 0.07817447581182063 0 0 0 0
31763430 -0.3320716045430387 0.028114085763078226 0.026664398526674443 0.07821810089241904 0 0 0 0
31796376 -0.33175885785028336 0.02856151003569737 0.026785451613300596 0.07824112388522736 0 0 0 0
31829322 -0.33187164544907954 0.028461439763705708 0.026894406728819476 0.07833612832136522 0 0 0 0
31862268 -0.33185913636051273 0.028628392240612657 0.026880386204116223 0.07847450102738993 0 0 0 0
31895214 -0.33202274476997873 0.028347150321340848 0.026867089959648267 0.07848696091792534 0 0 0 0
31928160 -0.3320317276461621 0.028343225724114293 0.026974059130369116 0.0785474915677356 0 0 0 0
31961106 -0.3321826503199906 0.028476473603406598 0.026954405786142138 0.07862482724919292 0 0 0 0
31994052 -0.33212022711745004 0.02850911653402431 0.027053593946366743 0.07869469623250262 0 0 0 0
32026998 -0.3318498176035103 0.028584277550991858 0.027092095774328067 0.07873109544732694 0 0 0 0
32059944 -0.3319601486888806 0.028833943197608878 0.02720320490661476 0.0788174171693851 0 0 0 0
32092890 -0.33182621501982174 0.02874945060455614 0.02725950314221345 0.07891449100514276 0 0 0 0
32125836 -0.33203186708478827 0.02864022741127501 0.027294247667630812 0.07895600800553622 0 0 0 0
32158782 -0.3319890731047669 0.02864100367524329 0.0273091166077019 0.07904966746925164 0 0 0 0
32191728 -0.3317334925477651 0.02895912243693929 0.02735788648093673 0.07904133163639132 0 0 0 0
32224674 -0.3318726271139515 0.02889982243592929 0.0274693002534441 0.07914346122947724 0 0 0 0
32257620 -0.3319928664337814 0.029290154950180614 0.02758209633616195 0.07929270383445151 0 0 0 0
32290566 -0.3320161108315371 0.028641827758046613 0.027562973585317587 0.07933181384899343 0 0 0 0
32323512 -0.33216775117700925 0.028859589241646007 0.027583870245540015 0.07932164975823199 0 0 0 0
32356458 -0.33203073764807867 0.029032969902121432 0.027704121421608042 0.07941438691208585 0 0 0 0
32389404 -0.33215191989442816 0.02912697891893367 0.027737072321047523 0.0795470861431469 0 0 0 0
32422350 -0.33209920555080225 0.02884492047180625 0.02777661809722841 0.07958418042129066 0 0 0 0
32455296 -0.3321639146833934 0.028850231142767906 0.027863656357489604 0.07972353892083503 0 0 0 0
32488242 -0.33201702588964643 0.029049234334739917 0.02792606164131427 0.07973395789147307 0 0 0 0
32521188 -0.33200422862089085 0.029281828694042996 0.02797129067239717 0.07981186783417432 0 0 0 0
32554134 -0.3323043311566981 0.02910187325684715 0.028065776650516586 0.07988540870251779 0 0 0 0
32587080 -0.3322462168686373 0.029204135419294654 0.02814280694724917 0.07995076421584052 0 0 0 0
32620026 -0.33238803605288203 0.029471421089005526 0.028199355427586593 0.08011914151051028 0 0 0 0
32652972 -0.3321884817958466 0.029230818493728546 0.02819652528996384 0.08014225048115522 0 0 0 0
32685918 -0.3322863904671618 0.029048743973530064 0.028248850800957022 0.08017703312350592 0 0 0 0
32718864 -0.3324218462729936 0.029173974933503512 0.028265528511929733 0.08025834029677677 0 0 0 0
32751810 -0.3320977721308452 0.02930096895130405 0.02836796148471077 0.08030341728970941 0 0 0 0
32784756 -0.3323897645167587 0.029480973406700653 0.02846194817278145 0.08040626578238692 0 0 0 0
32817702 -0.33221840326569485 0.029467119012664203 0.028483573542032695 0.08044747207874688 0 0 0 0
32850648 -0.33229809859544335 0.029235981523089063 0.028572248957102184 0.0805453624675049 0 0 0 0
32883594 -0.33228174589798504 0.02935114628705502 0.028590866852880762 0.08059549446131596 0 0 0 0
32916540 -0.33230317015996497 0.029343412693709263 0.028653464308411383 0.08069890488508871 0 0 0 0
32949486 -0.3321478599215171 0.02952915812874276 0.028724886583395826 0.08069678049500428 0 0 0 0
32982432 -0.3323393419228788 0.029496572675231432 0.028793804976512835 0.08082432933282946 0 0 0 0
33015378 -0.33246605625114767 0.029653995351776593 0.028874136254183596 0.08093783721420338 0 0 0 0
33048324 -0.33244555524791414 0.029357704789220816 0.02890877184058007 0.08095359646414334 0 0 0 0
33081270 -0.3322896489177539 0.029652409172715343 0.028962173361644798 0.08102040624383111 0 0 0 0
33114216 -0.3321280020890878 0.02970566897108593 0.028999188736409016 0.08107179285635385 0 0 0 0
33147162 -0.3325093590404796 0.029633871455546995 0.029069055932096705 0.0811334186299364 0 0 0 0
33180108 -0.3324894328475135 0.029768061533112122 0.029146462777724945 0.08128127919918605 0 0 0 0
33213054 -0.33243590489818475 0.029540447419652067 0.029183463388935144 0.08129674199585929 0 0 0 0
33246000 -0.3325211068493825 0.029700678316379854 0.029249030961444676 0.0813539710929369 0 0 0 0
33278946 -0.33266226342628386 0.029744557989068363 0.02933490679856674 0.08146648750220922 0 0 0 0
33311892 -0.3325516558465053 0.02984211856488594 0.029339915445417947 0.08145996828569463 0 0 0 0
33344838 -0.3323723842602193 0.029778734930866888 0.029362972848090488 0.0815617193712815 0 0 0 0
33377784 -0.33237469869488795 0.029868717341251447 0.02949232839505973 0.08165120614370291 0 0 0 0
33410730 -0.33237010504835907 0.02976338977718701 0.029538256054854536 0.0816850975868896 0 0 0 0
33443676 -0.33251759091152505 0.029963586352026988 0.02962747472091359 0.08182553823920802 0 0 0 0
33476622 -0.3326117184604976 0.030049803057514497 0.029649550470091258 0.08183605010648937 0 0 0 0
33509568 -0.33223555910233266 0.030115646915653365 0.029711608009333607 0.08196054898901046 0 0 0 0
33542514 -0.3325838716011196 0.029973284557686598 0.029802648238669585 0.08198026488038129 0 0 0 0
33575460 -0.33274000859329655 0.029827828001681492 0.029800019235374234 0.0820451876773054 0 0 0 0
33608406 -0.33268101669618083 0.02998170413490559 0.02988419490497086 0.08214441673485415 0 0 0 0
33641352 -0.33263779628157963 0.030136314438686987 0.029997855653256602 0.08226053755768795 0 0 0 0
33674298 -0.33240443869369357 0.03026456107920881 0.029997803312547873 0.08228683326086493 0 0 0 0
33707244 -0.33270809882828906 0.03017247402096733 0.03008719232895247 0.08231573326087298 0 0 0 0
33740190 -0.33251617120502286 0.029990833177318415 0.030120078770998707 0.0823830917437183 0 0 0 0
33773136 -0.3326656107693097 0.0302940942922444 0.030191765676017772 0.08242531651951257 0 0 0 0
33806082 -0.3327759709472387 0.030229412948068732 0.0302624990042823 0.08260376661945999 0 0 0 0
33839028 -0.33273571813667446 0.03036930730224634 0.030324225869706244 0.08261754380407822 0 0 0 0
33871974 -0.33278742013954116 0.03049548106433601 0.03036546006996351 0.08267102216268064 0 0 0 0
33904920 -0.3327879426540284 0.030014309197327914 0.030446667350815346 0.08278154802012735 0 0 0 0
33937866 -0.3328399924151786 0.03043986521317411 0.030504447606937976 0.08280859095119264 0 0 0 0
33970812 -0.33260410709882965 0.030500744926248546 0.030518329437727046 0.08284280446799497 0 0 0 0
34003758 -0.3325730903320372 0.03051724195617075 0.03062235402953481 0.08296402326998395 0 0 0 0
34036704 -0.3329194098533758 0.030603693356643508 0.030692683539757938 0.08299601874043669 0 0 0 0
34069650 -0.3328518688837724 0.03048042666493899 0.030744285482572593 0.08307699958941756 0 0 0 0
34102596 -0.3328837068610658 0.030414595597049007 0.030761092149899198 0.08314521203576827 0 0 0 0
34135542 -0.3326965985973903 0.030283026209690984 0.030829679977948353 0.0832228791689641 0 0 0 0
34168488 -0.33264475197877075 0.03062216739338134 0.030904310069722878 0.08326260070520887 0 0 0 0
34201434 -0.3326078883231437 0.030467272966283578 0.03099046461862212 0.08336409943701355 0 0 0 0
34234380 -0.3326162234182887 0.030712153571099174 0.031018309223637488 0.08346401822607719 0 0 0 0
34267326 -0.3329717283232011 0.030709693136388508 0.031075023695030287 0.08349378831382685 0 0 0 0
34300272 -0.3328043165069283 0.030730880390224095 0.031132112556126433 0.08353948482426932 0 0 0 0
34333218 -0.3328486346126309 0.03080333253717177 0.031183595226777633 0.08362836616581384 0 0 0 0
34366164 -0.33275077710333806 0.030837567694799613 0.0312737459065288 0.08371963893455953 0 0 0 0
34399110 -0.33283381954343216 0.030800588131520014 0.03138635100878862 0.08382802744660323 0 0 0 0
34432056 -0.33286066038257395 0.030765230745391735 0.03134898120399848 0.08383183849772925 0 0 0 0
34465002 -0.3330072509435516 0.03072888967940367 0.0314296538027637 0.08390842962570982 0 0 0 0
34497948 -0.33282273621394126 0.030884206662137186 0.0314983225882829 0.0839281275883717 0 0 0 0
34530894 -0.33298136146200313 0.03083216392392242 0.03157857475678812 0.0840636118240919 0 0 0 0
34563840 -0.3329561575774975 0.030964360003896144 0.031630487350141144 0.08408323187128738 0 0 0 0
34596786 -0.33292663126141997 0.03096275533315992 0.0316852869362047 0.08411960564334661 0 0 0 0
34629732 -0.3329815658491946 0.03101351833119082 0.03175153769381797 0.08422715346314974 0 0 0 0
34662678 -0.33311602004388996 0.03082797670013427 0.031791143046173885 0.08429576731720717 0 0 0 0
34695624 -0.33322666648333993 0.03105435583544705 0.031880464192872604 0.0843727561713427 0 0 0 0
34728570 -0.33295326725296404 0.031039172826407908 0.031963970448823854 0.08441955103847319 0 0 0 0
34761516 -0.3331820894460498 0.031061626332476774 0.03196465405613831 0.08450244722461736 0 0 0 0
34794462 -0.3329453588322204 0.031127491469379147 0.03202234233228969 0.08456178189325733 0 0 0 0
34827408 -0.3332071125702622 0.031055094064036556 0.032091615841339315 0.08461295453177133 0 0 0 0
34860354 -0.3332023205535673 0.03109159712730696 0.032159622713404785 0.08467401090879471 0 0 0 0
34893300 -0.33331599257383027 0.031019893572411802 0.032208568339024295 0.08475160286070703 0 0 0 0
34926246 -0.3333107543960624 0.031160813709295083 0.03225043373610646 0.08478106767444389 0 0 0 0
34959192 -0.3330764719084035 0.031180206481393836 0.032348973900183264 0.08492208095614265 0 0 0 0
34992138 -0.3331411732546267 0.031344570912670566 0.03241182932552893 0.08497003862535828 0 0 0 0
35025084 -0.33338285172907467 0.0313010534886077 0.032444644908265895 0.08511853471829976 0 0 0 0
35058030 -0.33337308523886744 0.03136562443997461 0.03242986638488977 0.08507007316064055 0 0 0 0
35090976 -0.33320220107982995 0.031194909896726426 0.03258465819922217 0.08524114600349314 0 0 0 0
35123922 -0.3331266204363667 0.03144527993922957 0.0325479472457275 0.08521290898142099 0 0 0 0
35156868 -0.3330866875545345 0.03149884881318238 0.03260557453861919 0.08523772417830343 0 0 0 0
35189814 -0.33343281725686225 0.031529132954743105 0.0326828606233648 0.08539341932518414 0 0 0 0
35222760 -0.3334153342386375 0.03137962530588722 0.03278518855197748 0.0853364234202529 0 0 0 0
35255706 -0.3333183287576306 0.031362554218131146 0.03286418464181811 0.08542265216665834 0 0 0 0
35288652 -0.3331714872983784 0.03148482762222423 0.032879334232557976 0.08553920642416551 0 0 0 0
35321598 -0.33342312554707737 0.03160717517857673 0.03290055058689887 0.08558567257436248 0 0 0 0
35354544 -0.3333363362276127 0.03146874266815325 0.033084751796189776 0.08566452239552036 0 0 0 0
35387490 -0.33349729072984335 0.03158850105533115 0.033064700938776004 0.08573982651921545 0 0 0 0
35420436 -0.33329465991504675 0.03176460239525569 0.033129911553809975 0.08575129171743662 0 0 0 0
35453382 -0.33332876426983576 0.03183994374133737 0.03319609000249927 0.08589438430705733 0 0 0 0
35486328 -0.33356106164454696 0.031648479363035345 0.03326394191336445 0.0858956472483123 0 0 0 0
35519274 -0.3333444040794391 0.031614270374454294 0.0332816492964201 0.08605200213862274 0 0 0 0
35552220 -0.3333764946420819 0.031780003086439884 0.03339283087574598 0.08608088826702455 0 0 0 0
35585166 -0.33355126796810247 0.03182933717681861 0.03341856356194999 0.08606826945033626 0 0 0 0
35618112 -0.33357295409346155 0.031831843378142814 0.03349414080809142 0.08620311598046902 0 0 0 0
35651058 -0.33356504831512046 0.0317462571020276 0.033552015876291245 0.0862609945538236 0 0 0 0
35684004 -0.3334936211965811 0.031842282169605725 0.03357589917351833 0.08629242271011249 0 0 0 0
35716950 -0.3337052689906204 0.03188107223131973 0.03370395567338726 0.08641680115857736 0 0 0 0
35749896 -0.33346511058248823 0.032016286463087115 0.0337172780138749 0.08641289780860802 0 0 0 0
35782842 -0.33370913215486303 0.03185979111862024 0.033802855058752655 0.0865444708678093 0 0 0 0
35815788 -0.3337311726438315 0.03187178642098842 0.033765780307183635 0.08656014727638017 0 0 0 0
35848734 -0.33365689009218 0.031967390398464905 0.03387186578627281 0.08663175528108123 0 0 0 0
35881680 -0.33366706134266977 0.03205197020065724 0.03389207908277467 0.08667579113386978 0 0 0 0
35914626 -0.3335618245368575 0.0320354739882399 0.034011901713211425 0.0868142325646771 0 0 0 0
35947572 -0.33375567967700576 0.03216582855747085 0.03402486748977055 0.08680762133786557 0 0 0 0
35980518 -0.33375330360019684 0.032209440693209884 0.03415337771799458 0.08688516979714135 0 0 0 0
36013464 -0.33384848484078283 0.03214936709426771 0.034235230936862704 0.08696967661992634 0 0 0 0
36046410 -0.3339799132954045 0.031980783372806035 0.03422910091724352 0.08708215424779688 0 0 0 0
36079356 -0.33360741607008654 0.032341930881021025 0.034323903240862805 0.08711734741872697 0 0 0 0
36112302 -0.3336998701756993 0.03225102995512933 0.03441332619028985 0.08716160094225582 0 0 0 0
36145248 -0.33380165344256235 0.03243753262347385 0.034479955377256864 0.08726833994133879 0 0 0 0
36178194 -0.33385446745351166 0.03217338394518153 0.03447981693939046 0.08734666455698503 0 0 0 0
36211140 -0.33403034022249095 0.032352920449668136 0.0345481466019838 0.08734164033800652 0 0 0 0
36244086 -0.33408570480438926 0.032211489499766176 0.03460716844665201 0.08748001686392198 0 0 0 0
36277032 -0.33398699021807665 0.032211771840191056 0.034676134218514176 0.08748228039253698 0 0 0 0
36309978 -0.33396061670031796 0.0325887015034513 0.03473728199190037 0.08757942963327915 0 0 0 0
36342924 -0.33408568391698074 0.03255157089956432 0.034780748013924896 0.08754655298109142 0 0 0 0
36375870 -0.3342265283529477 0.032631608520408785 0.034801303792109176 0.0876901193028483 0 0 0 0
36408816 -0.3341920576629733 0.03256313889297123 0.03485189874649957 0.08780396646950593 0 0 0 0
36441762 -0.3334449789381326 0.0324705235031302 0.03491765574147416 0.08778436982738512 0 0 0 0
36474708 -0.3339758865749915 0.03255832117717481 0.03503580943659062 0.0879277077501332 0 0 0 0
36507654 -0.3341287369723596 0.03246746446435966 0.03505879869691252 0.08798034989576048 0 0 0 0
36540600 -0.3340834213679385 0.03273777014749008 0.035168030873057296 0.0880100727226099 0 0 0 0
36573546 -0.3341879047961221 0.03266118193604871 0.035208531599184745 0.08807564783673903 0 0 0 0
36606492 -0.3340324125381109 0.03262114276871938 0.035202122129495035 0.08813367298374152 0 0 0 0
36639438 -0.33399872844205625 0.03253922594775001 0.035283479443265556 0.08824387881456147 0 0 0 0
36672384 -0.3338402383355305 0.03273796988456912 0.03538123573633343 0.0882601788377308 0 0 0 0
36705330 -0.33410352830231216 0.033010534190101776 0.035427587072543114 0.08839620377005979 0 0 0 0
36738276 -0.3340304196790629 0.03274775507648657 0.03546801990760132 0.0884640187949097 0 0 0 0
36771222 -0.33419816970959376 0.03261718557741113 0.03548286586036285 0.08844497422438527 0 0 0 0
36804168 -0.33421176033132954 0.032730415047645164 0.035596361451936086 0.08855972897814061 0 0 0 0
36837114 -0.33421791661010447 0.03296157629722876 0.035666102993002845 0.08863442028981663 0 0 0 0
36870060 -0.3344378977886359 0.03308190534196664 0.035752111246994574 0.08867703242177655 0 0 0 0
36903006 -0.33428840040016783 0.03288473821093736 0.03571681819287246 0.088798943430448 0 0 0 0
36935952 -0.33412602526892293 0.03316223298047816 0.03583469202487536 0.08877254800650962 0 0 0 0
36968898 -0.3343429955847358 0.03298435089673891 0.03587317734603747 0.08887493562998865 0 0 0 0
37001844 -0.334120476100023 0.03312622065453065 0.03594898213520142 0.08894203923247108 0 0 0 0
37034790 -0.33440861555592044 0.03306139312362384 0.03595849674306115 0.08902630982434098 0 0 0 0
37067736 -0.33434133141055955 0.03297171417398327 0.036018245167620824 0.08906844251849465 0 0 0 0
37100682 -0.33438073811742064 0.03329216518831202 0.03611565240613657 0.0891489248390197 0 0 0 0
37133628 -0.33443850826246274 0.03335291526224267 0.03615012111401941 0.08920663717539142 0 0 0 0
37166574 -0.3345609410589426 0.033139945939902084 0.03616474888225315 0.08933110109767665 0 0 0 0
37199520 -0.334664759724748 0.03335192950914706 0.036301326400079624 0.08930911340681648 0 0 0 0
37232466 -0.3345309111291501 0.03327902414315907 0.036317774859037144 0.08943680077568433 0 0 0 0
37265412 -0.3346152147565996 0.03345957323348213 0.036405473098469796 0.08948375582191535 0 0 0 0
37298358 -0.33453262886109336 0.03343145483117268 0.0364572765032438 0.08953345395022275 0 0 0 0
37331304 -0.3346805683472094 0.03356521256126438 0.03654590867001556 0.08961540320462062 0 0 0 0
37364250 -0.33468786125748756 0.03354466181698099 0.03654879236576067 0.0896763245050423 0 0 0 0
37397196 -0.33454697448438053 0.03336798209991036 0.03667054185789247 0.0897739732757813 0 0 0 0
37430142 -0.33448359194668975 0.03355246825514525 0.03667682250532523 0.08983643842054354 0 0 0 0
37463088 -0.3347096173480004 0.03353578029424632 0.03675748021688753 0.08989206962262968 0 0 0 0
37496034 -0.3346857180537892 0.033635386673361675 0.03676069474488567 0.08991333270720593 0 0 0 0
37528980 -0.33469217561763054 0.033502602400826316 0.036841608708906654 0.09007983746086208 0 0 0 0
37561926 -0.33472251575715967 0.03370598853795431 0.036967562116717985 0.09006975847308402 0 0 0 0
37594872 -0.33480553725499884 0.03358568635860485 0.036995190261909054 0.09013728100568628 0 0 0 0
37627818 -0.33468573999612367 0.03368777664734005 0.03703657777897132 0.090259889416452 0 0 0 0
37660764 -0.3347204644409123 0.03372568737691982 0.03714144557244292 0.09035237983190894 0 0 0 0
37693710 -0.3348581061570317 0.03364588833598522 0.037072667095590976 0.09035529847198523 0 0 0 0
37726656 -0.33478071192354747 0.033854438290655986 0.037237886778306084 0.09043594863009878 0 0 0 0
37759602 -0.33483068108950964 0.033715506419342185 0.037273238058027645 0.09047094269408797 0 0 0 0
37792548 -0.33492282587401284 0.0337458798156892 0.03729958519877737 0.09058820631183855 0 0 0 0
37825494 -0.33480691946200647 0.034069679096123726 0.03742099479758889 0.09066749093558037 0 0 0 0
37858440 -0.3347710865820677 0.033840022686525806 0.037420253711566404 0.09062803509663953 0 0 0 0
37891386 -0.33487765353711163 0.03407073441149464 0.03753416236384689 0.0907355695218274 0 0 0 0
37924332 -0.33494544476505744 0.03397007274440355 0.03762892693291983 0.09083224113498474 0 0 0 0
37957278 -0.335177676743682 0.034154477626774093 0.03764845892438022 0.09087532182549239 0 0 0 0
37990224 -0.33490563910703625 0.034038634404986536 0.03770258700776864 0.09098354848816642 0 0 0 0
38023170 -0.3350375072039091 0.034012698485277534 0.037790658190395635 0.09106138872873819 0 0 0 0
38056116 -0.3350019823969304 0.0343882968921571 0.03782149993978633 0.09110592245547638 0 0 0 0
38089062 -0.3348616488506464 0.03424345133978466 0.037878489048888395 0.09110898584393376 0 0 0 0
38122008 -0.3350890168102121 0.034293773282225444 0.03797458739415593 0.09123413209378503 0 0 0 0
38154954 -0.33521992350279955 0.034284768500275904 0.037962036683930785 0.0913008658672154 0 0 0 0
38187900 -0.33506117561374477 0.034214008433274656 0.03805078238256956 0.09137758936360386 0 0 0 0
38220846 -0.3352056515314514 0.03428993223423075 0.03815504816353671 0.09145328834885594 0 0 0 0
38253792 -0.3351930707457818 0.03437180453365211 0.03819365870301345 0.0915331531757926 0 0 0 0
38286738 -0.33528287587588274 0.03452351428765961 0.03827343402620247 0.09154900114166946 0 0 0 0
38319684 -0.33529499817846453 0.03460373409032926 0.03834715291382843 0.09160484290849395 0 0 0 0
38352630 -0.33529911656893696 0.034524209000324116 0.03840637052620829 0.0916951418902383 0 0 0 0
38385576 -0.33518997852890825 0.03422342366863097 0.03842140391730943 0.0917327954081801 0 0 0 0
38418522 -0.3353204665358694 0.03450822774824222 0.038515649257669135 0.09189963072684601 0 0 0 0
38451468 -0.33506811006562237 0.03461504244380997 0.03854320331175512 0.09186236561985106 0 0 0 0
38484414 -0.3354119360208193 0.03464166190499955 0.03861357877090926 0.09198310158638599 0 0 0 0
38517360 -0.3353007760030022 0.03473478707354766 0.03869470331953598 0.09205945447995974 0 0 0 0
38550306 -0.33539294887215 0.034312654523472284 0.03873326818922705 0.09208628231133123 0 0 0 0
38583252 -0.33533536389155255 0.03487890656102505 0.038846517843443874 0.092165181342317 0 0 0 0
38616198 -0.33547377620005975 0.034908394774168384 0.0388823130834523 0.09228311971847625 0 0 0 0
38649144 -0.33551010808313203 0.034847903840417464 0.03897068950063129 0.09232690388703677 0 0 0 0
38682090 -0.3354325879382594 0.03475197126139587 0.03896021039117884 0.09236603003090574 0 0 0 0
38715036 -0.33555419594035707 0.03479649322126863 0.03904366204429551 0.0925141717442361 0 0 0 0
38747982 -0.3352097581264851 0.034737215424640575 0.03909531184199118 0.09249953998344876 0 0 0 0
38780928 -0.3355447059811034 0.03514385891428403 0.03913673916075373 0.09256170897374494 0 0 0 0
38813874 -0.33550683530234576 0.035028716342479414 0.039199458217132055 0.09266702994569258 0 0 0 0
38846820 -0.3357224123558833 0.035195164493956564 0.03934988220795526 0.09274433660150865 0 0 0 0
38879766 -0.3355758731369435 0.03509238081638363 0.03939295389821306 0.09284353673854809 0 0 0 0
38912712 -0.33571896919985994 0.034980616883809636 0.0394483944571462 0.09290209708455899 0 0 0 0
38945658 -0.3353977581002849 0.03508914808460084 0.0394933105494049 0.09287724281773221 0 0 0 0
38978604 -0.3355353095177604 0.03502578002805698 0.0394955357775257 0.09301125843931761 0 0 0 0
39011550 -0.3356685382623674 0.03503490930133581 0.03961827175840822 0.09305175878882121 0 0 0 0
39044496 -0.33587976212987136 0.0351871731876809 0.03966868433745542 0.09321302885244627 0 0 0 0
39077442 -0.33573244141012226 0.03540067202043627 0.03980205145393232 0.0932617181933768 0 0 0 0
39110388 -0.3356861963001543 0.03506384645042232 0.03972124000431659 0.09324983769837923 0 0 0 0
39143334 -0.33582985347287847 0.03509756030683362 0.03981461514665385 0.0933183372653527 0 0 0 0
39176280 -0.3357332064053619 0.03532576674121116 0.03994047241340608 0.09348058641356156 0 0 0 0
39209226 -0.33562991596418795 0.03545066308261781 0.040029787665319755 0.09348781459931937 0 0 0 0
39242172 -0.3356788485964992 0.03535331551369534 0.03995304707894761 0.09352573872626435 0 0 0 0
39275118 -0.33597596344763825 0.03546127223253089 0.040172181339165426 0.09363076668619069 0 0 0 0
39308064 -0.33577561553569135 0.035308647052042154 0.04010603729617761 0.09365202153933672 0 0 0 0
39341010 -0.3357366247637294 0.03535321179681798 0.04023380118668266 0.09378257245608171 0 0 0 0
39373956 -0.33605150279146534 0.035645744040424886 0.04038354139984505 0.09389686311535882 0 0 0 0
39406902 -0.33586986999036694 0.035695208987149486 0.040397945392281184 0.09387307076913574 0 0 0 0
39439848 -0.3359164569158449 0.035622473692051154 0.040366785098636934 0.09395684052198153 0 0 0 0
39472794 -0.33584754518066606 0.035520877583174494 0.04050185195876253 0.09401240752555824 0 0 0 0
39505740 -0.33604538533863826 0.03553145143678257 0.04052411545172737 0.0940379759342765 0 0 0 0
39538686 -0.3360161281936986 0.03594348665060474 0.040659629741592866 0.0941794534202595 0 0 0 0
39571632 -0.33576295166318176 0.03566205845115766 0.04070073019295717 0.09418939017971324 0 0 0 0
39604578 -0.33609313627274323 0.03591990241218198 0.0407482573360676 0.09428957334107199 0 0 0 0
39637524 -0.3358349439484909 0.035742643305410805 0.0408055078790798 0.0943322334019889 0 0 0 0
39670470 -0.33600979124154123 0.035766181854423776 0.04088431269461659 0.09437620407823952 0 0 0 0
39703416 -0.3360858408645054 0.03598590680939691 0.040961007095042926 0.09455579951423619 0 0 0 0
39736362 -0.3358884913788045 0.03586012956419449 0.04103480672591476 0.09451431126927337 0 0 0 0
39769308 -0.3362371548113182 0.035992563580589054 0.04109039285588348 0.09462202084487681 0 0 0 0
39802254 -0.33630548181884795 0.036219014051697904 0.041258003400901425 0.09473816060891434 0 0 0 0
39835200 -0.33613014924011936 0.03591036448284736 0.04119118317878574 0.0947559793917787 0 0 0 0
39868146 -0.33637212654562204 0.036213830351992216 0.04137714663899631 0.09487340856751456 0 0 0 0
39901092 -0.3358369210098743 0.0361642452726616 0.04136104458821773 0.09482870279470311 0 0 0 0
39934038 -0.336185119552892 0.036178353529232425 0.04141667557582109 0.09494020205161426 0 0 0 0
39966984 -0.33630298653590723 0.036310363570211876 0.04151280892708236 0.09506304460172144 0 0 0 0
39999930 -0.33630176366359726 0.036136747544793235 0.04152725327980173 0.09505371962260312 0 0 0 0
