# HZ S RI R 50
300000 0.09273835228488062 0.06291472530896032 0.8889609042642546 0.1310945064299367 0 0 0 0
332946 0.11668452812451181 0.11460152124178365 0.8675893009573438 0.054757656630048314 0 0 0 0
365892 0.1566136029204221 0.13244964783397134 0.8274855600221366 0.016121986380047162 0 0 0 0
398838 0.18849114402989442 0.13037592119068506 0.7953627594135388 0.0032645075273792044 0 0 0 0
431784 0.1990912980419534 0.14965829699566638 0.7880352971603676 -0.011164494622668084 0 0 0 0
464730 0.21486494921472893 0.14091615242638586 0.7733744545694268 -0.011841863864484745 0 0 0 0
497676 0.2273275847166078 0.13132623310144526 0.7621444467126538 -0.011645142061652122 0 0 0 0
530622 0.23573164367602728 0.12306949653155891 0.7542802015022734 -0.011371339316604914 0 0 0 0
563568 0.24242191806666066 0.1158348375685226 0.7486590795069106 -0.010939206352137376 0 0 0 0
596514 0.24749439494889358 0.10932256939323776 0.7448380081916894 -0.010314610854324164 0 0 0 0
629460 0.2515494123317907 0.10367096179176181 0.7415844208428849 -0.009875100150247425 0 0 0 0
662406 0.2549433864910663 0.09809062941297689 0.7393251481322834 -0.009364426858627187 0 0 0 0
695352 0.25766716741371776 0.0934455372391815 0.7373952696219401 -0.00911266769442476 0 0 0 0
728298 0.25988855532607036 0.08916941673069882 0.7355129065374987 -0.009098662314631734 0 0 0 0
761244 0.26211099860256515 0.08512094186489448 0.7331813914626492 -0.00995551155375653 0 0 0 0
794190 0.2636941368167148 0.0814531666262434 0.7321935309319528 -0.01032127529004375 0 0 0 0
827136 0.2652341302682164 0.07839004903883402 0.7322372028078971 -0.010384622462637232 0 0 0 0
860082 0.2665213780405094 0.07523725373676585 0.7307675206875552 -0.010088697690716618 0 0 0 0
893028 0.2675508424423111 0.07238129805638578 0.7297581500363272 -0.011049557129278334 0 0 0 0
925974 0.2683102477095003 0.0698119167250194 0.7289856689801407 -0.01093280250589016 0 0 0 0
958920 0.26937783036450286 0.0671172549517307 0.7284638343938189 -0.011093160925644007 0 0 0 0
991866 0.2702435884146636 0.06498917850625355 0.7282947594809095 -0.011803028052042848 0 0 0 0
1024812 0.2707502130818365 0.06284980067355508 0.727038654857973 -0.012061494916204576 0 0 0 0
1057758 0.27153324625012787 0.06084874739567072 0.7272867719987776 -0.012372986773833451 0 0 0 0
1090704 0.2719489287169475 0.05902428990712422 0.7267118368162363 -0.013007059498154408 0 0 0 0
1123650 0.27236986904692323 0.057385657326758814 0.7263277874338037 -0.012897367714675825 0 0 0 0
1156596 0.2728794191530192 0.05576756516812421 0.7257919419806887 -0.013983133306522025 0 0 0 0
1189542 0.2734050291364589 0.05410621726517682 0.7257830122968782 -0.013530288031142574 0 0 0 0
1222488 0.2735038750978345 0.052590806274242397 0.7252433122014409 -0.013732978725120932 0 0 0 0
1255434 0.2739468177915734 0.05126675563977113 0.7250056212987507 -0.014299232132962197 0 0 0 0
1288380 0.27418013851771317 0.05012375620806003 0.7244751827665367 -0.01505590294897726 0 0 0 0
1321326 0.27439137561076093 0.0487521264815596 0.7244924608362009 -0.015056477640347746 0 0 0 0
1354272 0.27478180246158973 0.04754218052242828 0.7241480746477388 -0.015283376150076522 0 0 0 0
1387218 0.27489982401284363 0.04629777786434644 0.7239095546982596 -0.01572896985704907 0 0 0 0
1420164 0.2752924371448218 0.04520195564289833 0.7237957606146534 -0.016127038636079057 0 0 0 0
1453110 0.2754093476018015 0.044164912299436795 0.7238543040445413 -0.016744791041888436 0 0 0 0
1486056 0.27545655243864414 0.043364427780824714 0.7232054894123329 -0.01694447566768356 0 0 0 0
1519002 0.27570667289936057 0.04231846387004922 0.7236351189815778 -0.01707028585873594 0 0 0 0
1551948 0.2757533612431357 0.04151971490758909 0.7233058109904555 -0.01730004654455955 0 0 0 0
1584894 0.2760124617363185 0.04069180813101539 0.7228421005506881 -0.01747389204133584 0 0 0 0
1617840 0.27623008225377466 0.03978572865173227 0.7229581125565262 -0.018277305821369293 0 0 0 0
1650786 0.27617745608334754 0.03911444880330499 0.7226825382027864 -0.018515903312974424 0 0 0 0
1683732 0.27618741683424947 0.038357340199733976 0.7226866099652492 -0.01864426129348359 0 0 0 0
1716678 0.27634909618368325 0.03761548449096121 0.7225580115070752 -0.01906726521514669 0 0 0 0
1749624 0.2764641998479255 0.036896678838691334 0.7224469035439881 -0.019352441233689777 0 0 0 0
1782570 0.2765499872944173 0.036231614732169175 0.7220960116109961 -0.019527226060999926 0 0 0 0
1815516 0.2766772028047737 0.03570862748427541 0.7218504279842841 -0.01983115523962309 0 0 0 0
1848462 0.2768635264274483 0.035012638708647806 0.721737931570214 -0.020298622533807924 0 0 0 0
1881408 0.2770100961889243 0.034428485421330854 0.7219199642844988 -0.020649536105675922 0 0 0 0
1914354 0.27686345060298595 0.03387007650903462 0.7215370542783174 -0.021169549933585153 0 0 0 0
1947300 0.27695176563604035 0.03345460907656785 0.7220311285785319 -0.02082807382812611 0 0 0 0
1980246 0.27708980734672234 0.03277916089631794 0.720842954530816 -0.021673753701293604 0 0 0 0
2013192 0.2770784477992086 0.03238027370916273 0.7214405060293421 -0.021679899318816996 0 0 0 0
2046138 0.27708588620687946 0.031875407888725484 0.7212499353500578 -0.022049785102055908 0 0 0 0
2079084 0.277195271938998 0.03138176124066496 0.721116599528984 -0.022669527123530715 0 0 0 0
2112030 0.27721270443916807 0.030980240476343898 0.7213723401340407 -0.022678978980778263 0 0 0 0
2144976 0.27734981540430037 0.030443551787690926 0.7211794852664405 -0.023240077255311603 0 0 0 0
2177922 0.2773428700101072 0.03018712499527235 0.7212268443628476 -0.023075915765377843 0 0 0 0
2210868 0.2771947732264144 0.02979108737040268 0.7210554567498605 -0.023380057806621758 0 0 0 0
2243814 0.27757585091866405 0.029268164705392452 0.7210047671467803 -0.023942388012920875 0 0 0 0
2276760 0.2775834126590422 0.02879093424659787 0.7208291412973896 -0.024514890643234054 0 0 0 0
2309706 0.2774594828088612 0.02858868229463759 0.7208438150244014 -0.024150636259147 0 0 0 0
2342652 0.27754135328160356 0.02814679726957998 0.7204169883961361 -0.024838966939594222 0 0 0 0
2375598 0.27759385250010354 0.027838339969210403 0.7207229408696294 -0.02525449750959672 0 0 0 0
2408544 0.2775931621735736 0.02740885527884675 0.721028335183354 -0.025543059174297972 0 0 0 0
2441490 0.27763391994575093 0.02717916458503184 0.7208698316603404 -0.02579279228892617 0 0 0 0
2474436 0.27747113743226115 0.026880528745651507 0.7206094532881111 -0.02598805926461393 0 0 0 0
2507382 0.27784871930374166 0.02663609650339973 0.7201869724083666 -0.02626948590155229 0 0 0 0
2540328 0.2778454698647289 0.026243106820923304 0.7204530383212766 -0.026583285007735446 0 0 0 0
2573274 0.27765232713121224 0.02612650814742932 0.7204543891815665 -0.026699143035130674 0 0 0 0
2606220 0.2777199032825264 0.025847238938431612 0.7203993709152139 -0.02731839879006013 0 0 0 0
2639166 0.27795508959181664 0.02552137965853558 0.7204564970672651 -0.027643247699417287 0 0 0 0
2672112 0.2779675790747942 0.025118169113619946 0.7202823284728324 -0.028180448339108596 0 0 0 0
2705058 0.27796701703299753 0.024920998489606213 0.7198667973486961 -0.028128783200435867 0 0 0 0
2738004 0.2780612701360264 0.02470539288778207 0.7202233580290398 -0.028289760367400267 0 0 0 0
2770950 0.2780755977433814 0.02449288527600227 0.7200689453558559 -0.028620905279686266 0 0 0 0
2803896 0.2778960939975623 0.024232518228762427 0.7198658897774338 -0.02899116898099547 0 0 0 0
2836842 0.2779673120803606 0.024004750317444777 0.7200390123409838 -0.029073625201442115 0 0 0 0
2869788 0.27824524119369354 0.023682215720164313 0.720368088743562 -0.029934250803619458 0 0 0 0
2902734 0.2783421334740486 0.023547591195565327 0.7195743519083196 -0.02994688984170887 0 0 0 0
2935680 0.2780836558357822 0.023466573381272567 0.719675302607878 -0.03014251080325977 0 0 0 0
2968626 0.278095587544852 0.023075166096249364 0.7200285678103557 -0.030300591575842913 0 0 0 0
3001572 0.27828614815840336 0.02297350020456025 0.7199181918183171 -0.03086298212976009 0 0 0 0
3034518 0.2782868248303717 0.022759014230461158 0.7197513672972178 -0.03146719314504169 0 0 0 0
3067464 0.2781656744851143 0.02249908301555141 0.7193629988481476 -0.03136227569952047 0 0 0 0
3100410 0.27825752593605235 0.022400203134269287 0.7195984574631807 -0.03146918339306437 0 0 0 0
3133356 0.27817778049726327 0.022197122864119675 0.719868360470633 -0.03193340292581231 0 0 0 0
3166302 0.27845867152188014 0.02199536392070403 0.7192662124108462 -0.03228740447074588 0 0 0 0
3199248 0.2785097739557364 0.021828496280745402 0.7196783991425509 -0.03275738030033859 0 0 0 0
3232194 0.2783872274758383 0.021644554701291945 0.7193641931818405 -0.03286743388413767 0 0 0 0
3265140 0.2784255108470369 0.02144946412966649 0.7193860583242802 -0.03316655903797109 0 0 0 0
3298086 0.27850010633625333 0.021223790205938765 0.719415870326145 -0.03323876491758908 0 0 0 0
3331032 0.27864541707317186 0.021254114770573387 0.7196212883049189 -0.03373174941601122 0 0 0 0
3363978 0.2786128928277407 0.021089601546952576 0.7191463968680558 -0.034053707974012394 0 0 0 0
3396924 0.2787048809403743 0.02092981931980579 0.7191981564945046 -0.03423334126282767 0 0 0 0
3429870 0.2785127865132081 0.02060953619394908 0.7194932823020662 -0.035048160249128775 0 0 0 0
3462816 0.27863218646181287 0.02063547591785608 0.7191443393307829 -0.0346817602834404 0 0 0 0
3495762 0.2787807797186766 0.020312133519473072 0.7196113802173224 -0.03525193775247479 0 0 0 0
3528708 0.2787742100595736 0.020417125907390712 0.7188395494881563 -0.035542106123837375 0 0 0 0
3561654 0.27892544953347653 0.02016485626789236 0.7186254556786064 -0.03593683028669249 0 0 0 0
3594600 0.27907055914806955 0.020007251451253025 0.7187657853798569 -0.0360877238321321 0 0 0 0
3627546 0.27871073360759163 0.019783131894944316 0.7191770708857222 -0.036542535229792 0 0 0 0
3660492 0.2790538629625104 0.019651440027876606 0.718947935966327 -0.036420148296129384 0 0 0 0
3693438 0.2789029815638843 0.019566505249608318 0.7190862003425355 -0.03701876573602665 0 0 0 0
3726384 0.2789466500141722 0.019372080463124552 0.718992385759026 -0.03691902524459406 0 0 0 0
3759330 0.2789979282283 0.019054446947768835 0.7193414956109858 -0.03772118032397153 0 0 0 0
3792276 0.2791404526586043 0.01916313951518219 0.718924613556642 -0.03779006073416328 0 0 0 0
3825222 0.2791687830055088 0.019036399718397594 0.7188874043457986 -0.03819883017044827 0 0 0 0
3858168 0.27901779626101075 0.018978890405380842 0.7186329127527905 -0.03820053924357803 0 0 0 0
3891114 0.2791325107289282 0.018870635202600197 0.719118160926661 -0.03882416751578664 0 0 0 0
3924060 0.2791665072079249 0.018524634135181493 0.7188008961304226 -0.03911450657943226 0 0 0 0
3957006 0.2792921026397799 0.018600043288808914 0.7186410196349716 -0.039359200361364116 0 0 0 0
3989952 0.2794559596535194 0.018456598919908022 0.7183402988312151 -0.039530276657309175 0 0 0 0
4022898 0.2794534884783357 0.0183773381537351 0.7185253180357853 -0.04017789691207452 0 0 0 0
4055844 0.2791410232016018 0.018202831136496542 0.7180991630203862 -0.03987073259620449 0 0 0 0
4088790 0.2794940272880458 0.018144343081135657 0.7188511657451253 -0.04065684704364719 0 0 0 0
4121736 0.2792953616776816 0.017875144835167982 0.7184597277126393 -0.04051624293867462 0 0 0 0
4154682 0.2796646344743466 0.017866538906891476 0.7184477469288894 -0.04095581112692018 0 0 0 0
4187628 0.2797894381309105 0.017780170707527198 0.7185302583784373 -0.04158507564399677 0 0 0 0
4220574 0.2795303894343292 0.017746664647704607 0.7183203903165887 -0.041582696345885586 0 0 0 0
4253520 0.27940072673124056 0.017680363960611296 0.7181801878283661 -0.041681518987737254 0 0 0 0
4286466 0.2797880676628177 0.017475307751042623 0.7183910479481337 -0.04221015019032334 0 0 0 0
4319412 0.27976551488881934 0.017394138206276864 0.7182366845703237 -0.04232829150802627 0 0 0 0
4352358 0.2798861211097411 0.017170321404099943 0.718634481111691 -0.0429466467846395 0 0 0 0
4385304 0.2797091672236984 0.01705413992847696 0.7183809066163567 -0.04300438070354426 0 0 0 0
4418250 0.27997120435868417 0.016977998264283724 0.7180462236608225 -0.04335974719687855 0 0 0 0
4451196 0.28006995289589237 0.017065506000120925 0.7184991768856349 -0.043639905119615297 0 0 0 0
4484142 0.27989720364444953 0.01693038051566665 0.7180642298763289 -0.04372663612675247 0 0 0 0
4517088 0.2799752218392428 0.016708292036777716 0.7182932046628235 -0.044443739681378366 0 0 0 0
4550034 0.2800238709848103 0.016738710623837774 0.7178654181346495 -0.04437488178199395 0 0 0 0
4582980 0.2801860948883392 0.01645436094367818 0.7180946854113283 -0.04488906374805903 0 0 0 0
4615926 0.2800820221149322 0.016522072571970116 0.7184073033737652 -0.045149611299797644 0 0 0 0
4648872 0.2803345978949278 0.016403304673205922 0.7178477054060307 -0.045092306972156014 0 0 0 0
4681818 0.28038279241000935 0.016241553450434248 0.7178050660194278 -0.046020189184268236 0 0 0 0
4714764 0.2801522382435212 0.01641057751255353 0.7181105265211071 -0.046414749568427026 0 0 0 0
4747710 0.2803118245312984 0.016208107405671246 0.7182973092664504 -0.04630033873136554 0 0 0 0
4780656 0.2802637375227407 0.01606002052511245 0.7179918325199887 -0.04672096384333046 0 0 0 0
4813602 0.2805868433826875 0.015882174301141694 0.7179422038065415 -0.04670876440921194 0 0 0 0
4846548 0.28049105452544254 0.015933685568377903 0.717896180410614 -0.0475037550538841 0 0 0 0
4879494 0.2802815985513242 0.01593603517599966 0.7177173717485045 -0.04730135500699409 0 0 0 0
4912440 0.2805023558599914 0.015871784295737226 0.718059058569979 -0.047387464122325314 0 0 0 0
4945386 0.2805478344122449 0.015614893536839593 0.7180534277410523 -0.0484287642451472 0 0 0 0
4978332 0.2806243039987033 0.015648092482659894 0.7181563504834422 -0.04845026501572054 0 0 0 0
5011278 0.28063020091494517 0.015522552668808564 0.7176491161842424 -0.04899736350698673 0 0 0 0
5044224 0.28064200571827075 0.015394961274324784 0.7174269052365108 -0.04938479713859085 0 0 0 0
5077170 0.2805131348344399 0.015444733202962163 0.7175898589243204 -0.04928712296683801 0 0 0 0
5110116 0.28063225670356384 0.015360790204132476 0.7173090767496635 -0.04897834119952621 0 0 0 0
5143062 0.2807474102870161 0.015320567125170818 0.7177632571715303 -0.049748239451564674 0 0 0 0
5176008 0.28083063832174926 0.015075392754934018 0.7178454241689682 -0.05020197588692427 0 0 0 0
5208954 0.2807905186674175 0.0152008502314693 0.7176784500256208 -0.050441140432576824 0 0 0 0
5241900 0.28080669961276167 0.015174376835234094 0.7174081169295805 -0.05095844980479009 0 0 0 0
5274846 0.2810106370033893 0.014986991359096567 0.7177919124074652 -0.05120019825705839 0 0 0 0
5307792 0.28098805533950116 0.014871123085723255 0.7172607230035949 -0.05109053386116954 0 0 0 0
5340738 0.28126169998882006 0.014695095694019854 0.7176295503402697 -0.0520854173319922 0 0 0 0
5373684 0.2811363313865505 0.014683438988760969 0.717495894452946 -0.0517508176306532 0 0 0 0
5406630 0.2812399526243399 0.014679854491036575 0.7177092113672238 -0.05231152951229928 0 0 0 0
5439576 0.28128938016421384 0.014642535757266626 0.7175224258861193 -0.05265193641371982 0 0 0 0
5472522 0.2810220295347022 0.014643275256212188 0.717227804470517 -0.05292769866151226 0 0 0 0
5505468 0.28109400523278216 0.014472089855912414 0.7169374994436378 -0.05319968161293431 0 0 0 0
5538414 0.2812294553591828 0.014334107832775049 0.7170845662007228 -0.05332338710635609 0 0 0 0
5571360 0.28146584950417886 0.014331230277300912 0.7171778975970674 -0.05328161133820212 0 0 0 0
5604306 0.2813639853483765 0.014315204610381178 0.7170816723525274 -0.05372833338356785 0 0 0 0
5637252 0.28135892098665066 0.014132108348433805 0.7168611767610641 -0.0540524615359368 0 0 0 0
5670198 0.28155725471138704 0.013913869152740527 0.7171353014668659 -0.05474476772628769 0 0 0 0
5703144 0.28171034089302877 0.013924139515930705 0.7172507293593923 -0.05466161879098112 0 0 0 0
5736090 0.2816990064974313 0.013865430848538774 0.7172185307934057 -0.05483800888220086 0 0 0 0
5769036 0.2814966695741965 0.013974224210305914 0.7170351282109381 -0.055624630198613655 0 0 0 0
5801982 0.2816975922882689 0.013777267555331098 0.7164331197246796 -0.05537649407032261 0 0 0 0
5834928 0.28183401972116523 0.013833583996443317 0.716908600756655 -0.05595641324775143 0 0 0 0
5867874 0.2815969942652288 0.013792307256576642 0.7167303986602895 -0.056268735591735945 0 0 0 0
5900820 0.28183197709975694 0.013612991704508947 0.7169173559175199 -0.0566992302289874 0 0 0 0
5933766 0.2817269278797242 0.013684101547654905 0.7167868259705644 -0.056845381599434947 0 0 0 0
5966712 0.2817281018525765 0.013612109878423954 0.7166025960132953 -0.05709722284487598 0 0 0 0
5999658 0.2817060360730092 0.013481469891643736 0.7169788611813092 -0.05755945581630734 0 0 0 0
6032604 0.28203457952975486 0.013400743277840929 0.7166057575367786 -0.0573005227586101 0 0 0 0
6065550 0.28217350506046873 0.013461307482910577 0.7170259274256955 -0.05813334541982917 0 0 0 0
6098496 0.28211516899021544 0.013395866488108818 0.7169015111798619 -0.05844424568312968 0 0 0 0
6131442 0.282029807916763 0.013135331775029024 0.7166257496146737 -0.0587759589930884 0 0 0 0
6164388 0.28181072656960743 0.013223880308788022 0.7162976234524157 -0.05924954969300125 0 0 0 0
6197334 0.282099660206881 0.013142705156286981 0.7162998682440476 -0.05896334566061097 0 0 0 0
6230280 0.28220010664106127 0.01314248856906324 0.7164110128580925 -0.05926050752931841 0 0 0 0
6263226 0.2822662105079854 0.013052554412112907 0.7163324679837968 -0.05979358362148238 0 0 0 0
6296172 0.2823179173977205 0.012958210694522337 0.7164979399420406 -0.06015281394646062 0 0 0 0
6329118 0.28224359995025894 0.01295501270481848 0.7162544562020762 -0.0603774995275419 0 0 0 0
6362064 0.28222008473130705 0.012968078529949356 0.7162267417006467 -0.06050445597672528 0 0 0 0
6395010 0.28243477365634795 0.01280827540157595 0.7163765947862701 -0.06055085081787429 0 0 0 0
6427956 0.2825336157111503 0.01276348800616438 0.7165783491691569 -0.061112471420140105 0 0 0 0
6460902 0.28246600726664095 0.012628026088797931 0.715872810056176 -0.061676478965969395 0 0 0 0
6493848 0.2825333867637718 0.012638199544931733 0.716368041119166 -0.06191610411770871 0 0 0 0
6526794 0.2827807385748772 0.012478238992206929 0.7163122382964138 -0.0619381818893637 0 0 0 0
6559740 0.28248307170117554 0.01253464813896631 0.7161011082153959 -0.06221776114845693 0 0 0 0
6592686 0.282667038953881 0.012466419032537406 0.7160841514141925 -0.0625692703238802 0 0 0 0
6625632 0.28269861768026866 0.012402761842654772 0.7161141066629996 -0.06267164999103943 0 0 0 0
6658578 0.28258897061598315 0.012346715174380768 0.7159704789315062 -0.06330814049198169 0 0 0 0
6691524 0.2828372606237994 0.01209496259172551 0.7162416873660717 -0.06377998079530187 0 0 0 0
6724470 0.2827329436433638 0.012130042365350988 0.7155056554211012 -0.06397108631880344 0 0 0 0
6757416 0.28281304778378985 0.012324271858279555 0.7156759690683395 -0.06405166452834014 0 0 0 0
6790362 0.2828504641740576 0.012124696635017352 0.7156396502351173 -0.06422642941302192 0 0 0 0
6823308 0.2829679207213229 0.012054294483849122 0.7155301393282839 -0.06476354215717917 0 0 0 0
6856254 0.283138106026234 0.011911331162250724 0.7158057683868753 -0.0651299215429889 0 0 0 0
6889200 0.2830119775272098 0.012050079846785211 0.7157561918612534 -0.06535293548225284 0 0 0 0
6922146 0.280948202432539 0.015431619758489543 0.7150068853293255 -0.0635883248902222 0 0 0 0
6955092 0.2810930895741704 0.015393696338012325 0.7148594286845237 -0.06378742555981363 0 0 0 0
6988038 0.28103216256248986 0.015293936486735736 0.7147245646704865 -0.06409566926858919 0 0 0 0
7020984 0.2812326343669739 0.015083707834580923 0.7146734802965481 -0.06462024470808116 0 0 0 0
7053930 0.2812800635190469 0.01517800125995026 0.714506806941184 -0.0648914871919933 0 0 0 0
7086876 0.28120047174418406 0.01501524843314189 0.7148101088925951 -0.06510367595854774 0 0 0 0
7119822 0.28134553773089704 0.015115156308168117 0.7146650172161754 -0.06537901823470568 0 0 0 0
7152768 0.28111960045997925 0.015098062145954385 0.7145475881406608 -0.06524089626618919 0 0 0 0
7185714 0.2814259418149794 0.014910669725804467 0.7145929440732084 -0.06614646833129476 0 0 0 0
7218660 0.2812678462803556 0.014973056283733108 0.7145007080586199 -0.06597676207029755 0 0 0 0
7251606 0.281352976326598 0.014900131707264393 0.7136816434424821 -0.06627511842327079 0 0 0 0
7284552 0.2813699630741097 0.01488249140397038 0.7139207563879018 -0.0667494791038123 0 0 0 0
7317498 0.2814659408735339 0.01473208600742189 0.7142848349112282 -0.06711458673720351 0 0 0 0
7350444 0.28162301894555414 0.014696162824920568 0.7145710706329669 -0.06755678523323512 0 0 0 0
7383390 0.2817067708456119 0.014577054664827638 0.7140343775969809 -0.06789700797591841 0 0 0 0
7416336 0.28146871855528305 0.014677468746921819 0.7142604355956566 -0.06783002055324876 0 0 0 0
7449282 0.2816284789338 0.014692082750470485 0.7142991712611506 -0.06841241185296794 0 0 0 0
7482228 0.28167904754597467 0.014514714232588157 0.7138810317781432 -0.06859151058052813 0 0 0 0
7515174 0.2817997525556333 0.014529386858778547 0.7139010790795731 -0.06869782634337017 0 0 0 0
7548120 0.28204042031303184 0.014403954829457758 0.7141624584994369 -0.06948748984731869 0 0 0 0
7581066 0.2816842576083503 0.014449794170218832 0.7138128368673006 -0.06930018221133241 0 0 0 0
7614012 0.28177432793881696 0.014369531289770249 0.7141248708015431 -0.0699866175653657 0 0 0 0
7646958 0.2818319668329606 0.014290335507019861 0.7137014296041674 -0.07000344828528471 0 0 0 0
7679904 0.2818979785321746 0.014362863855755931 0.7140204078197189 -0.07049528531108849 0 0 0 0
7712850 0.2820035649669967 0.014307384817917414 0.7134930468877497 -0.070581405209577 0 0 0 0
7745796 0.2819685940961911 0.0141803103084936 0.7135894456252078 -0.07068253910213831 0 0 0 0
7778742 0.2821684766781399 0.01411216732427024 0.7137306716728193 -0.07123854602327047 0 0 0 0
7811688 0.28229358297884477 0.013961282022854005 0.7137716073918775 -0.07183324386688947 0 0 0 0
7844634 0.2822074785551714 0.013863854329515151 0.7136345705939942 -0.07197901558074449 0 0 0 0
7877580 0.2823136504498586 0.013985818805569126 0.7136433445929385 -0.0720785872932481 0 0 0 0
7910526 0.28219178173080234 0.014072274334315868 0.7133382978841443 -0.0724527419829335 0 0 0 0
7943472 0.2822126737339862 0.013929680869260266 0.7131274511792954 -0.07270777613285698 0 0 0 0
7976418 0.2822397889240614 0.013913506626086624 0.7134898215636184 -0.07276022706555854 0 0 0 0
8009364 0.2822801215913036 0.013814642542652519 0.7135999279036271 -0.0732425147849088 0 0 0 0
8042310 0.28228918385543234 0.013703743209562084 0.7133139551263428 -0.07347712893319483 0 0 0 0
8075256 0.28261745553591644 0.013771735718227901 0.7132382677109913 -0.07327727422154919 0 0 0 0
8108202 0.28240517600602344 0.013825866784713226 0.7127945875953153 -0.07386599572140547 0 0 0 0
8141148 0.2824966513906175 0.013612024371747824 0.7132085792119974 -0.07416359696334057 0 0 0 0
8174094 0.2824774563174709 0.013620400204942776 0.7127049613240442 -0.07450209311530188 0 0 0 0
8207040 0.2825640431856805 0.013579574504319186 0.7132636110643588 -0.07480703563345721 0 0 0 0
8239986 0.2828003460451502 0.013518977986256892 0.7128100773962939 -0.0748871837372831 0 0 0 0
8272932 0.2827568130745759 0.013339547473064194 0.7129538271006289 -0.07548860305785068 0 0 0 0
8305878 0.2825797533417737 0.013600449680400062 0.71286281826311 -0.07557736659263237 0 0 0 0
8338824 0.2827318418226911 0.013482547938196645 0.7130788521268077 -0.07607266117849361 0 0 0 0
8371770 0.2827629721299384 0.013278691825495093 0.7127592174226772 -0.07618446467044719 0 0 0 0
8404716 0.2827493591003963 0.013180388717225001 0.712755383302238 -0.07652468474005132 0 0 0 0
8437662 0.28297548154754243 0.013172214101447815 0.7125284374819274 -0.0765315564164835 0 0 0 0
8470608 0.28309521162398993 0.0131988345203796 0.7125450320402532 -0.0769913874856507 0 0 0 0
8503554 0.2828945583330676 0.013262096493921393 0.7124943410887455 -0.07752721512730512 0 0 0 0
8536500 0.2829280581305915 0.013184283262579186 0.7127774302150882 -0.07754933943062393 0 0 0 0
8569446 0.2830389111775016 0.013178539503605051 0.7124574364406875 -0.07810186311180918 0 0 0 0
8602392 0.2831582800760905 0.012978914506950308 0.7124332950366664 -0.07835562431537946 0 0 0 0
8635338 0.28328518258582175 0.012958687127418602 0.7123165851405978 -0.07843914185032484 0 0 0 0
8668284 0.28311871150742773 0.012864307365162279 0.7125381668854621 -0.07896135738410129 0 0 0 0
8701230 0.2831337323806788 0.012972234918424018 0.7123160912979133 -0.07902089352880526 0 0 0 0
8734176 0.28327227195445237 0.012975618100318984 0.712383879465555 -0.07953138177907312 0 0 0 0
8767122 0.28329064585653374 0.012832121066385645 0.7123636471304987 -0.07990714330488458 0 0 0 0
8800068 0.283298215255502 0.012801082788510611 0.7119665077706973 -0.07989601115835063 0 0 0 0
8833014 0.2833839702498104 0.012707682406920204 0.7121493080670978 -0.08036817537743987 0 0 0 0
8865960 0.28361505080275723 0.012529753345695071 0.7123808682690845 -0.08089020846936323 0 0 0 0
8898906 0.2835650525811444 0.012704755003405229 0.7122888601575149 -0.0809828079702895 0 0 0 0
8931852 0.2835318509618908 0.012666037070734193 0.711688886169965 -0.08128633733887662 0 0 0 0
8964798 0.2835264356303778 0.012608702974199412 0.7116539135463341 -0.08144648241161656 0 0 0 0
8997744 0.28366278490972935 0.012435420214520551 0.7121605451166194 -0.08183296139408064 0 0 0 0
9030690 0.283726462370203 0.012580888431735032 0.7116980425818805 -0.08202287446160891 0 0 0 0
9063636 0.28361658070153783 0.012614652790424079 0.7118916556212264 -0.08237400472538339 0 0 0 0
9096582 0.2837349088514273 0.012455882908683491 0.7117421184259577 -0.08270433842438475 0 0 0 0
9129528 0.2838502541716111 0.012487839525842785 0.7117558560504927 -0.08277162327465026 0 0 0 0
9162474 0.2839261882632419 0.01223704896165373 0.7116877334222221 -0.08325263948405189 0 0 0 0
9195420 0.2840252251208251 0.012222813725117326 0.7119420598878289 -0.0833795143276344 0 0 0 0
9228366 0.283963844967634 0.01213547079471181 0.7116509525236424 -0.0839945293251106 0 0 0 0
9261312 0.2838836060673871 0.01217768814975997 0.7117922214624195 -0.08408401349938216 0 0 0 0
9294258 0.2839519292906342 0.012237052717434459 0.7113823530326423 -0.08452536668115519 0 0 0 0
9327204 0.2838977371392682 0.012186207831222552 0.7110025041912883 -0.08478205767830753 0 0 0 0
9360150 0.2840167617538683 0.01214030340176907 0.7112157987286936 -0.08478991823888485 0 0 0 0
9393096 0.2840386222106444 0.012083675416389543 0.7111711757945196 -0.0851873246669712 0 0 0 0
9426042 0.28416875381030104 0.011976120950844082 0.7112660248456953 -0.0855015128507137 0 0 0 0
9458988 0.28436088124424747 0.011949109566616434 0.710907902731302 -0.08559475025568042 0 0 0 0
9491934 0.2841609875457424 0.012025050207334622 0.7111452125441329 -0.08634955176052095 0 0 0 0
9524880 0.28433668562930614 0.012058101151202346 0.7110480834115945 -0.08622297312452919 0 0 0 0
9557826 0.284353522088459 0.011893940604859285 0.71123750388893 -0.0865079989572121 0 0 0 0
9590772 0.2842247513294007 0.011802240460104715 0.7108299605975968 -0.08710906626812243 0 0 0 0
9623718 0.28447927170442827 0.011685699534189985 0.7108407277490808 -0.08746579009585483 0 0 0 0
9656664 0.28453804464441806 0.011589024283319973 0.7110624805842015 -0.08768555961542518 0 0 0 0
9689610 0.28457388980059894 0.011691537268853117 0.7106618610979372 -0.08774537090986467 0 0 0 0
9722556 0.28454042620627795 0.011601995718088502 0.7106931784397499 -0.08783049525758527 0 0 0 0
9755502 0.2846190832747173 0.011593850215358529 0.7105679255647966 -0.08834105246902416 0 0 0 0
9788448 0.2847475337330197 0.011565366363316587 0.7103581210578856 -0.08852134813678515 0 0 0 0
9821394 0.28466611879534787 0.011349698803858284 0.7106349839794239 -0.08897076962508035 0 0 0 0
9854340 0.2847003943314254 0.011468687976600734 0.7105765714141248 -0.08935351540945279 0 0 0 0
9887286 0.28487089671623395 0.011384389079048929 0.710483081159327 -0.08924606797275107 0 0 0 0
9920232 0.28460647658944616 0.011350366005937404 0.7103929777742198 -0.08974209827988253 0 0 0 0
9953178 0.2846369264313159 0.011346288878986917 0.7101560501575784 -0.09026140966020936 0 0 0 0
9986124 0.2848822971415105 0.011295201678041893 0.7102226154353725 -0.09029600930886426 0 0 0 0
10019070 0.2850869255048148 0.011262088323488179 0.7099882754477107 -0.09062538154998112 0 0 0 0
10052016 0.2849687472831167 0.011252433317378675 0.710101310008307 -0.09096122470838482 0 0 0 0
10084962 0.28502847505283335 0.011094223150295976 0.7100353472047989 -0.09126343740523836 0 0 0 0
10117908 0.2848241919794483 0.011244553750608434 0.7098649695725783 -0.09151286191036306 0 0 0 0
10150854 0.2851127076261818 0.011095740518051742 0.7100402234245502 -0.09201006918219652 0 0 0 0
10183800 0.2852026449644315 0.011040256229803803 0.7097493732395843 -0.09212372437628565 0 0 0 0
10216746 0.28538860228111373 0.011006353171417429 0.7099132501535518 -0.09235887482566267 0 0 0 0
10249692 0.28541966149046544 0.010997247910287061 0.7100122538107227 -0.09255182644570414 0 0 0 0
10282638 0.28519556016674663 0.010904324231944186 0.7098593184157052 -0.0929315344380689 0 0 0 0
10315584 0.2850570283377868 0.0109362837459546 0.7095500327247345 -0.0931965023084135 0 0 0 0
10348530 0.2853196390158497 0.010873734062579868 0.7098831927609753 -0.09327572305147605 0 0 0 0
10381476 0.2853144280894924 0.010819125045421011 0.7095282784231013 -0.09399456136290726 0 0 0 0
10414422 0.28539480765282577 0.010710382840756733 0.709751981608075 -0.09422408074498075 0 0 0 0
10447368 0.2853509057265264 0.010843508695232689 0.7094291355471952 -0.09446131451801223 0 0 0 0
10480314 0.28539537053253344 0.010625975418859835 0.7093266073302095 -0.09448276742361728 0 0 0 0
10513260 0.2854187570554756 0.010706406549548995 0.7090764691179664 -0.0947807069871782 0 0 0 0
10546206 0.2856967591856154 0.01061883589141997 0.7088553622906955 -0.09531465813091326 0 0 0 0
10579152 0.28565587207769155 0.010697601809838125 0.7091749067027543 -0.09532547348182799 0 0 0 0
10612098 0.28574575308591954 0.01044676768325274 0.7092750716755747 -0.09581697654823924 0 0 0 0
10645044 0.2857495970180055 0.010580620845168883 0.708915485437613 -0.09604897836932395 0 0 0 0
10677990 0.2855788649866691 0.010447444763331473 0.7088240053515049 -0.09619859420856418 0 0 0 0
10710936 0.28585049091667863 0.01041940991969887 0.7090820521605672 -0.09705176802916325 0 0 0 0
10743882 0.2859301913410603 0.010303135567738321 0.7087196560103267 -0.09714748781075011 0 0 0 0
10776828 0.28581921827277146 0.010405556140951965 0.7085529189954021 -0.09729274544440156 0 0 0 0
10809774 0.285845868456664 0.01035547434810393 0.7088077359780048 -0.0974040274365758 0 0 0 0
10842720 0.28593668199943834 0.010273641001111614 0.7087523860667835 -0.09761902451934316 0 0 0 0
10875666 0.28614297179083886 0.010318750206849595 0.7083657784948486 -0.09809777714522913 0 0 0 0
10908612 0.2859526469404429 0.010220343450348895 0.7085545683797653 -0.09826805209902323 0 0 0 0
10941558 0.28608418572565564 0.010246898638143794 0.7083865172703737 -0.09872500565533315 0 0 0 0
10974504 0.286103440491717 0.01006883712113439 0.7082883407954323 -0.09901164091881444 0 0 0 0
11007450 0.2860520305254946 0.009928873307323158 0.7084475822620925 -0.09918288876361472 0 0 0 0
11040396 0.2861585219825292 0.010032936408639405 0.7081322002951235 -0.09930586782026482 0 0 0 0
11073342 0.2863438520834611 0.009992430208585132 0.7084115794995312 -0.09989583258718875 0 0 0 0
11106288 0.28646212393049136 0.009957384673894315 0.7081155830599926 -0.10022619326467591 0 0 0 0
11139234 0.28644292459067777 0.009938129609073847 0.7081034959451403 -0.10034748007256616 0 0 0 0
11172180 0.2864858847951913 0.009840062941040041 0.7082647009396497 -0.10045663614198863 0 0 0 0
11205126 0.28632955163553725 0.009957228704382566 0.7078762981441995 -0.10091154025239768 0 0 0 0
11238072 0.2864764465991299 0.009874777089599295 0.7076797090932122 -0.10114915303461222 0 0 0 0
11271018 0.2862897968530297 0.009736173486572876 0.7082828706919521 -0.10131724227328541 0 0 0 0
11303964 0.28650778480748645 0.0096546916747542 0.7075636092868449 -0.10163520910886249 0 0 0 0
11336910 0.2867111456958566 0.009720355619650574 0.7076052270788749 -0.10219270942644593 0 0 0 0
11369856 0.2867727838002436 0.009634860428205272 0.7075452120960233 -0.10230687911790642 0 0 0 0
11402802 0.2867283632246739 0.009654492596909101 0.7076827397676461 -0.10243115163406713 0 0 0 0
11435748 0.2867941238274413 0.009623380477200542 0.7079124720509514 -0.10299631814952606 0 0 0 0
11468694 0.2867334502196938 0.009543942736469073 0.7071825498888542 -0.10329927786739311 0 0 0 0
11501640 0.28671736348127164 0.009549989006062498 0.7070646188108883 -0.10325446216924983 0 0 0 0
11534586 0.2868036930007099 0.00944765951877544 0.7074068954032197 -0.10373798578855031 0 0 0 0
11567532 0.2871829930540052 0.00939586636948773 0.7073521329674757 -0.10418778405613739 0 0 0 0
11600478 0.286954030423598 0.009539670216331828 0.7072102172136531 -0.10445389968298527 0 0 0 0
11633424 0.2870583649781113 0.009357806072368207 0.7075037470882858 -0.10466789292636734 0 0 0 0
11666370 0.28705689666422457 0.009371210562635573 0.7070325348099686 -0.10505621993089623 0 0 0 0
11699316 0.2870420566179718 0.0092702259112096 0.7071725562642226 -0.10525998519506619 0 0 0 0
11732262 0.2870496367761793 0.009267425278525919 0.7069384106820101 -0.10540384603322056 0 0 0 0
11765208 0.28748689943689043 0.009127881011085713 0.7070215174312284 -0.10587391802114918 0 0 0 0
11798154 0.28716134412603894 0.00931898956576437 0.7070728254747982 -0.10577632359304719 0 0 0 0
11831100 0.28727046568364506 0.009136179041111745 0.7065095099938841 -0.10626933188099946 0 0 0 0
11864046 0.28718828153814435 0.00911347988196965 0.7068795136574059 -0.10643992220635133 0 0 0 0
11896992 0.28727407510225594 0.008935626907902889 0.7066111927100877 -0.10661361202287183 0 0 0 0
11929938 0.2874068283919908 0.009003800707399683 0.7064286156429608 -0.10716187435912111 0 0 0 0
11962884 0.28757951550760436 0.008919413016255835 0.7065036314926342 -0.10725700504882943 0 0 0 0
11995830 0.2874768515953703 0.00892333368841427 0.7064219564922071 -0.10762814331344726 0 0 0 0
12028776 0.28742330447207626 0.00883952724173957 0.7061965136030799 -0.10804616649645692 0 0 0 0
12061722 0.2875511466924177 0.00887952328502982 0.706272037359178 -0.1078839818203503 0 0 0 0
12094668 0.2876253249635683 0.008778457524975396 0.7060104738246443 -0.10834431431497049 0 0 0 0
12127614 0.2875681302303337 0.00875249406678132 0.7062107465203354 -0.10870576562322394 0 0 0 0
12160560 0.28761034737699814 0.008837520893494691 0.7061786193754873 -0.10902087185975595 0 0 0 0
12193506 0.28784754709226357 0.00870728574292489 0.7060092669782118 -0.10966257283411328 0 0 0 0
12226452 0.28774279095077765 0.00880553039209111 0.7061691064206641 -0.1098274500046881 0 0 0 0
12259398 0.28788882707577823 0.008621697947853833 0.7058158997118683 -0.10960706398550024 0 0 0 0
12292344 0.2878928789354263 0.00866512062064166 0.7056095552181143 -0.1101229694068016 0 0 0 0
12325290 0.28808614068562133 0.008499136547484763 0.705695999433863 -0.11029903159605473 0 0 0 0
12358236 0.2880120400620849 0.008591016106749439 0.7057477392749602 -0.11061788742096494 0 0 0 0
12391182 0.2878793767027348 0.008560274274636433 0.7060538739958127 -0.11125287917202054 0 0 0 0
12424128 0.2879910982612518 0.008418704740912884 0.7051466427553637 -0.11159370775033207 0 0 0 0
12457074 0.2879650219550749 0.008372449465056603 0.7053985842478196 -0.11163316914515926 0 0 0 0
12490020 0.288084013741565 0.008378680533927221 0.70502740288099 -0.11166889634074309 0 0 0 0
12522966 0.28810799407734533 0.008236469530984293 0.7049087454271755 -0.11196779289446165 0 0 0 0
12555912 0.28828775751922037 0.008351315654599808 0.7049968105503971 -0.11251805205664606 0 0 0 0
12588858 0.288228212854031 0.008274263167179455 0.7049117135796105 -0.11286079925745396 0 0 0 0
12621804 0.2885248131174672 0.00821829693504643 0.7052861504602793 -0.11312937348224532 0 0 0 0
12654750 0.2884085933587287 0.008053726271713406 0.7048658117347204 -0.11312924573020434 0 0 0 0
12687696 0.2883128862507044 0.0082455844285169 0.7051183802103863 -0.1138309551429751 0 0 0 0
12720642 0.2884176106726665 0.00819954765292858 0.7048993680958037 -0.11425221678416152 0 0 0 0
12753588 0.2881784585066142 0.00815198045652518 0.7048668273346929 -0.11407035476304307 0 0 0 0
12786534 0.28850978745671707 0.008029991954892807 0.7045376392411259 -0.11432456203810812 0 0 0 0
12819480 0.28859548450732214 0.007898560695618343 0.70436480143324 -0.11451335388755736 0 0 0 0
12852426 0.28865902116246367 0.007957196192313684 0.7044839189516667 -0.11500730228533458 0 0 0 0
12885372 0.28858060560916887 0.007933199036195666 0.7046868330279126 -0.11527630256815584 0 0 0 0
12918318 0.28867702373797827 0.007834367585041723 0.7043401938056602 -0.11578792680587273 0 0 0 0
12951264 0.28878025153259573 0.007901587303973865 0.7042686833198436 -0.1159132924258972 0 0 0 0
12984210 0.2886229490520763 0.007760354047929253 0.7043127698606312 -0.11591914571939604 0 0 0 0
13017156 0.2887745113467215 0.00768288830566507 0.7040973158903905 -0.11630819799088297 0 0 0 0
13050102 0.28905005437621173 0.007664821651797801 0.7041881169091053 -0.11682405786917711 0 0 0 0
13083048 0.2888910634948338 0.00775757005910795 0.70405179243764 -0.11689948213931764 0 0 0 0
13115994 0.2889216053499095 0.0077201817591740825 0.7038420052745302 -0.1174637464195167 0 0 0 0
13148940 0.2888721147652834 0.007598556590370855 0.7039389651640864 -0.11712721217960699 0 0 0 0
13181886 0.2891613795809367 0.007515221119980383 0.704016574878112 -0.11815683719019933 0 0 0 0
13214832 0.28904001400625445 0.007544622872011451 0.7039342359088437 -0.11815878350570772 0 0 0 0
13247778 0.2890977141965115 0.007490544133755735 0.703889262842427 -0.11777456475404095 0 0 0 0
13280724 0.28932716000806635 0.007412771609566769 0.7038151836701785 -0.11869515537132923 0 0 0 0
13313670 0.2891294245987875 0.007386748919413566 0.7032759990218689 -0.11871889049788897 0 0 0 0
13346616 0.2893855689466112 0.007298841407945361 0.7036575804004349 -0.11938622909598595 0 0 0 0
13379562 0.2892541463197246 0.00729144298334721 0.7032546759798314 -0.11920914620826155 0 0 0 0
13412508 0.2892615965076438 0.007313176901300239 0.7033894432820316 -0.11984206324913224 0 0 0 0
13445454 0.2893670276205815 0.007244033133578223 0.7028360801690126 -0.11993217084544448 0 0 0 0
13478400 0.28939911870488744 0.007331357798213832 0.7032469137734012 -0.1203661840464602 0 0 0 0
13511346 0.28961368533888054 0.007163296472837611 0.703035367518349 -0.12072697436156488 0 0 0 0
13544292 0.28946191639456925 0.007045955264043298 0.7030639908921447 -0.12088431331568349 0 0 0 0
13577238 0.28969964008556953 0.007023202408404498 0.7032680497876298 -0.12134698963334553 0 0 0 0
13610184 0.28966799880028904 0.00716661863349715 0.7028961788620354 -0.12139188455947048 0 0 0 0
13643130 0.28989000908884216 0.006965507964934308 0.702808437582296 -0.12187523153613336 0 0 0 0
13676076 0.2897514736076649 0.007077300505032107 0.7030086798036432 -0.1218686240062223 0 0 0 0
13709022 0.28984482291103303 0.006916850994270976 0.7028127790889521 -0.12242578485953297 0 0 0 0
13741968 0.28972578810266536 0.006973292311307185 0.7025153154984829 -0.12228200432444705 0 0 0 0
13774914 0.28984162802035657 0.00679045590142563 0.7024042714640673 -0.12239744652933812 0 0 0 0
13807860 0.28979688526191494 0.006927918462141234 0.7021187081328119 -0.1229741775523617 0 0 0 0
13840806 0.2899774760554774 0.0066444490653783436 0.7026582070271722 -0.12362149903950247 0 0 0 0
13873752 0.2899560690659125 0.006696195007206355 0.7020917853170047 -0.1235881849680349 0 0 0 0
13906698 0.2901236093542804 0.00669205732605879 0.7019400755975168 -0.12380514243018767 0 0 0 0
13939644 0.2899934638802941 0.006713375553689031 0.702224575835783 -0.12425483408538307 0 0 0 0
13972590 0.28996947324785965 0.006652774069184404 0.7017982133600205 -0.12456775238447336 0 0 0 0
14005536 0.2902360578588883 0.006615581972029343 0.7019444991615755 -0.12487835054846304 0 0 0 0
14038482 0.2901076312309948 0.006592786801138853 0.7019539102110003 -0.12502137657253615 0 0 0 0
14071428 0.29023646462506036 0.0066020411579007674 0.7021747887180811 -0.1252567249236521 0 0 0 0
14104374 0.29019765939442715 0.006376496144717559 0.7017969108824553 -0.1254825879399972 0 0 0 0
14137320 0.29018039194502177 0.006497625763158787 0.7016089795837211 -0.12556629246828102 0 0 0 0
14170266 0.2903978518671149 0.006462728473028913 0.7018080401406459 -0.12610129646061494 0 0 0 0
14203212 0.2903816422525668 0.006476564783701557 0.7016044361666843 -0.12644946985927608 0 0 0 0
14236158 0.2906247625935948 0.0062922136554894904 0.7012379747936789 -0.12704576253634947 0 0 0 0
14269104 0.29071475055063783 0.006153594698215873 0.7013285913057524 -0.12707597321459374 0 0 0 0
14302050 0.29059685379266276 0.006408655681735567 0.7012640278418613 -0.12721456651958313 0 0 0 0
14334996 0.29052085932515975 0.006234926083597609 0.7008556906200241 -0.1272317284530498 0 0 0 0
14367942 0.2906355447139845 0.006281314796743858 0.7011760062666218 -0.12786063506608514 0 0 0 0
14400888 0.2905624257323388 0.006290355464982847 0.7005651421333106 -0.1281504563479243 0 0 0 0
14433834 0.2910288894047199 0.005974498603266903 0.7008830670224987 -0.12842976225868272 0 0 0 0
14466780 0.2907497177642452 0.006168067120203732 0.7009835269197578 -0.12829255247403343 0 0 0 0
14499726 0.29083784289448433 0.006047616526975441 0.7011178671590325 -0.12887310499234303 0 0 0 0
14532672 0.29107320377994694 0.005919929315628824 0.7012477300241554 -0.12925755026845132 0 0 0 0
14565618 0.2908704867707126 0.0060324799681580115 0.7005057199295821 -0.1289779653953517 0 0 0 0
14598564 0.2909810179694508 0.006043254721461853 0.7004361104258893 -0.1296563578236777 0 0 0 0
14631510 0.29112896540375677 0.0059890847450975015 0.7003726414143857 -0.1299198278587175 0 0 0 0
14664456 0.29108448030469297 0.005805616286516455 0.7004602400240061 -0.13056975438529375 0 0 0 0
14697402 0.2910667027467951 0.005789304460536953 0.7005457021496093 -0.1304639846237759 0 0 0 0
14730348 0.2911273410915458 0.005742621434853561 0.7001273748527322 -0.13081398741986883 0 0 0 0
14763294 0.29119095147392804 0.005780732677043731 0.6998420336489525 -0.13095255575574222 0 0 0 0
14796240 0.29128885171607866 0.005662754313240147 0.7000771318057508 -0.13119688923820905 0 0 0 0
14829186 0.2912196144566789 0.0057295079558615245 0.6998193386464453 -0.13161580648110643 0 0 0 0
14862132 0.2914785272504206 0.005503169084848368 0.6996147795822023 -0.13197180032084466 0 0 0 0
14895078 0.2915593744771283 0.0054289822137394556 0.699677184817113 -0.13230250868850993 0 0 0 0
14928024 0.29128892520132277 0.005489473788613028 0.699524000702278 -0.13226489667476007 0 0 0 0
14960970 0.29145351331033653 0.005581120693599235 0.6994228781911184 -0.1325596243171682 0 0 0 0
14993916 0.29170651807509335 0.005413929913109774 0.6996651796777091 -0.1330640440269927 0 0 0 0
15026862 0.2916489781731837 0.005493497261142108 0.6995790009784888 -0.1336029413717624 0 0 0 0
15059808 0.2917427758111975 0.0053784646258862815 0.6993699807733169 -0.13354785160798188 0 0 0 0
15092754 0.2917561108746712 0.005359299721480325 0.6998332219032596 -0.1339112220159018 0 0 0 0
15125700 0.29164697609376267 0.005393131443372402 0.699534344730409 -0.13407393767488407 0 0 0 0
15158646 0.2916847753440734 0.005361758151901047 0.6989684982274988 -0.13415421939891928 0 0 0 0
15191592 0.2917995508854434 0.005212049940307402 0.6992255355490716 -0.13458483771456548 0 0 0 0
15224538 0.2918349112209209 0.005290932071348233 0.6988088960136927 -0.13496843263768812 0 0 0 0
15257484 0.29182021071757475 0.005231875714521174 0.6986946764859692 -0.13536942348348044 0 0 0 0
15290430 0.2918551759927978 0.005066308357012284 0.6984377786068569 -0.13538066407961036 0 0 0 0
15323376 0.29221179344778214 0.004885093582181209 0.6986188396688457 -0.136138595605159 0 0 0 0
15356322 0.29207130365607825 0.005112644056378752 0.6984258193947745 -0.135864310920569 0 0 0 0
15389268 0.29196725293702525 0.004926693159536999 0.6981944317062185 -0.13610626634442224 0 0 0 0
15422214 0.29216842091707784 0.0049562985435725355 0.6985105307660605 -0.13675048888841165 0 0 0 0
15455160 0.29216155878495503 0.005049368311728117 0.6980700961995043 -0.13700028072834508 0 0 0 0
15488106 0.29221978558199635 0.004913350796410023 0.6980413680121621 -0.13705551832757246 0 0 0 0
15521052 0.2924261325902412 0.004807761421451968 0.698070266713936 -0.13712117980479382 0 0 0 0
15553998 0.29237464917977873 0.004807303467636499 0.6981792810577983 -0.13761922195237763 0 0 0 0
15586944 0.292412469007777 0.004825858865076354 0.6977074805612283 -0.13816073634272438 0 0 0 0
15619890 0.292588158812814 0.004693183202232288 0.6977945214061536 -0.13824053071952447 0 0 0 0
15652836 0.29237398592168173 0.00473709665529898 0.6981691728639516 -0.13858057170972646 0 0 0 0
15685782 0.29246897353462853 0.0047382005177160095 0.6977845955741342 -0.13897603038286935 0 0 0 0
15718728 0.2925532731126434 0.004620996037541104 0.6976046579465849 -0.1388225750273802 0 0 0 0
15751674 0.2926459138072459 0.004636253363301029 0.6975582290898038 -0.13944688186775123 0 0 0 0
15784620 0.2926250326335085 0.004590575085071752 0.6973992768128079 -0.13963451647605699 0 0 0 0
15817566 0.2927548945771124 0.004438124292894524 0.6976826675099792 -0.14011754989449354 0 0 0 0
15850512 0.2927848925929906 0.0044625921751955105 0.6973347811255883 -0.1399902783740878 0 0 0 0
15883458 0.2929482840342895 0.004494794074001764 0.6973347202408968 -0.140334638189819 0 0 0 0
15916404 0.29284092123199784 0.004420671954232443 0.6968186446761775 -0.14091764224132786 0 0 0 0
15949350 0.29278221788614994 0.0043544643143751645 0.6968696574788847 -0.1410115307129185 0 0 0 0
15982296 0.29289005062746715 0.0042457468125926025 0.6973419410162042 -0.14140341812436666 0 0 0 0
16015242 0.2930560144650648 0.004168046938771071 0.6967506138858831 -0.14167295323380338 0 0 0 0
16048188 0.2929711842772082 0.00440879897854014 0.6969744845483484 -0.14182687178820677 0 0 0 0
16081134 0.2931940381372607 0.004166552442927819 0.6964170631500011 -0.14211026249889028 0 0 0 0
16114080 0.2930527913910879 0.004237173823714345 0.6968831210776953 -0.14252142925152142 0 0 0 0
16147026 0.29315246942680545 0.004117862008823382 0.696434871941988 -0.14263023520352122 0 0 0 0
16179972 0.2931578731241372 0.004081652318279066 0.6963173772065051 -0.14285951833746569 0 0 0 0
16212918 0.29338931730056217 0.0038876417453704852 0.6960497625167859 -0.14293655122305945 0 0 0 0
16245864 0.29337101998630083 0.003989457882826927 0.6964530578150285 -0.14345385038027383 0 0 0 0
16278810 0.2932550759152607 0.003988844022736241 0.6964723118020586 -0.14384845623774653 0 0 0 0
16311756 0.29337717608495245 0.003917875812298984 0.6960051630954253 -0.14425514728801517 0 0 0 0
16344702 0.2934384727340897 0.003931381835823236 0.6959853842325755 -0.14402707732386594 0 0 0 0
16377648 0.29365507555639053 0.003681595723509231 0.6958244447355568 -0.14419875364688417 0 0 0 0
16410594 0.29356955372746013 0.0038386607596699895 0.6956813839955098 -0.1450522918477373 0 0 0 0
16443540 0.2937089150985094 0.0037553723239211966 0.6953691245267493 -0.14512026541024148 0 0 0 0
16476486 0.2934961346131546 0.0036314413284597243 0.6954075132654566 -0.14535986433936365 0 0 0 0
16509432 0.2937180335196718 0.0035487668620717526 0.6954826067130423 -0.14606987848351377 0 0 0 0
16542378 0.2938462263459143 0.00369578811305046 0.695460517566322 -0.14557418883953996 0 0 0 0
16575324 0.29390282752150554 0.003617244738878435 0.695121700109773 -0.1460435259970028 0 0 0 0
16608270 0.2939143190394682 0.003445476630885978 0.695228940979918 -0.14650587626999295 0 0 0 0
16641216 0.2938239174940575 0.0034196397243908216 0.6950553415418411 -0.1470099620893758 0 0 0 0
16674162 0.2940642485862511 0.0034733880043661416 0.6953392335923082 -0.14679929628506153 0 0 0 0
16707108 0.29446059789355333 0.0033716889006906673 0.6950261516949018 -0.1470005665595533 0 0 0 0
16740054 0.29426415982959764 0.0034490181134724904 0.6952958758595293 -0.1475081434113625 0 0 0 0
16773000 0.2941752927438293 0.0034006339561174 0.6949711642293026 -0.14764677053584216 0 0 0 0
16805946 0.2945853258319308 0.003323085221141476 0.6944389181099271 -0.14803215303883974 0 0 0 0
16838892 0.29405989190208226 0.0031492232973841096 0.6951701133336884 -0.14832921931167972 0 0 0 0
16871838 0.2939579076412512 0.0031282396391425805 0.6944058832658843 -0.14832699551535264 0 0 0 0
16904784 0.29441130528504617 0.0029681295783299598 0.6942129556134765 -0.14872300236320102 0 0 0 0
16937730 0.2942180348160206 0.0031046673107433184 0.6947200859177806 -0.149289796770606 0 0 0 0
16970676 0.2945257771012395 0.002887574060624848 0.6942229532311872 -0.1492042949322333 0 0 0 0
17003622 0.29442492477623394 0.003120982720026097 0.6937613266567582 -0.14999840134084458 0 0 0 0
17036568 0.29438403523099566 0.0030381144075660913 0.6940556381850652 -0.150322119215132 0 0 0 0
17069514 0.2943737172006506 0.0030515349657439295 0.6942092360559475 -0.15009788349951242 0 0 0 0
17102460 0.2946192050434133 0.0031040653575436566 0.6939939742081932 -0.1506132890703799 0 0 0 0
17135406 0.2946542766766937 0.0029198724236375938 0.6937205323497777 -0.15094071111430885 0 0 0 0
17168352 0.2944085571160518 0.002962152892597914 0.6939183241567867 -0.15115290979848384 0 0 0 0
17201298 0.2947262136196282 0.002854970267713198 0.6937657605453701 -0.1511686649014062 0 0 0 0
17234244 0.29497413410506074 0.0026521560443409334 0.693354899585892 -0.15137234139066338 0 0 0 0
17267190 0.29481075492434594 0.0027967836705107938 0.6934680228073566 -0.15164491033231214 0 0 0 0
17300136 0.29491696169944215 0.002653129103048575 0.693145123485839 -0.1519836789358135 0 0 0 0
17333082 0.29510814201654767 0.002506243283538463 0.6928864542775038 -0.1521355100645937 0 0 0 0
17366028 0.29488886134272907 0.002598983718061241 0.6932451955332481 -0.15245397558583781 0 0 0 0
17398974 0.29487521739413897 0.002845555374313725 0.6933059965444005 -0.15302057831279048 0 0 0 0
17431920 0.2951296597049662 0.002479716698065339 0.6926654510670607 -0.1531849450626632 0 0 0 0
17464866 0.2954308080872642 0.0023883333821855834 0.6926551973839417 -0.15316349179772165 0 0 0 0
17497812 0.29539019201074523 0.0024399100201727177 0.6926784451613234 -0.15344938370280442 0 0 0 0
17530758 0.2952910374025883 0.0022600889483284374 0.6921328186117898 -0.15418819247214802 0 0 0 0
17563704 0.2952594283791999 0.0023988676344074236 0.6926211476910823 -0.154263602005664 0 0 0 0
17596650 0.29532283425185085 0.002302466243503309 0.6922649507360273 -0.15463436373732237 0 0 0 0
17629596 0.2954210160746098 0.0021873774298778 0.6919993043834967 -0.15445827117685568 0 0 0 0
17662542 0.2956811027441225 0.0022248084185196 0.6916804740362495 -0.15484844697149 0 0 0 0
17695488 0.29509622778289596 0.002379360917546675 0.6916357955416076 -0.154808230117311 0 0 0 0
17728434 0.2955962495104389 0.0020937907912280582 0.6916863234648796 -0.15526136663753767 0 0 0 0
17761380 0.295596645018229 0.0021348478004250384 0.6923647595956286 -0.15614283650995955 0 0 0 0
17794326 0.2955105014449566 0.0020953266355270106 0.6920766608010049 -0.15610654286298115 0 0 0 0
17827272 0.295730602794176 0.0018409398854368024 0.6917258154540462 -0.15651840388470195 0 0 0 0
17860218 0.2957520415865888 0.0018330784733965736 0.6919475101905036 -0.1567544293618332 0 0 0 0
17893164 0.29595361442366513 0.0020326932787940403 0.6916062053914703 -0.15635545309176582 0 0 0 0
17926110 0.2957755820224289 0.0019185041027601779 0.6911262485653424 -0.1569729312006312 0 0 0 0
17959056 0.29582352995554034 0.0018755803600900994 0.6916886372772275 -0.1576224959987405 0 0 0 0
17992002 0.2959344881102325 0.0017879505692559533 0.6910897462130497 -0.15730941191235007 0 0 0 0
18024948 0.29609723234260144 0.0018126399895083876 0.6909747553966601 -0.15748656687845228 0 0 0 0
18057894 0.2959411296967808 0.0017154095176515113 0.6910200200135035 -0.1583782569480443 0 0 0 0
18090840 0.296048651306935 0.001965716123442019 0.6914244388889422 -0.15880075118473203 0 0 0 0
18123786 0.2961329386368233 0.0014733679492836766 0.6908772555987034 -0.15875408416468903 0 0 0 0
18156732 0.2963086363317931 0.0014086792673369609 0.6907516415314642 -0.15943392267427753 0 0 0 0
18189678 0.2966227153138129 0.0015505043775698058 0.6905869916648425 -0.15889709212018868 0 0 0 0
18222624 0.2964947212037432 0.0014957636870826835 0.6905682016779563 -0.1596927858885098 0 0 0 0
18255570 0.29613334044550016 0.0012353894454607385 0.6900242448989496 -0.15978941405066072 0 0 0 0
18288516 0.2958020508697154 0.001757942880640724 0.6896478169660945 -0.15986569355144695 0 0 0 0
18321462 0.2965125161820341 0.0014174648972460687 0.6903977572281648 -0.1606589777616886 0 0 0 0
18354408 0.2964971633850279 0.0013234617167597808 0.6904792241060509 -0.16058092150596234 0 0 0 0
18387354 0.2966201855525088 0.0013671082384510088 0.6897707769589502 -0.16081567726115822 0 0 0 0
18420300 0.29682617640413994 0.0013593491610023576 0.689658411135141 -0.16063156854506747 0 0 0 0
18453246 0.29651846370316276 0.0013026127529577403 0.6902207205802444 -0.16159126832653586 0 0 0 0
18486192 0.2965818829421049 0.0012553761879829143 0.6899086205820432 -0.1619220596004018 0 0 0 0
18519138 0.2967078572047284 0.0010695381386582041 0.6893894988023269 -0.16191093721605923 0 0 0 0
18552084 0.2969063218085804 0.0010517829098014792 0.6894222940742182 -0.16186964610032303 0 0 0 0
18585030 0.29702993680178624 0.001012688726173314 0.6895915962636495 -0.16283259531832894 0 0 0 0
18617976 0.29686012400024 0.0009726602822107629 0.6891942448412868 -0.16287733302436477 0 0 0 0
18650922 0.2969810778933206 0.0009783238809219054 0.6892142436232334 -0.16301477890637547 0 0 0 0
18683868 0.29692441807152276 0.0009552421453351795 0.6895212459979513 -0.16353638511994847 0 0 0 0
18716814 0.2971702676878526 0.0007660125151676945 0.688969465312428 -0.1634003803157195 0 0 0 0
18749760 0.29714865454455514 0.0008402658743498696 0.6886258161926906 -0.16331810716238243 0 0 0 0
18782706 0.29721435928697393 0.0007112623202679794 0.6892160709364222 -0.1641701049856491 0 0 0 0
18815652 0.29727832430792983 0.0007789215404634918 0.6886966856459757 -0.1638641322565785 0 0 0 0
18848598 0.2975301131179738 0.0006316135077064287 0.6886769657299787 -0.1646927799071449 0 0 0 0
18881544 0.2972045995097371 0.0005443074696310419 0.6881308760087473 -0.16480361792403445 0 0 0 0
18914490 0.2973697602022026 0.0006683032783265594 0.6889308532739947 -0.16533999378067166 0 0 0 0
18947436 0.29744233358547373 0.0004070795521582895 0.6886281901662383 -0.1654292449192841 0 0 0 0
18980382 0.2975670148561262 0.0005623542354354517 0.6879523897764775 -0.16520311426643325 0 0 0 0
19013328 0.2974174321366728 0.0005527852457637591 0.6883446556505737 -0.1658461272311177 0 0 0 0
19046274 0.2974269102800559 0.0004074801350146905 0.6877710733903704 -0.16598790751724596 0 0 0 0
19079220 0.2974779330671169 0.0004733538085592113 0.6882866997916919 -0.16670413735451953 0 0 0 0
19112166 0.2975236983017796 0.00033377664512822204 0.6876117234876077 -0.1666575640413923 0 0 0 0
19145112 0.29769326600242796 4.3940249960898737e-05 0.688003438179099 -0.16724375323211058 0 0 0 0
19178058 0.29810716294576345 0.00022563195519536568 0.687738386642679 -0.16751066159700198 0 0 0 0
19211004 0.29764882441125584 0.0002849328067042476 0.6871304876129638 -0.16717343787589814 0 0 0 0
19243950 0.2977651258005662 0.00012231751259468487 0.6871898341624463 -0.1677834799075916 0 0 0 0
19276896 0.2978618958480014 0.0002314243436035519 0.6875783210669024 -0.16846370946095846 0 0 0 0
19309842 0.2979932624661994 -1.2741025369063118e-05 0.6873361859892895 -0.1684037298886156 0 0 0 0
19342788 0.2983323461166436 0.00014367834617857905 0.6871896032005944 -0.16852462279628028 0 0 0 0
19375734 0.2978848036693861 9.789999022626537e-05 0.6868866407570751 -0.1685670329515369 0 0 0 0
19408680 0.29817642752874707 -2.2308377097297196e-05 0.6874280635769704 -0.16932555622902284 0 0 0 0
19441626 0.29799993632970917 -7.031540639205844e-05 0.6865169366662789 -0.1692711286805292 0 0 0 0
19474572 0.29823819430641835 -0.00021778746047443082 0.6869080685970333 -0.1697644690102253 0 0 0 0
19507518 0.29844593763173766 -0.00011678138596951235 0.6866482327677939 -0.16957781910582123 0 0 0 0
19540464 0.2983618138410376 -0.00015150780832536985 0.6863798281288301 -0.17035493288760012 0 0 0 0
19573410 0.2983062046991529 -0.00033494054606169753 0.6862333001790654 -0.1703986605284271 0 0 0 0
19606356 0.2984059475400278 -0.00022835805295044138 0.6860500244107292 -0.17063211544341483 0 0 0 0
19639302 0.2984030985962755 -0.0003140271835159385 0.685877090435633 -0.17087325145803028 0 0 0 0
19672248 0.29852671004035175 -0.00035601416025859446 0.6859587457122633 -0.170811096562613 0 0 0 0
19705194 0.29864886016394115 -0.0004099367377074715 0.6860696514145438 -0.17114993421612776 0 0 0 0
19738140 0.2988323014435684 -0.00042429572750309736 0.6859115807454351 -0.17113247660590367 0 0 0 0
19771086 0.2985434496771759 -0.0005601443020755776 0.6857635976570298 -0.1719960118661399 0 0 0 0
19804032 0.2986867630220866 -0.0005108493782235703 0.6858235223909888 -0.17235328945162123 0 0 0 0
19836978 0.2986506267179148 -0.0007211522407882914 0.6850647004520143 -0.17182813636498523 0 0 0 0
19869924 0.2989190274510363 -0.0006328116738193397 0.6855016413652438 -0.17254679148989419 0 0 0 0
19902870 0.2987764979522087 -0.0007214460186881235 0.6853181131058769 -0.17297921403868252 0 0 0 0
19935816 0.2987816297496597 -0.0007908251025652288 0.6848928459493179 -0.17312508148545025 0 0 0 0
19968762 0.2988208506806824 -0.0008177748854413255 0.6849133173115352 -0.17361910015603474 0 0 0 0
20001708 0.29905964076182945 -0.0009116827888263264 0.6852718238639107 -0.17398230471078063 0 0 0 0
20034654 0.299126278756359 -0.0008710796016157577 0.6853611752165298 -0.17420302187387818 0 0 0 0
20067600 0.29926956985095976 -0.0008970539334885769 0.6847900203876607 -0.17395956088512426 0 0 0 0
20100546 0.29907622568068143 -0.0009077449398302818 0.684535775354926 -0.17460367527870477 0 0 0 0
20133492 0.2992608021001038 -0.0009187519249058734 0.6848644590259777 -0.17488508604274075 0 0 0 0
20166438 0.2993926264374087 -0.0009406017571750623 0.6846321257657109 -0.1749517889688866 0 0 0 0
20199384 0.2993784796362841 -0.001079450156630549 0.6843662445576694 -0.1751963310566389 0 0 0 0
20232330 0.2993020050498759 -0.0011958779669614188 0.6842915615999869 -0.17552430731648 0 0 0 0
20265276 0.2995774487065436 -0.0011611974395797614 0.6843299329374535 -0.17595918742285874 0 0 0 0
20298222 0.299544121438354 -0.0011911094496171216 0.6841100565059857 -0.17612142078275328 0 0 0 0
20331168 0.2995112633864456 -0.0013803777793093502 0.683672714967055 -0.17664036680374445 0 0 0 0
20364114 0.2994512480297878 -0.0012354107780678109 0.683708075555225 -0.17693913740362668 0 0 0 0
20397060 0.2996933280176813 -0.0014090098416054456 0.684106194945623 -0.17690044184593404 0 0 0 0
20430006 0.2997291644781581 -0.00133338854193959 0.6839207352672084 -0.1773253104376044 0 0 0 0
20462952 0.29984472634219894 -0.0014835999587655229 0.6833652510007839 -0.17757055304753291 0 0 0 0
20495898 0.29985536814542535 -0.0016115778309250116 0.6836474071724492 -0.1777374769630701 0 0 0 0
20528844 0.2998023412374721 -0.0013480735817380785 0.6832333922510903 -0.178081645291699 0 0 0 0
20561790 0.29983304543738387 -0.0015429597275242607 0.683252440302586 -0.1779517852728515 0 0 0 0
20594736 0.30013371493858415 -0.0016653533799634492 0.6832673403129612 -0.17851015860633243 0 0 0 0
20627682 0.2999292629918235 -0.0017440909096354776 0.6828891720045037 -0.17889914917335287 0 0 0 0
20660628 0.3000258683502789 -0.0018116903472162663 0.6828778378615106 -0.17924781462633804 0 0 0 0
20693574 0.299974248227338 -0.0016715493620225454 0.6829236517728996 -0.17953168292336713 0 0 0 0
20726520 0.300033763180418 -0.0016398720872438236 0.6829455568392682 -0.1796689057291909 0 0 0 0
20759466 0.30024609097197624 -0.0018504349414975427 0.6827799443783519 -0.17994596866039433 0 0 0 0
20792412 0.30023078069697207 -0.001877201466725488 0.6825832944200622 -0.179841059936297 0 0 0 0
20825358 0.3005421447241328 -0.001960350006134726 0.682210999304572 -0.18016102856930133 0 0 0 0
20858304 0.30036718221947883 -0.0020910236439722935 0.682152258189247 -0.18072000718669587 0 0 0 0
20891250 0.3003295929807391 -0.0020985603595328056 0.6821400923433731 -0.18103309916938667 0 0 0 0
20924196 0.30058375530381654 -0.0019992501150716472 0.6822509972280603 -0.18125351340053514 0 0 0 0
20957142 0.3005300307416427 -0.002168653773636254 0.6819730304783982 -0.1813899818285272 0 0 0 0
20990088 0.3007768085498675 -0.0020973776037448042 0.6818241228386477 -0.18153287181731717 0 0 0 0
21023034 0.30066581656401503 -0.0022496611640073516 0.681555985615836 -0.18199284888283995 0 0 0 0
21055980 0.3006170545420622 -0.0023075602523639945 0.681469108347852 -0.18200237103424577 0 0 0 0
21088926 0.3007505595350597 -0.002217133859783758 0.6820174221972634 -0.18257976170177515 0 0 0 0
21121872 0.3007916974644642 -0.0023593600198943345 0.681318112495356 -0.182676117561621 0 0 0 0
21154818 0.30083910571075195 -0.0024488932993740986 0.6811041852046243 -0.18258525453451185 0 0 0 0
21187764 0.3009970559069 -0.002532340531258643 0.6814248098682748 -0.18316501506618854 0 0 0 0
21220710 0.30096964009650196 -0.002610731115382811 0.6811318357978816 -0.1831505259629805 0 0 0 0
21253656 0.30106274217253665 -0.0025670157731331406 0.6808289457767053 -0.18352376317551514 0 0 0 0
21286602 0.3009704310424011 -0.0026637114137079807 0.6807701028720649 -0.1840231727746203 0 0 0 0
21319548 0.30097979701343064 -0.002617488480584746 0.6805014643832339 -0.18402710136596062 0 0 0 0
21352494 0.3013541779192231 -0.002707717166750704 0.6805075913747297 -0.1843201582260722 0 0 0 0
21385440 0.3013184372849741 -0.0027031029720095104 0.6801957711431955 -0.1845620675782268 0 0 0 0
21418386 0.3012702194946692 -0.0027702031728148906 0.6804107497284642 -0.18483586359301482 0 0 0 0
21451332 0.3014262530824121 -0.00292967602844372 0.6803104086166561 -0.185052459665336 0 0 0 0
21484278 0.3014695823380658 -0.0028759354529780444 0.680148784335394 -0.18529787860899208 0 0 0 0
21517224 0.3014982225298032 -0.002867140038365084 0.6800593505942134 -0.18589105513242637 0 0 0 0
21550170 0.3015609774847494 -0.0030317388994587687 0.679798088447975 -0.18612447338180893 0 0 0 0
21583116 0.30160285075579624 -0.003095846713294009 0.6794484005030494 -0.1857928033140816 0 0 0 0
21616062 0.30167524060821344 -0.0032178816657290592 0.6799001287126667 -0.18683215290312452 0 0 0 0
21649008 0.3017669301979963 -0.0031499049259416457 0.6794076114489809 -0.18639945638882358 0 0 0 0
21681954 0.30189647699989586 -0.003054732966853719 0.679462069023614 -0.18677932246473172 0 0 0 0
21714900 0.3016472420340871 -0.0033339967316180852 0.6795949456554036 -0.1872775355346615 0 0 0 0
21747846 0.3018733483824773 -0.0032162815158515517 0.6794772941707456 -0.1878182451216957 0 0 0 0
21780792 0.3019393351232028 -0.0034457212987129286 0.679111755562734 -0.18770540279848555 0 0 0 0
21813738 0.30204931294117543 -0.003331134128336684 0.6789714780250081 -0.18776052855340594 0 0 0 0
21846684 0.30205597545782104 -0.0034568652927793484 0.6787549374627555 -0.18815661946406334 0 0 0 0
21879630 0.301891810874423 -0.0034161666183400528 0.6783710403668675 -0.1885444339718994 0 0 0 0
21912576 0.30203139636327414 -0.0035560659113175594 0.6785308535738647 -0.18877023091738052 0 0 0 0
21945522 0.30209919943338215 -0.0035215046360194363 0.6781892517188646 -0.1889253314973905 0 0 0 0
21978468 0.30218113848833583 -0.003550234382635564 0.6782585874332351 -0.18925576029496596 0 0 0 0
22011414 0.3022397239759602 -0.0035982721578211837 0.6784216494099853 -0.18970200986467195 0 0 0 0
22044360 0.30245194030323763 -0.0037186586718913153 0.6781846564421748 -0.18943422303177962 0 0 0 0
22077306 0.3024639354482624 -0.0038099325515196154 0.6779561171158925 -0.18996069350134462 0 0 0 0
22110252 0.3023545598536911 -0.003703248086972168 0.6777229014231317 -0.19039484384667266 0 0 0 0
22143198 0.3025951924590747 -0.0038718660036167482 0.6783686991890707 -0.19100451308917926 0 0 0 0
22176144 0.30260678845452776 -0.003924834393714495 0.6776196517020384 -0.19091779864752667 0 0 0 0
22209090 0.3026635172858618 -0.003919881180745126 0.6776906463208874 -0.19114016059098807 0 0 0 0
22242036 0.30247650452857333 -0.0040358811974809585 0.6773544513969307 -0.19145611450307054 0 0 0 0
22274982 0.3025671397013599 -0.0040087295816942006 0.6772784631928892 -0.19166944431111907 0 0 0 0
22307928 0.30277044240264644 -0.0040426955047142025 0.6777896466323255 -0.19222386761129345 0 0 0 0
22340874 0.302694363210867 -0.004059052992500429 0.6772328672265167 -0.19182234127721245 0 0 0 0
22373820 0.30297406156181506 -0.004157802982654266 0.6770321945330291 -0.1922623479473242 0 0 0 0
22406766 0.30287867616263 -0.004137483009914063 0.6768617453876306 -0.19231454312251708 0 0 0 0
22439712 0.3030755047726412 -0.0043043894438094974 0.6767696734757026 -0.19275125950929062 0 0 0 0
22472658 0.3029311764466396 -0.004371767510313609 0.6768653747100372 -0.1932390446328715 0 0 0 0
22505604 0.30290481880435516 -0.0043424234084123185 0.6763310528573673 -0.1932885031416556 0 0 0 0
22538550 0.3031877390137553 -0.004378403448484072 0.6764556806521713 -0.19384655544626153 0 0 0 0
22571496 0.3031353485397062 -0.00443883847700137 0.6762082498739953 -0.19342040744531772 0 0 0 0
22604442 0.30328890900061933 -0.004413641283759856 0.6762835099315386 -0.1942360590464422 0 0 0 0
22637388 0.30332999330682325 -0.004533256846513579 0.676276194665464 -0.19439733093693087 0 0 0 0
22670334 0.3033801289703609 -0.004743312403670141 0.6760494876870163 -0.19470622576899846 0 0 0 0
22703280 0.3033284081247945 -0.004694578834547545 0.6757912127136042 -0.19477233067745775 0 0 0 0
22736226 0.3035308587504067 -0.004641454468655228 0.6760599718894603 -0.1953846750821868 0 0 0 0
22769172 0.3034720273749192 -0.0046301283381860285 0.6754267386496635 -0.19494207993661475 0 0 0 0
22802118 0.30376840372857 -0.004787167964269155 0.675822415370729 -0.19560736765476455 0 0 0 0
22835064 0.3037725486804888 -0.004909130583104424 0.6754792573638662 -0.19600920479847894 0 0 0 0
22868010 0.30354045116220185 -0.004968652759126882 0.6748292959466656 -0.19593733104900893 0 0 0 0
22900956 0.3036917737533117 -0.004847169083080191 0.6751551930673991 -0.1963900126471118 0 0 0 0
22933902 0.30372613210878185 -0.004926924681767692 0.67481470147173 -0.19629840495897963 0 0 0 0
22966848 0.3038655670994471 -0.005182255139079081 0.675360283242693 -0.197094300949619 0 0 0 0
22999794 0.30399870124885897 -0.0051773939816021795 0.6749873109501565 -0.19687747447671936 0 0 0 0
23032740 0.3038983217141501 -0.005323968972222807 0.6747011051036126 -0.19744077872060983 0 0 0 0
23065686 0.3039178978457274 -0.0052281259814235485 0.6744745335467042 -0.19776511110741998 0 0 0 0
23098632 0.30399082917610437 -0.005171536351506221 0.6743664438786727 -0.19819751512502812 0 0 0 0
23131578 0.30420707260442675 -0.005413826644485758 0.6747913241188006 -0.19835698809617378 0 0 0 0
23164524 0.30417711701332273 -0.0053129368659598835 0.6743420157578511 -0.19839094850490133 0 0 0 0
23197470 0.304201078462093 -0.0053897508563691965 0.6740714924307362 -0.19858574686309127 0 0 0 0
23230416 0.3044201758347117 -0.005523444152614899 0.673826576822129 -0.1988872375105655 0 0 0 0
23263362 0.30427334783228505 -0.00555790238084335 0.6737966476238721 -0.19904653440899767 0 0 0 0
23296308 0.3043321711420717 -0.005588895809041033 0.6736204350015734 -0.19940702543065905 0 0 0 0
23329254 0.3044679119784303 -0.00569271182285354 0.6739438981860539 -0.1996434188544042 0 0 0 0
23362200 0.30447603094888465 -0.005523530792098756 0.6735959539581302 -0.20007342025580735 0 0 0 0
23395146 0.3044988525631271 -0.005610484291765315 0.6733481717229333 -0.1999567394153897 0 0 0 0
23428092 0.30464087727374173 -0.005747407751551824 0.6733449018319296 -0.2003618734795515 0 0 0 0
23461038 0.3046193853269476 -0.005936385689658309 0.6731313725996243 -0.2007460345704106 0 0 0 0
23493984 0.3046735894647385 -0.0057333103556800324 0.6731144058861054 -0.20098456003607282 0 0 0 0
23526930 0.30489141424043514 -0.0058794290390634055 0.6730966507127221 -0.20120093601399378 0 0 0 0
23559876 0.30499591543534865 -0.00599813072503089 0.6729314805449499 -0.20150906799804827 0 0 0 0
23592822 0.304838610728811 -0.006046277807523502 0.6727522834199149 -0.20167527934568108 0 0 0 0
23625768 0.3046454932236016 -0.006064071707734237 0.6724877925670721 -0.20223115547804696 0 0 0 0
23658714 0.30495475484966605 -0.006079957906888358 0.6722713424964342 -0.20229926096779569 0 0 0 0
23691660 0.30505880701788557 -0.006132494678043478 0.6722177759057655 -0.2024751949021533 0 0 0 0
23724606 0.30512131870440584 -0.0062490832363860166 0.6723140399351215 -0.2028330819594058 0 0 0 0
23757552 0.3052080885676792 -0.006314259276888446 0.6720015207906606 -0.2028890946881169 0 0 0 0
23790498 0.30522640797464873 -0.006316191432453422 0.672125289269039 -0.20309220877435727 0 0 0 0
23823444 0.30530772718712096 -0.006436654196919793 0.6718473219065664 -0.20341882590157512 0 0 0 0
23856390 0.30521402064818937 -0.006284411909484477 0.6717450801689198 -0.2036163030007165 0 0 0 0
23889336 0.3053750983351051 -0.006362742900431706 0.6715340919648366 -0.2037374606105835 0 0 0 0
23922282 0.30545829889127096 -0.006547416180673359 0.6713727319793431 -0.20403521591540946 0 0 0 0
23955228 0.3055411504572979 -0.0066696430264114506 0.6717371201831482 -0.20449130343540897 0 0 0 0
23988174 0.3053851944972969 -0.00667549759135223 0.6710989103295432 -0.2048035783909235 0 0 0 0
24021120 0.3056878547015366 -0.006704918304823294 0.6711551074338217 -0.20502013640167868 0 0 0 0
24054066 0.3056140779089007 -0.006620310709493729 0.6710273544086591 -0.2050870308241439 0 0 0 0
24087012 0.3058335995245855 -0.006903112184863754 0.6706556524548511 -0.20534069349057363 0 0 0 0
24119958 0.3058884610764084 -0.006826336633704183 0.6706858896916804 -0.2056077011669914 0 0 0 0
24152904 0.30587506921894797 -0.006913008390747762 0.6704993780959456 -0.20585432165860745 0 0 0 0
24185850 0.30568962629546764 -0.00692453089200676 0.670384338113332 -0.206146790126843 0 0 0 0
24218796 0.30576392109292144 -0.006855001751687806 0.6701738044715597 -0.20646874073966062 0 0 0 0
24251742 0.3061598516142511 -0.007008197345654447 0.67026800411119 -0.20641207217199545 0 0 0 0
24284688 0.3062162691144882 -0.007050813423038262 0.6704995552147207 -0.20693986418134247 0 0 0 0
24317634 0.3060815304937827 -0.007239373307530829 0.6700298450418716 -0.20712447108915122 0 0 0 0
24350580 0.306062969654184 -0.00729410240803079 0.6698589228718547 -0.20740953580304236 0 0 0 0
24383526 0.30605610534965316 -0.007206197821718159 0.6697169448934872 -0.20761774165431018 0 0 0 0
24416472 0.30639753119390634 -0.007292152640151561 0.6695219262810137 -0.20773944427120172 0 0 0 0
24449418 0.3064643484429488 -0.007402870568018559 0.6696523673654231 -0.20816787768166634 0 0 0 0
24482364 0.3065489534058292 -0.007492517149738458 0.6694628123951013 -0.20835670005050064 0 0 0 0
24515310 0.3063466577879149 -0.007583741684021924 0.6693163876200167 -0.20877303211400275 0 0 0 0
24548256 0.3064699554532306 -0.007637830857072726 0.6690198443876627 -0.208969235140174 0 0 0 0
24581202 0.30653294842209605 -0.007580410017791823 0.6690847971309235 -0.20938101369168702 0 0 0 0
24614148 0.3065541144443556 -0.007585476347001451 0.6688271529236495 -0.20922686118945177 0 0 0 0
24647094 0.3067519381012864 -0.007663263765491124 0.6687964102818326 -0.20991975908909602 0 0 0 0
24680040 0.3068568655953097 -0.0077881242238016105 0.6684716102137308 -0.20987171265191865 0 0 0 0
24712986 0.3069485578915806 -0.007673381930835927 0.6687094161284349 -0.21013731882803433 0 0 0 0
24745932 0.306872201632908 -0.007773388657161627 0.6683648457162338 -0.21037283677978977 0 0 0 0
24778878 0.3067043548110713 -0.007875960482464984 0.6680804860861552 -0.21045490817762041 0 0 0 0
24811824 0.30683107984281244 -0.008027760844982051 0.6681048729020915 -0.21092459200855063 0 0 0 0
24844770 0.30702880807691807 -0.007857329158722916 0.6682360889087623 -0.2113212070014757 0 0 0 0
24877716 0.3071720546931852 -0.00811718592734015 0.6677960107705283 -0.21121621051594056 0 0 0 0
24910662 0.30727407322130795 -0.007962650974494329 0.6677399395634426 -0.21135299055407408 0 0 0 0
24943608 0.30722023444469443 -0.008153880265199216 0.6674821652817277 -0.2119849003347704 0 0 0 0
24976554 0.3071073267448521 -0.008144572086151027 0.6674688187119484 -0.2117954160697067 0 0 0 0
25009500 0.3071539593395919 -0.008279839176246374 0.6671765808995361 -0.2122410716054781 0 0 0 0
25042446 0.3074332332628265 -0.008282865831334498 0.667258303722908 -0.21269266003486412 0 0 0 0
25075392 0.30734279909976703 -0.008198505663351239 0.6672737821041506 -0.21316145520122 0 0 0 0
25108338 0.30756124017217057 -0.008425305432246831 0.6669018835590034 -0.21303957583307254 0 0 0 0
25141284 0.3073500664666575 -0.008615786901975555 0.6667933277602681 -0.21323210233038817 0 0 0 0
25174230 0.3074520767438843 -0.008446854700868747 0.6666720530908543 -0.21339847775254478 0 0 0 0
25207176 0.30768263550081254 -0.008592812680735144 0.666376286934711 -0.2135034687614874 0 0 0 0
25240122 0.30748310844629156 -0.008479708809450752 0.6663992946071141 -0.21429899471335007 0 0 0 0
25273068 0.30798941012862163 -0.008640261621126877 0.6664532278958598 -0.21438301935366347 0 0 0 0
25306014 0.30775456117623584 -0.008674291024399514 0.6659234138125953 -0.2145721190728336 0 0 0 0
25338960 0.30791341591313387 -0.008700460045687516 0.6663975481263651 -0.21488663765585922 0 0 0 0
25371906 0.30778517565956637 -0.009009610550307332 0.6658221989663371 -0.2146851649294208 0 0 0 0
25404852 0.30800170845272684 -0.00894387081755652 0.665697482670998 -0.21543191186544386 0 0 0 0
25437798 0.3081129356339718 -0.008873725191567056 0.6658811816441574 -0.21545601524466426 0 0 0 0
25470744 0.3081855391708383 -0.00899913125089434 0.6654204109778653 -0.2157868131600934 0 0 0 0
25503690 0.30810774153618725 -0.009115608014945478 0.665441842617593 -0.21599181847986637 0 0 0 0
25536636 0.3080904385750561 -0.009154431196255227 0.6653526800364324 -0.2160522142739361 0 0 0 0
25569582 0.30810791275781657 -0.009247038392461958 0.6650445933806165 -0.21636114602927387 0 0 0 0
25602528 0.30840893703009886 -0.009299838791495221 0.6652118758352832 -0.21685159208723592 0 0 0 0
25635474 0.3083234168957872 -0.00924225757411296 0.6650050334094982 -0.21718539025338562 0 0 0 0
25668420 0.30838316339226746 -0.009299824202109456 0.6648912678954235 -0.21686981064615665 0 0 0 0
25701366 0.30843496620562 -0.009443116076161802 0.6647722131564451 -0.21743446992875573 0 0 0 0
25734312 0.3084932065913339 -0.009640911127332622 0.6643657324377543 -0.21778603313848605 0 0 0 0
25767258 0.3085458059517504 -0.00955860168161785 0.6647074749592912 -0.21801618328713102 0 0 0 0
25800204 0.30857531756893314 -0.00951260666053999 0.664240826433811 -0.21854353631368006 0 0 0 0
25833150 0.30879116402927964 -0.009476008327562107 0.6639286463313256 -0.21841638051135467 0 0 0 0
25866096 0.30872708299889345 -0.009582428526584622 0.6638570722183975 -0.21867538437043038 0 0 0 0
25899042 0.30887990993866643 -0.009893014790252981 0.6638234140432037 -0.2186975342357566 0 0 0 0
25931988 0.3088517926147068 -0.009687926836548448 0.663589063818879 -0.219260247755911 0 0 0 0
25964934 0.3091088319627076 -0.009836080437050986 0.6637161006889086 -0.21957655453916874 0 0 0 0
25997880 0.3090815757958311 -0.009811852292774724 0.6638226797256379 -0.21990142284260014 0 0 0 0
26030826 0.3089937948876578 -0.010014320459486074 0.6634001794237251 -0.219554767037672 0 0 0 0
26063772 0.3090059062653433 -0.009954712186416186 0.6631217824983912 -0.22002313897896408 0 0 0 0
26096718 0.30909817493332786 -0.009998091765581783 0.663227438781921 -0.22051659483013974 0 0 0 0
26129664 0.30913819067012116 -0.009991172558279228 0.662838061787163 -0.22060897225510653 0 0 0 0
26162610 0.3092978499170549 -0.010046179984692158 0.6628751857854256 -0.2206744060039661 0 0 0 0
26195556 0.30950069801414304 -0.010129983867303658 0.6625153905944514 -0.22100276469403132 0 0 0 0
26228502 0.3093334058683323 -0.010353439650930297 0.6623449817133822 -0.22122559431666441 0 0 0 0
26261448 0.30944057573588835 -0.010407151596293993 0.6623674907631787 -0.22139396673373193 0 0 0 0
26294394 0.3092907265190126 -0.010399979944551389 0.6623863609959248 -0.22157933740138128 0 0 0 0
26327340 0.30955235540451426 -0.010467277115100938 0.6621772663109963 -0.222223941155166 0 0 0 0
26360286 0.3094841638260587 -0.010326236942029427 0.6621406027529679 -0.22243087443297277 0 0 0 0
26393232 0.30969806805018973 -0.010482718851631299 0.6622141919921681 -0.2227339705367978 0 0 0 0
26426178 0.3097941190001136 -0.010551687562680689 0.6621133256163118 -0.22288087121260317 0 0 0 0
26459124 0.31003679943470996 -0.010606285005252354 0.6615986965009869 -0.22298316676499372 0 0 0 0
26492070 0.3098658770981831 -0.010539271046636552 0.6616601758354091 -0.22307617627632614 0 0 0 0
26525016 0.3098594920187696 -0.010928320071888738 0.6613625330782914 -0.22374635449614647 0 0 0 0
26557962 0.30993637317772355 -0.01085809336523894 0.661228371845982 -0.22355294017577196 0 0 0 0
26590908 0.3101436375207668 -0.010983788950304038 0.6611033692320873 -0.22444586900689317 0 0 0 0
26623854 0.3099170110078581 -0.010862803223849195 0.6611505485605678 -0.22452266730996298 0 0 0 0
26656800 0.31022317111696096 -0.011027664325094628 0.6610643790172864 -0.22469336757499248 0 0 0 0
26689746 0.3102668747018756 -0.011002497384393259 0.6606971028206696 -0.2246144471624616 0 0 0 0
26722692 0.31029415285955625 -0.011292583318706046 0.6605179043586805 -0.2249537539292257 0 0 0 0
26755638 0.31019153229187496 -0.011126233581826803 0.6604561514618186 -0.22495982160035874 0 0 0 0
26788584 0.31031281952738005 -0.011126060365971732 0.660587574897564 -0.2256117266687321 0 0 0 0
26821530 0.3104410240808797 -0.011323430669739848 0.6603538062639186 -0.2259596294396937 0 0 0 0
26854476 0.31051093616732195 -0.011335547235900946 0.6601233616904632 -0.22567676434516398 0 0 0 0
26887422 0.3105091463297698 -0.011440613958658244 0.6597076137426701 -0.2265824998858847 0 0 0 0
26920368 0.31057329698962244 -0.011607043168239394 0.6595842886222449 -0.2267829037192496 0 0 0 0
26953314 0.3106212585769281 -0.011642671494974095 0.6593708143870931 -0.2262116982212864 0 0 0 0
26986260 0.31076906281919664 -0.011403213095067826 0.6598583625055834 -0.2271493114331408 0 0 0 0
27019206 0.31079807502263274 -0.011596865699982433 0.6591543894658197 -0.22694524723764914 0 0 0 0
27052152 0.31085598400515857 -0.011607603026390158 0.6590168535256072 -0.2272134964845328 0 0 0 0
27085098 0.3108577962468861 -0.011732721389804834 0.6591165819290974 -0.2277350992087844 0 0 0 0
27118044 0.3108191417621878 -0.011726560002458948 0.6589780090755926 -0.22768396742477176 0 0 0 0
27150990 0.3109899712751717 -0.011974178110933716 0.6588230111260263 -0.22816215256068031 0 0 0 0
27183936 0.31089663678045676 -0.01204268971291964 0.6589038067326272 -0.22846598226562032 0 0 0 0
27216882 0.31120709556199355 -0.012050074540161985 0.658644264313077 -0.22848292071363407 0 0 0 0
27249828 0.31116245852844376 -0.011845783284351532 0.6587038506092332 -0.22881668888266762 0 0 0 0
27282774 0.31136254792101176 -0.012049591782075765 0.6579947367435725 -0.22863211421189958 0 0 0 0
27315720 0.3111045570968192 -0.012095470348625572 0.6581151394782991 -0.2291495079345792 0 0 0 0
27348666 0.31128153417541493 -0.012189968254569496 0.6583249387190392 -0.22946063387840515 0 0 0 0
27381612 0.311339629877703 -0.01246250352734599 0.658048963293778 -0.23002781784436221 0 0 0 0
27414558 0.3115559605131421 -0.01236551619169797 0.6575930469479431 -0.2298296906910966 0 0 0 0
27447504 0.3114790679168697 -0.01225434337418 0.6579515285263017 -0.23019008576307853 0 0 0 0
27480450 0.3114509232449849 -0.012245651103849557 0.6571390806328682 -0.22990184237727893 0 0 0 0
27513396 0.3117825357031188 -0.012440255919028993 0.6574910355620438 -0.23083574935180104 0 0 0 0
27546342 0.3116158151501552 -0.01252944888981924 0.6575599397307595 -0.23074683114116643 0 0 0 0
27579288 0.31166672739599727 -0.01266964095085373 0.6571186237539646 -0.23105061579062286 0 0 0 0
27612234 0.31183308396131487 -0.012498713764876488 0.6571249739811517 -0.2316021043787904 0 0 0 0
27645180 0.31201659687525535 -0.012591017205743371 0.6570496953672791 -0.2316915687607729 0 0 0 0
27678126 0.3118835365211375 -0.012893686309447623 0.6565918499138603 -0.23153478044043338 0 0 0 0
27711072 0.311949021873022 -0.012886552961084917 0.6564595876501038 -0.23231805608387923 0 0 0 0
27744018 0.3120828150494976 -0.012974579155636467 0.6566323986257451 -0.23253655365261922 0 0 0 0
27776964 0.31215390732985393 -0.012845234895251242 0.6558766075929555 -0.23228514566666514 0 0 0 0
27809910 0.31214755815530576 -0.013080274652470514 0.6561633086975058 -0.23244479421589037 0 0 0 0
27842856 0.31205072195715083 -0.013100575830624546 0.6559347755917322 -0.2332946554996195 0 0 0 0
27875802 0.31224184576541675 -0.013036832017268329 0.6560237663960666 -0.23348290980896036 0 0 0 0
27908748 0.31237287511157175 -0.013101670680506789 0.6561050985640421 -0.23393456596584014 0 0 0 0
27941694 0.31242761219617154 -0.013071275625573775 0.6551307550680681 -0.23348664579698808 0 0 0 0
27974640 0.3124849536822631 -0.01323923733756195 0.6555708633637937 -0.23398182091286376 0 0 0 0
28007586 0.3123487247046281 -0.01347888720524917 0.6551367554712776 -0.2344532216624722 0 0 0 0
28040532 0.31253265709513284 -0.013475640116181534 0.6551496522039065 -0.23421356756340783 0 0 0 0
28073478 0.3125849198796555 -0.013311945775249117 0.6552456318896948 -0.23481556909571866 0 0 0 0
28106424 0.31269380917139583 -0.01340783268617907 0.6551001288403374 -0.23497486062277764 0 0 0 0
28139370 0.31280204612717244 -0.013634845496249196 0.6549936741484149 -0.2354000167721667 0 0 0 0
28172316 0.3126705628812131 -0.01371525867184439 0.6546124982293765 -0.23547668630417928 0 0 0 0
28205262 0.3127814561189742 -0.01383863829328787 0.6545990200340006 -0.23573018288336148 0 0 0 0
28238208 0.3129184394716327 -0.01387121873331616 0.6546078679921455 -0.23615653186759786 0 0 0 0
28271154 0.31302456839171716 -0.013738728932031697 0.6544488818956055 -0.23609503768792175 0 0 0 0
28304100 0.3131594880211478 -0.013809484728183396 0.6539396691445465 -0.23627102058853944 0 0 0 0
28337046 0.31299136215759593 -0.014002485436869584 0.6541396769717135 -0.23677987484519758 0 0 0 0
28369992 0.3130072064917618 -0.014092699355317501 0.6538174666172946 -0.23698487625898457 0 0 0 0
28402938 0.31307472277046916 -0.01411051435261113 0.6536697262472309 -0.23711564068758476 0 0 0 0
28435884 0.3131774983433948 -0.014205112624350242 0.6534264203692178 -0.23757290692125016 0 0 0 0
28468830 0.31318696291491094 -0.01420524395503469 0.6537140735142958 -0.23753924693780085 0 0 0 0
28501776 0.3134926529468335 -0.014161360368719287 0.6533315296701574 -0.2378348037142032 0 0 0 0
28534722 0.31357285967768994 -0.014243407295648672 0.6530650533242552 -0.23789392839699183 0 0 0 0
28567668 0.31339231756088 -0.014309626550459741 0.6530046773640906 -0.2383316996298038 0 0 0 0
28600614 0.313573857301985 -0.014471329755088183 0.6530367396838263 -0.23852732024652343 0 0 0 0
28633560 0.31363885571196115 -0.014403944030313143 0.6527066215818138 -0.23855062337717706 0 0 0 0
28666506 0.3136042548012171 -0.01452127526643117 0.6528822891667952 -0.2390768095035968 0 0 0 0
28699452 0.3137462255827533 -0.01476882878898933 0.6523553156312315 -0.23903170296443596 0 0 0 0
28732398 0.31380348940832437 -0.01470112245980661 0.652400365243244 -0.23950703376115118 0 0 0 0
28765344 0.31388147889404827 -0.014711517463322065 0.6521583228597833 -0.23991937830358417 0 0 0 0
28798290 0.31389375502358635 -0.014664696192381007 0.6519818465883632 -0.23979940231783264 0 0 0 0
28831236 0.31363196439795926 -0.01488873452580549 0.6519006624379688 -0.24007801014146796 0 0 0 0
28864182 0.3140022241937699 -0.015021148361059736 0.6516634359656541 -0.2404050164275193 0 0 0 0
28897128 0.3141032076890739 -0.014906474572022484 0.6516525906793039 -0.24071906651911282 0 0 0 0
28930074 0.31430033302287164 -0.014956280998876175 0.6515148788641458 -0.24083408050699529 0 0 0 0
28963020 0.31400031915904786 -0.015078778443185791 0.6515528401618688 -0.2411711460449273 0 0 0 0
28995966 0.31429148323430955 -0.01530827503499858 0.6510314290125898 -0.24104034335791913 0 0 0 0
29028912 0.314276124354224 -0.015274350188434002 0.651333945361284 -0.24166051850098058 0 0 0 0
29061858 0.3143201928173978 -0.015272652113756748 0.6510519947777839 -0.24197885812405037 0 0 0 0
29094804 0.3145936502934143 -0.015202868321038263 0.6508187174410417 -0.24207083478621474 0 0 0 0
29127750 0.31458537184487356 -0.015417833127887493 0.6510364651128203 -0.24218660572761525 0 0 0 0
29160696 0.314564111684789 -0.015570334892511481 0.6504113696233078 -0.24220256898284295 0 0 0 0
29193642 0.3145520497475404 -0.015618288301589362 0.6504339022991659 -0.24289308252421365 0 0 0 0
29226588 0.3146129285971673 -0.01543465946674683 0.6503309892057542 -0.2430901680184187 0 0 0 0
29259534 0.31490576392013986 -0.015497595715261037 0.6501495371615976 -0.243376277280196 0 0 0 0
29292480 0.3146050366643 -0.01561620100669911 0.6500575089304933 -0.2431333213955311 0 0 0 0
29325426 0.3147586468323201 -0.015813376904311238 0.6499352230427224 -0.2437567642496162 0 0 0 0
29358372 0.31477553760719207 -0.0157712007591334 0.6495821996522178 -0.2439087970831833 0 0 0 0
29391318 0.31493503438115894 -0.0160187547018976 0.6497013309299812 -0.24436872457371092 0 0 0 0
29424264 0.31496266889118024 -0.015791607977909503 0.649398829579506 -0.24421709485046755 0 0 0 0
29457210 0.31503498710736066 -0.015908147915128772 0.6493670418896431 -0.2447333833788912 0 0 0 0
29490156 0.3151854840668251 -0.01611657907324972 0.6492816658202294 -0.2448477498829389 0 0 0 0
29523102 0.315122231475608 -0.016052887374388446 0.6488858427147496 -0.24497582071091878 0 0 0 0
29556048 0.31516491814186665 -0.016342498663948057 0.6486821428380434 -0.24538618938737977 0 0 0 0
29588994 0.31527638162844773 -0.01624393965993194 0.6486116100474818 -0.24534145397541632 0 0 0 0
29621940 0.31551040336283714 -0.016355868693601113 0.6486506506430688 -0.24594524724143335 0 0 0 0
29654886 0.3153866350399977 -0.016319987272545855 0.648472119465793 -0.2458510066200459 0 0 0 0
29687832 0.31517671335430286 -0.01641933330128323 0.6483208559597297 -0.2460795958463956 0 0 0 0
29720778 0.3156328402428605 -0.016637751668902252 0.6481500207603916 -0.24644722118224785 0 0 0 0
29753724 0.3156094070110007 -0.01657299038017535 0.6481867761771279 -0.2468140078969582 0 0 0 0
29786670 0.31569233042524864 -0.01648438822794668 0.6478757773895004 -0.2470231286940697 0 0 0 0
29819616 0.3155923803285073 -0.01673992715295056 0.6476085170701831 -0.24701516438737117 0 0 0 0
29852562 0.31571564465087276 -0.016943317298493982 0.6476844997259258 -0.24733868719894056 0 0 0 0
29885508 0.31594282842948734 -0.01685774176621392 0.6473503197917558 -0.24801315181706182 0 0 0 0
29918454 0.31601690217154244 -0.01691005510141331 0.6473410542946465 -0.24804647228587212 0 0 0 0
29951400 0.3159512263732369 -0.016830077939361105 0.6471684972951467 -0.24811551604712478 0 0 0 0
29984346 0.31599189853832577 -0.017023323261459413 0.6470210301974078 -0.24823590755808075 0 0 0 0
30017292 0.3159805560294341 -0.01704606098445261 0.6469214736486325 -0.24838311895972734 0 0 0 0
30050238 0.3160053037083601 -0.017085037735563434 0.6465985393700794 -0.2488234818093719 0 0 0 0
30083184 0.3162996357177963 -0.01702954281155894 0.6465593714094188 -0.24894464868827673 0 0 0 0
30116130 0.31623134636395506 -0.017197050185934724 0.6460715962334911 -0.24875492134955987 0 0 0 0
30149076 0.31631051410523703 -0.01724515304394534 0.6462213597335882 -0.24919309839909692 0 0 0 0
30182022 0.3161874385403387 -0.017400756359686458 0.6463534386715747 -0.249582770750409 0 0 0 0
30214968 0.3163782629120043 -0.01756077185638662 0.6458946116837823 -0.24966081832497206 0 0 0 0
30247914 0.3164314974671422 -0.017570528554353433 0.646040233476292 -0.25030827739210265 0 0 0 0
30280860 0.3166298458100505 -0.017487649827880473 0.6454935604472519 -0.250122253882668 0 0 0 0
30313806 0.3165555559774661 -0.017527562320209734 0.6455423068415341 -0.25059557769352886 0 0 0 0
30346752 0.31674349874430974 -0.01773374402805843 0.6455285410612408 -0.2508878592275359 0 0 0 0
30379698 0.31651433595328615 -0.017786144753903277 0.6450872037746439 -0.25076721362441373 0 0 0 0
30412644 0.3165115326314511 -0.017882787397246566 0.6451522791307478 -0.25143358489801865 0 0 0 0
30445590 0.31677632483486323 -0.01786799218710867 0.6450749749367537 -0.2516982593479266 0 0 0 0
30478536 0.31703319167858773 -0.01795295329509804 0.6452841586832034 -0.2521761158536877 0 0 0 0
30511482 0.3169412066513931 -0.01779081746534394 0.6444822539001638 -0.2517803031311773 0 0 0 0
30544428 0.3170141567643429 -0.01793257760966585 0.6446496226886725 -0.2523575170317489 0 0 0 0
30577374 0.3171038497700222 -0.01824372522323599 0.6445558922814204 -0.2521717003748037 0 0 0 0
30610320 0.31675440913124037 -0.01826192097571447 0.6441116348284404 -0.252624560560038 0 0 0 0
30643266 0.3172070952177569 -0.018465706522353704 0.6442127482713 -0.2527321457726426 0 0 0 0
30676212 0.3171958376222877 -0.018354589867085186 0.6440251689490466 -0.25308550492086856 0 0 0 0
30709158 0.3172998633134433 -0.018543230528982727 0.643822623444528 -0.25325073857284847 0 0 0 0
30742104 0.31739609075773867 -0.018497278427201964 0.6438779291831949 -0.253709225222012 0 0 0 0
30775050 0.3173947986893579 -0.01841688787982763 0.6433380491434647 -0.2535145833844056 0 0 0 0
30807996 0.3175271367078935 -0.018419945496149108 0.6436032331402396 -0.2539044138869186 0 0 0 0
30840942 0.31760979646995124 -0.018743036158056912 0.643413526126832 -0.2541860227009467 0 0 0 0
30873888 0.3176416537720121 -0.01894093660637745 0.6433939037683232 -0.2544601974286468 0 0 0 0
30906834 0.3176016666284523 -0.018949346795568353 0.6429411280415837 -0.25457048642588603 0 0 0 0
30939780 0.31774364210106093 -0.01889440505433005 0.6428075977849191 -0.25496310217691337 0 0 0 0
30972726 0.31777469696702476 -0.018690199299975348 0.6426333059829231 -0.25480361460370277 0 0 0 0
31005672 0.31780535349869277 -0.018924646475534938 0.642893499673111 -0.2555076045329874 0 0 0 0
31038618 0.317640045129371 -0.01911133026453792 0.6422801026149457 -0.25540452672109487 0 0 0 0
31071564 0.3179133388590911 -0.01923360860768834 0.6420303725111779 -0.2556854857804378 0 0 0 0
31104510 0.31804720880448745 -0.019188729670873154 0.6423778797124763 -0.2562313138802251 0 0 0 0
31137456 0.3180076902997709 -0.019086195910944702 0.642059591653445 -0.25621251729924194 0 0 0 0
31170402 0.3179619698771686 -0.01931732527351204 0.6419660346242508 -0.2564502473405463 0 0 0 0
31203348 0.31820223477480375 -0.019572806861913997 0.6415313233711767 -0.2564783278749177 0 0 0 0
31236294 0.31835644447244377 -0.019407101381059725 0.6416722482769461 -0.25713177608955784 0 0 0 0
31269240 0.3183182216674414 -0.01936122984539589 0.6413471423278029 -0.2571367087218424 0 0 0 0
31302186 0.3181481877749849 -0.01957513283891961 0.6411850441866788 -0.25722272722362227 0 0 0 0
31335132 0.31836611847348983 -0.019804526671453115 0.6409751041365959 -0.25762923300382673 0 0 0 0
31368078 0.3186168061682875 -0.019748235891449827 0.6409483248874949 -0.25794951174955827 0 0 0 0
31401024 0.31852884965613676 -0.019628910021699593 0.64045511926479 -0.25756864524220435 0 0 0 0
31433970 0.3184649023346014 -0.019805043937593168 0.6406689482780575 -0.2582954900426499 0 0 0 0
31466916 0.3186035126521669 -0.01986268261444753 0.6405149894848886 -0.2582829189532881 0 0 0 0
31499862 0.3187556600160339 -0.019991618300219022 0.6404217835536539 -0.2588474835868832 0 0 0 0
31532808 0.3187911510322172 -0.019947073223331786 0.6399573880116699 -0.25882512585353706 0 0 0 0
31565754 0.31884216420402 -0.020079498214565977 0.6402219278961099 -0.2589651232221671 0 0 0 0
31598700 0.318529590676002 -0.020206162202381896 0.6397320205241765 -0.25936144010446943 0 0 0 0
31631646 0.3188084842373895 -0.02025523094091915 0.6396728806081812 -0.2598374393172113 0 0 0 0
31664592 0.3189780007679503 -0.020339029170507103 0.6393800233260584 -0.2598816600246809 0 0 0 0
31697538 0.31913378068170895 -0.02040565847928052 0.639394807157834 -0.26025083073009564 0 0 0 0
31730484 0.31903024127488877 -0.020413226528385394 0.63928282810522 -0.26027672962578274 0 0 0 0
31763430 0.31901228959158323 -0.020460994685597988 0.6390944957717293 -0.26016104161199716 0 0 0 0
31796376 0.31910514664886586 -0.02058735572351292 0.6390896630764125 -0.2609156084124304 0 0 0 0
31829322 0.3192820480390165 -0.02050587192340938 0.6384230116807086 -0.2608221412677934 0 0 0 0
31862268 0.3192092400300589 -0.020726634872695125 0.6386841255937115 -0.2610948504270424 0 0 0 0
31895214 0.31927683950269403 -0.020732980024629855 0.638527003374716 -0.26150497267140055 0 0 0 0
31928160 0.31926039624117064 -0.02073669387408137 0.6383354447937826 -0.2617843610581838 0 0 0 0
31961106 0.3196487087919444 -0.02114127923730921 0.6384494846985516 -0.26167504348283144 0 0 0 0
31994052 0.31961005373455337 -0.02105973794263762 0.6380577200534837 -0.26194384845474017 0 0 0 0
32026998 0.3194925864739261 -0.021128047442585386 0.6378364482525064 -0.26239607322336056 0 0 0 0
32059944 0.3197675650429861 -0.02112757012883728 0.6377867016393721 -0.2626926239411677 0 0 0 0
32092890 0.3198207600195985 -0.021069341496312965 0.6378014263013269 -0.2630375986597086 0 0 0 0
32125836 0.3197118505723738 -0.02119871143198746 0.637464491486737 -0.26293941596313136 0 0 0 0
32158782 0.31975678997702506 -0.02138436736643232 0.6371499742009392 -0.26305922038804 0 0 0 0
32191728 0.3198925699596385 -0.02138923607020537 0.6370791211648461 -0.26349991428745984 0 0 0 0
32224674 0.32003530249450324 -0.021348806359073925 0.6371983874720358 -0.263984780825513 0 0 0 0
32257620 0.3199860844162843 -0.021375221017163264 0.637012395624557 -0.263749322897195 0 0 0 0
32290566 0.31988419970153037 -0.021481178425176575 0.636563380904634 -0.26393528431406327 0 0 0 0
32323512 0.3202703569290232 -0.02187698565964204 0.636344524481711 -0.2643347747837089 0 0 0 0
32356458 0.32029179699546395 -0.021550674632376355 0.6362215880368784 -0.264336514809486 0 0 0 0
32389404 0.32020609438485564 -0.0217391518295635 0.6364064538096064 -0.2646846279920095 0 0 0 0
32422350 0.3202228375875333 -0.021925977332659576 0.6358759887546059 -0.26486191636901846 0 0 0 0
32455296 0.32025905216716394 -0.02182637618308107 0.6361480684285721 -0.26529768011552574 0 0 0 0
32488242 0.32032292752574537 -0.02208090946638729 0.6358828710270777 -0.26545499945511664 0 0 0 0
32521188 0.32054082533798955 -0.022114492864864617 0.6358590990359851 -0.2656976653616639 0 0 0 0
32554134 0.32062401652779055 -0.02189779274082563 0.635211192994084 -0.2655390379361186 0 0 0 0
32587080 0.32062161979936976 -0.022026241622554156 0.6355638492900556 -0.2662102164744582 0 0 0 0
32620026 0.3207767926587528 -0.022345532932560898 0.6356136803471746 -0.2664601862668144 0 0 0 0
32652972 0.32057499680998336 -0.02225467453222732 0.6349157427211264 -0.2664279744772697 0 0 0 0
32685918 0.32072174107609874 -0.02247796578375931 0.635041835067803 -0.26670494442877624 0 0 0 0
32718864 0.3208890459905585 -0.02260620984674671 0.6345367700762496 -0.26684050984023894 0 0 0 0
32751810 0.3210741446591879 -0.022418244485390704 0.634561825888448 -0.2672874972030011 0 0 0 0
32784756 0.32103993755448756 -0.02243863278015705 0.6346401134639043 -0.26760437776367607 0 0 0 0
32817702 0.320856866997887 -0.022628787183842123 0.6343693825019326 -0.2675680290890258 0 0 0 0
32850648 0.32104525956833097 -0.022668143017149898 0.6341322732840184 -0.2678565287070511 0 0 0 0
32883594 0.3209771000648919 -0.02288617026964676 0.6340372328242215 -0.26812914869251925 0 0 0 0
32916540 0.32108922708272736 -0.022886800607870867 0.6338506975413872 -0.2682976733940594 0 0 0 0
32949486 0.32123586681969346 -0.022788116065800956 0.6336033725601011 -0.26863633280612764 0 0 0 0
32982432 0.3214511490907564 -0.022846709527196904 0.6335805624872676 -0.2688620118904728 0 0 0 0
33015378 0.3212923796659071 -0.02305502650858615 0.6335578847171679 -0.26892401768855756 0 0 0 0
33048324 0.32138336777251125 -0.023066386808894942 0.6332614172001904 -0.26894780232871646 0 0 0 0
33081270 0.3212612736389107 -0.023272527291381243 0.6330475450748997 -0.2694902399342698 0 0 0 0
33114216 0.32154882799498746 -0.023303240768658338 0.6331968022661348 -0.2697404077532236 0 0 0 0
33147162 0.3218017803414672 -0.023239323339345096 0.6326667516504269 -0.2694394227025335 0 0 0 0
33180108 0.32162715284879595 -0.023447704383430967 0.6326030299176344 -0.26984690457668414 0 0 0 0
33213054 0.32164511631379344 -0.02340564861022593 0.6324268542405769 -0.27003147273151173 0 0 0 0
33246000 0.32170037634001836 -0.02352834112432688 0.6322090592182061 -0.27064308442639956 0 0 0 0
33278946 0.3217903236164434 -0.023634932145503915 0.6320078237022638 -0.27074812943869175 0 0 0 0
33311892 0.3218771179042318 -0.023836412084906018 0.6318307894336657 -0.2707035646227348 0 0 0 0
33344838 0.32187027813751173 -0.02385721211780629 0.6315814632625313 -0.2709890500718595 0 0 0 0
33377784 0.32198771323655145 -0.023780077423764177 0.6317373305732473 -0.271451923367413 0 0 0 0
33410730 0.32221707706794567 -0.023925212731643362 0.6317722088596298 -0.2718855432022611 0 0 0 0
33443676 0.322223542528618 -0.023758652754223626 0.6315184330279637 -0.27158572053898067 0 0 0 0
33476622 0.32243938623125434 -0.024056618836038893 0.6311162075497084 -0.27209912745224146 0 0 0 0
33509568 0.3221227123838665 -0.02393550410772409 0.6309042336382245 -0.2721187580412686 0 0 0 0
33542514 0.32250847629958224 -0.02404531374420922 0.6310559375962416 -0.2720313266927415 0 0 0 0
33575460 0.3222000741636612 -0.024260080900763953 0.6307805590788911 -0.27248711622308264 0 0 0 0
33608406 0.3224766915291115 -0.02439156546261134 0.6306628443180504 -0.27309549011406803 0 0 0 0
33641352 0.3227377598303772 -0.02419513727756265 0.630907232204839 -0.2730537615568736 0 0 0 0
33674298 0.32245552933315647 -0.024260512584535578 0.6299741486774288 -0.2730942199470448 0 0 0 0
33707244 0.3227571118396297 -0.024394693460118848 0.6302080126159006 -0.2734008680908473 0 0 0 0
33740190 0.32250815897645535 -0.024513232625503777 0.629888108271074 -0.27371761517252746 0 0 0 0
33773136 0.3227030479716241 -0.024640863577601105 0.6298003200078693 -0.2742211598976017 0 0 0 0
33806082 0.32315649142611264 -0.02455271076024356 0.6301535176651608 -0.27416082924547935 0 0 0 0
33839028 0.322971386127165 -0.024569638930764272 0.6295112831654242 -0.27471848153234285 0 0 0 0
33871974 0.32304968965109143 -0.02498637109920044 0.629537393768001 -0.2746208005277577 0 0 0 0
33904920 0.3228700488140413 -0.024637266538086094 0.6293684677447601 -0.27466530557306895 0 0 0 0
33937866 0.3230331232420595 -0.02522836225136435 0.6291862843636977 -0.27554252869121076 0 0 0 0
33970812 0.323558391876747 -0.025019551506399246 0.6288652044059766 -0.2749202031412562 0 0 0 0
34003758 0.32293341181440294 -0.02500968843503247 0.6286380133972131 -0.2755411753782605 0 0 0 0
34036704 0.32307036222310526 -0.02520202487179782 0.6287114959514517 -0.2757748987158058 0 0 0 0
34069650 0.3233619941511938 -0.025207035126145506 0.6285817890084583 -0.2757057757039341 0 0 0 0
34102596 0.3233462743579428 -0.025309588203663348 0.628238447826603 -0.27587247189337655 0 0 0 0
34135542 0.3232553599234613 -0.025272062991380972 0.6280313562286846 -0.2763989821882047 0 0 0 0
34168488 0.3234809090451266 -0.025507164019669234 0.628112973375922 -0.27678725120451686 0 0 0 0
34201434 0.32341557203143473 -0.025451302705916414 0.6281680217325036 -0.27687082783617045 0 0 0 0
34234380 0.32342342426691945 -0.025522695120733283 0.6275752133341265 -0.27691961598100506 0 0 0 0
34267326 0.32368143989089215 -0.025640779628718014 0.6276313015777367 -0.27711455828298404 0 0 0 0
34300272 0.32369435815793984 -0.025832496720270534 0.6277765171058299 -0.27757207517515375 0 0 0 0
34333218 0.3237547671934363 -0.02570325048037215 0.6271085376941374 -0.27763533391507456 0 0 0 0
34366164 0.3236794276081274 -0.025711360760572077 0.6271218638710562 -0.27772171706861276 0 0 0 0
34399110 0.32367616330099636 -0.025921040690949904 0.6270665122968891 -0.27819500959780313 0 0 0 0
34432056 0.32400938562552145 -0.02596714164345763 0.6268343169070539 -0.2779076320978872 0 0 0 0
34465002 0.32393492343728386 -0.026186148670135214 0.6268706522555795 -0.2787830188904137 0 0 0 0
34497948 0.32418261657933 -0.026063271034274568 0.626561594700813 -0.2785813449472767 0 0 0 0
34530894 0.32426649236699506 -0.02615586464315722 0.6263522292989656 -0.2791020355078567 0 0 0 0
34563840 0.32419514086580314 -0.02614082838803606 0.6257774559113368 -0.27907338046219526 0 0 0 0
34596786 0.32429890240549486 -0.026461731438809637 0.625966243704992 -0.27959019383055617 0 0 0 0
34629732 0.32420447731805585 -0.026322923365977732 0.625663026060996 -0.27949276973242126 0 0 0 0
34662678 0.32425336743735605 -0.026530937054758702 0.6256739708403767 -0.27959865466652145 0 0 0 0
34695624 0.32444134690125376 -0.026744977911621337 0.6255391399790302 -0.28037130990912623 0 0 0 0
34728570 0.3246311534921296 -0.02642972151646254 0.6255392000962258 -0.28023939670617687 0 0 0 0
34761516 0.3247218608593155 -0.026765893060650563 0.6252328744459421 -0.280238254967156 0 0 0 0
34794462 0.3243360922556494 -0.026698220046394314 0.6250427273610405 -0.2807168278621204 0 0 0 0
34827408 0.32460086868825166 -0.026881048862562 0.6250873811400891 -0.28054199335343427 0 0 0 0
34860354 0.3246887971893297 -0.026850539691435336 0.6247174701435111 -0.2808371683670561 0 0 0 0
34893300 0.32488475120475685 -0.026987654235060974 0.6245269220977545 -0.28104888962139635 0 0 0 0
34926246 0.3249506362670615 -0.027260457733756804 0.6242797782103107 -0.28184592538966624 0 0 0 0
34959192 0.3248983026818439 -0.027367893069067124 0.6245056284558006 -0.2818914795963312 0 0 0 0
34992138 0.32512282052943003 -0.027178521058043453 0.624015001953405 -0.2820837907035962 0 0 0 0
35025084 0.32506383867566696 -0.02724958468935502 0.6241207691064341 -0.28182828503740637 0 0 0 0
35058030 0.3250310255515261 -0.027300007425012828 0.6237471015477988 -0.28242316164577064 0 0 0 0
35090976 0.3252284487060508 -0.027550579588115104 0.6238939162730435 -0.28279266977670436 0 0 0 0
35123922 0.3253590006093223 -0.0273079288193229 0.6235352427805967 -0.28257264609343263 0 0 0 0
35156868 0.3250068321953898 -0.027447354357748713 0.623023628164827 -0.2827111736594234 0 0 0 0
35189814 0.32527055919209213 -0.0277048458148977 0.6230686000295388 -0.28325438147356335 0 0 0 0
35222760 0.325297100986767 -0.02773921931251245 0.6229820156778351 -0.2834031978788745 0 0 0 0
35255706 0.32547934655380684 -0.02796074679843183 0.6224767444639978 -0.2836664216005686 0 0 0 0
35288652 0.32544092583423423 -0.02753217781446922 0.6227089716930785 -0.2830966501722876 0 0 0 0
35321598 0.32536144223165736 -0.02780245815887573 0.622661027132866 -0.2839375449836979 0 0 0 0
35354544 0.3254442679722868 -0.027817020558103204 0.6223830632432671 -0.2842405727340749 0 0 0 0
35387490 0.3257372448910402 -0.028325950250369533 0.6223855024414 -0.2847166240405592 0 0 0 0
35420436 0.32578452725492435 -0.028085131014824894 0.6217958743945707 -0.28416822116118706 0 0 0 0
35453382 0.3256563620046759 -0.028263864143732473 0.6218343833514475 -0.2848879587279016 0 0 0 0
35486328 0.32584582946516905 -0.028305368035615196 0.6217013106728192 -0.28507167289518875 0 0 0 0
35519274 0.3258593367406339 -0.028400111135643717 0.6218044756192583 -0.2851434252471975 0 0 0 0
35552220 0.3260235510079205 -0.02823453276978801 0.6216668541775733 -0.28507054739669624 0 0 0 0
35585166 0.32623875862597984 -0.028497637213065682 0.6209186503329824 -0.2854285916273825 0 0 0 0
35618112 0.3261051509533138 -0.02877694316494022 0.6207864019969725 -0.28592317407009415 0 0 0 0
35651058 0.32600994978857567 -0.028676525648208804 0.621053174423092 -0.2860091428560257 0 0 0 0
35684004 0.32621299411747867 -0.028548372518198424 0.6209555209645627 -0.2859775254992529 0 0 0 0
35716950 0.3262452927608588 -0.02880284440585219 0.6203484134656558 -0.28624128582761527 0 0 0 0
35749896 0.3261464952698573 -0.028779902801734154 0.6201716575648328 -0.2865852215907906 0 0 0 0
35782842 0.3262549757423904 -0.02896318502362167 0.6201127381214466 -0.2871226291765171 0 0 0 0
35815788 0.326472218918584 -0.02926462252110117 0.6198417923270614 -0.28705751600133855 0 0 0 0
35848734 0.32646096732833657 -0.02912659973604152 0.6201275883778966 -0.2874354529615687 0 0 0 0
35881680 0.3266629699950662 -0.02912451526313347 0.6197347379752064 -0.28728811204771937 0 0 0 0
35914626 0.3264268313563411 -0.029191255626137676 0.6195697774105727 -0.2879557374660435 0 0 0 0
35947572 0.32680109721513895 -0.029335312211936082 0.6193161647581261 -0.2876893409302419 0 0 0 0
35980518 0.32669647675365415 -0.02930255397431726 0.619331963892278 -0.2880541073386096 0 0 0 0
36013464 0.3267485296740064 -0.029519255155612916 0.6189405076501577 -0.28851930361486305 0 0 0 0
36046410 0.3267760625311769 -0.029785502092215966 0.6190357585731909 -0.28903749676802576 0 0 0 0
36079356 0.3269855813337868 -0.029452259805819204 0.6190169449891787 -0.2885528400937647 0 0 0 0
36112302 0.3270603056246704 -0.029657923169209198 0.6187036869431486 -0.2890208167313003 0 0 0 0
36145248 0.32703427554440817 -0.029861889074502476 0.6186294583864494 -0.289357043520788 0 0 0 0
36178194 0.3271681543975938 -0.029708070745497663 0.6184956428573938 -0.2892078014472993 0 0 0 0
36211140 0.32716459268102405 -0.03010889270575712 0.6179927024229853 -0.2896173623696912 0 0 0 0
36244086 0.32715179793069354 -0.030050907504871157 0.6181570640558658 -0.28969865377350673 0 0 0 0
36277032 0.3272476549429044 -0.029836583637986292 0.6179554650647211 -0.2898666566647603 0 0 0 0
36309978 0.327164957608896 -0.03001107459313178 0.6178207860747869 -0.29040423244243146 0 0 0 0
36342924 0.32723235834093484 -0.030233953370844693 0.6174293558730287 -0.2903609370594511 0 0 0 0
36375870 0.3274109397532102 -0.03035255920783801 0.6171098454820274 -0.2906902401933657 0 0 0 0
36408816 0.32732535966097875 -0.030365868569514176 0.617439592486649 -0.29091254520775 0 0 0 0
36441762 0.3276758031070073 -0.030314477760074576 0.6168908175132439 -0.2909203805227564 0 0 0 0
36474708 0.3273598589574675 -0.03041734724991627 0.6168744703760431 -0.2912884546703306 0 0 0 0
36507654 0.3277876017782806 -0.030580751223842073 0.6168417567556118 -0.29135006804790786 0 0 0 0
36540600 0.3279116736943509 -0.03052502887471754 0.616672924537379 -0.2916731904059013 0 0 0 0
36573546 0.32790007841248486 -0.030716767445742473 0.6165764992315911 -0.29215825106473553 0 0 0 0
36606492 0.32785624728408147 -0.030903277586417702 0.6163780510968289 -0.29261970945816773 0 0 0 0
36639438 0.3279735954575176 -0.03073458866637735 0.6164641912835056 -0.2919520410247862 0 0 0 0
36672384 0.3280061744704714 -0.030842302809566666 0.6160540809847135 -0.2925259705819569 0 0 0 0
36705330 0.3278651376633158 -0.030981771036391503 0.6157770003094696 -0.2928886046231652 0 0 0 0
36738276 0.32826576444264455 -0.03099663970970988 0.6157335856961045 -0.29287648259068205 0 0 0 0
36771222 0.3280246864838141 -0.031198178966509525 0.6153802676205654 -0.29312983202467824 0 0 0 0
36804168 0.328218079274288 -0.031161706347561827 0.6150268505774593 -0.2934051785625448 0 0 0 0
36837114 0.32800508387599936 -0.030958312921550553 0.6153149640516216 -0.2934606858269863 0 0 0 0
36870060 0.32843591342537126 -0.031405165155225956 0.6151172875065936 -0.2939418532937179 0 0 0 0
36903006 0.3282476975855914 -0.031613915539805325 0.615025851893954 -0.2941611530101916 0 0 0 0
36935952 0.3285946057331528 -0.031645313584709275 0.6146885401657505 -0.29428110429191906 0 0 0 0
36968898 0.3282198319018986 -0.031754428196268156 0.6144505909144014 -0.29443763640495274 0 0 0 0
37001844 0.32860930442655983 -0.03157480852658432 0.6142131093602751 -0.29459752181798016 0 0 0 0
37034790 0.32869360118207025 -0.031669232151000655 0.6143633567913427 -0.2944781327423354 0 0 0 0
37067736 0.32865751600767823 -0.031856539806380986 0.6139170807062913 -0.2952656962109373 0 0 0 0
37100682 0.3288436059761354 -0.031836386019320796 0.6139397134894221 -0.29514334617483073 0 0 0 0
37133628 0.32864483045880244 -0.03201375967606209 0.6134791213566968 -0.29533171865262975 0 0 0 0
37166574 0.32906569199304625 -0.03203920914280987 0.613668054303357 -0.295422356779109 0 0 0 0
37199520 0.32897755265693734 -0.03223366509410283 0.6131724769656922 -0.2961940773147861 0 0 0 0
37232466 0.32895783447081156 -0.03215187715098646 0.6133684722238614 -0.2959556833710913 0 0 0 0
37265412 0.328876967998725 -0.032278754963410254 0.6129171460145528 -0.29602556179511846 0 0 0 0
37298358 0.32908925964650615 -0.032284435912829375 0.6125492763220026 -0.2961723731151169 0 0 0 0
37331304 0.32899905131648566 -0.03256648321781442 0.6124400243096892 -0.29665178522332253 0 0 0 0
37364250 0.32921273165878717 -0.032573108418653095 0.6125280322198252 -0.29683710038577676 0 0 0 0
37397196 0.3293035608747456 -0.03249091028464927 0.6124342441688471 -0.2968316353646895 0 0 0 0
37430142 0.32913921888004277 -0.03275226441037557 0.6119819558126822 -0.29714271106958245 0 0 0 0
37463088 0.3293147706692491 -0.032788569476694944 0.6119425412413814 -0.2974497691781611 0 0 0 0
37496034 0.3295460283485462 -0.032752730912467505 0.611336471022108 -0.29704758949331095 0 0 0 0
37528980 0.3296630519428605 -0.03287755433760767 0.6117173584078691 -0.2977158546428972 0 0 0 0
37561926 0.32939509377539944 -0.03307691202955521 0.6111883024262388 -0.29823265681273425 0 0 0 0
37594872 0.3297043645396688 -0.033153397606430504 0.6112603596637122 -0.2982394686386166 0 0 0 0
37627818 0.3296825267957714 -0.032984602135531935 0.6114464815036189 -0.2982884934279458 0 0 0 0
37660764 0.3296539846372372 -0.0332615051161613 0.6110673902080784 -0.2989443012666976 0 0 0 0
37693710 0.33003475504626484 -0.03333507721199647 0.6108181818203701 -0.2987377957390926 0 0 0 0
37726656 0.3297895563733917 -0.03340769986210507 0.6106022910432429 -0.2989486593088898 0 0 0 0
37759602 0.3299553640358558 -0.03360812664925906 0.6105332558420545 -0.2993784701439496 0 0 0 0
37792548 0.3300517135919736 -0.03353875583383842 0.6103133868198618 -0.299297796220848 0 0 0 0
37825494 0.3302632871800497 -0.033650643788212926 0.610451604022314 -0.29947323314843705 0 0 0 0
37858440 0.3301767458088214 -0.03379988211995815 0.6099103661703191 -0.2998228719533673 0 0 0 0
37891386 0.3301463689239262 -0.03351680839916203 0.6097318371396468 -0.2997536990910129 0 0 0 0
37924332 0.3301300202626101 -0.033798598145936755 0.6096615047731868 -0.3001070559187135 0 0 0 0
37957278 0.3302695077842398 -0.0341033264397319 0.6095416427291989 -0.3003982151608682 0 0 0 0
37990224 0.33024803618236204 -0.03381549202933839 0.6092084577644794 -0.3004649079793038 0 0 0 0
38023170 0.33051666090658405 -0.0339795409584254 0.609329491782008 -0.30075484892615073 0 0 0 0
38056116 0.3305654702740302 -0.03426578359841694 0.6090862004779471 -0.30118633006875567 0 0 0 0
38089062 0.33041494875106403 -0.034263848590994114 0.6086106155987464 -0.30134136570893927 0 0 0 0
38122008 0.3305701985591994 -0.03425819012379992 0.6082444115870922 -0.3013999516726064 0 0 0 0
38154954 0.3308326481827494 -0.03444031695550857 0.608540980975891 -0.30157984947577227 0 0 0 0
38187900 0.33085818569109143 -0.0343732932298743 0.6084856386038492 -0.3017419492659503 0 0 0 0
38220846 0.33075280419473896 -0.03460514280540523 0.6078681754665782 -0.30211626540600417 0 0 0 0
38253792 0.33078028757371125 -0.034712057839358115 0.6080302070261165 -0.3022269243020568 0 0 0 0
38286738 0.3308018980665386 -0.034859332602338075 0.6077246613574504 -0.30242200891988524 0 0 0 0
38319684 0.33087341391153546 -0.03489376185166655 0.607301821260749 -0.3026580628494295 0 0 0 0
38352630 0.33110364494652056 -0.03494972425287899 0.6074518149008628 -0.30313367943186575 0 0 0 0
38385576 0.331088549380159 -0.035088361679636346 0.607337118023169 -0.3035748046941672 0 0 0 0
38418522 0.331084223144438 -0.03505312216120893 0.6073680553743455 -0.3034045021661724 0 0 0 0
38451468 0.33124876416549337 -0.03510828658978641 0.6069794768028838 -0.3032429629765009 0 0 0 0
38484414 0.331164877405891 -0.03515939891052251 0.6064819009379254 -0.30353566186884406 0 0 0 0
38517360 0.3311804023871506 -0.03533308727749632 0.6066076395297971 -0.30369907303540455 0 0 0 0
38550306 0.3314014945446619 -0.03542916441840358 0.6065503841196661 -0.30415415450929906 0 0 0 0
38583252 0.3314000609668996 -0.03554160117236846 0.6064429973547948 -0.30438153429263504 0 0 0 0
38616198 0.3314672072971966 -0.03532506934068985 0.6059178943995681 -0.30388540372521283 0 0 0 0
38649144 0.3315448331293132 -0.03567509271704628 0.6061166001179662 -0.3048208354895422 0 0 0 0
38682090 0.33149106490347396 -0.03573981186899765 0.60574579532344 -0.3049093206414087 0 0 0 0
38715036 0.3317134852842535 -0.03565668012038745 0.6055531804925887 -0.3048624217188951 0 0 0 0
38747982 0.3317518269879038 -0.03594707726804032 0.605572858266896 -0.3053968375666373 0 0 0 0
38780928 0.3317624154504913 -0.035781186155070616 0.6050015257026139 -0.3049296519373473 0 0 0 0
38813874 0.33196942796827406 -0.03574929675311986 0.6050425347435497 -0.30519614101262793 0 0 0 0
38846820 0.3319062059093676 -0.036255818965385565 0.6048847088443001 -0.30599242439901625 0 0 0 0
38879766 0.3319220565802893 -0.03615621503838699 0.6048679789919462 -0.30603046575815634 0 0 0 0
38912712 0.3319576751548009 -0.03609612240056597 0.6048161811837399 -0.3061381001957202 0 0 0 0
38945658 0.3321189296620766 -0.03629502100193531 0.6045987382424057 -0.30665611061442727 0 0 0 0
38978604 0.33212763007225327 -0.036431823752257494 0.604631175307322 -0.30681328983352574 0 0 0 0
39011550 0.3323118352284851 -0.03662781470438815 0.6043823660726596 -0.30707555624247246 0 0 0 0
39044496 0.332308202740839 -0.03650455739914043 0.6040450406063871 -0.3070605220049921 0 0 0 0
39077442 0.3323679142680225 -0.03641588032230932 0.6034021880902875 -0.3068597419839361 0 0 0 0
39110388 0.3327029348828493 -0.03678270971678982 0.6038234814976101 -0.30766602601513815 0 0 0 0
39143334 0.33262285580184753 -0.03694640622181364 0.6033905069755888 -0.3078728824355318 0 0 0 0
39176280 0.33246748532461945 -0.036682558945624014 0.6035279459405208 -0.3078420397055215 0 0 0 0
39209226 0.33262022393855106 -0.03684293202556061 0.6027919949695237 -0.30789554373941774 0 0 0 0
39242172 0.3327053634001034 -0.037135928682295614 0.603114323259728 -0.3083042097761936 0 0 0 0
39275118 0.33268378822091954 -0.037063133109491095 0.6028815331704349 -0.3085698545020821 0 0 0 0
39308064 0.3329720651613355 -0.03736193613414665 0.6027897723811755 -0.3087890896509546 0 0 0 0
39341010 0.33282268934273335 -0.03721149417628841 0.6026275198604549 -0.30889801152220764 0 0 0 0
39373956 0.3328682209448786 -0.03721926454867381 0.6022043447810072 -0.30903106040481515 0 0 0 0
39406902 0.3328949300410566 -0.03720755227156774 0.6019526238703593 -0.30889557643471777 0 0 0 0
39439848 0.3330211976432833 -0.03753475090473137 0.6019416012676482 -0.3090418348683726 0 0 0 0
39472794 0.33309552176779905 -0.037667927299738405 0.6017663743884119 -0.3098439969815715 0 0 0 0
39505740 0.3331955817163188 -0.0378380622003934 0.6016047848098315 -0.30985046893135954 0 0 0 0
39538686 0.3330665445241649 -0.03761461299102501 0.6014053421061423 -0.30956987268456426 0 0 0 0
39571632 0.33328344388773484 -0.03792722243751016 0.6016395915847789 -0.3105268071958218 0 0 0 0
39604578 0.33323539145439546 -0.03785592159204692 0.6006674474973998 -0.3098353612309702 0 0 0 0
39637524 0.33347963736141295 -0.038084258342711966 0.6010452407794706 -0.3108950220090455 0 0 0 0
39670470 0.3335665279826618 -0.03818472617009571 0.600791327741863 -0.31074099302890196 0 0 0 0
39703416 0.3334721248770823 -0.03813994105979838 0.600618990873042 -0.31093185330383066 0 0 0 0
39736362 0.3335066904192474 -0.03827386119198944 0.6007339434957213 -0.3114053437333532 0 0 0 0
39769308 0.3336303147050461 -0.038118876112493136 0.5999333120420924 -0.3108304451677859 0 0 0 0
39802254 0.33355338788109107 -0.03825682686965973 0.6002362314992786 -0.3117321749848461 0 0 0 0
39835200 0.33382761774872316 -0.038424864188510176 0.6001005087174087 -0.3117220845332851 0 0 0 0
39868146 0.33380298900905975 -0.03840843442964225 0.5999274879964942 -0.31185343304707225 0 0 0 0
39901092 0.33385834756362465 -0.03865687174694988 0.5997860005459075 -0.31231016974855647 0 0 0 0
39934038 0.33374930661238345 -0.03865147080898695 0.5993108097409444 -0.3120797732827558 0 0 0 0
39966984 0.3338128352496183 -0.038729935524135464 0.5992665215123565 -0.3125015468601872 0 0 0 0
39999930 0.33404140399368254 -0.03888689530363782 0.5989336133355113 -0.3127272159600865 0 0 0 0
