# HZ S RI R 50
300000 0.0925831472677449 0.06958373954164408 -0.03182333932467833 -0.010765747879935589 0 0 0 0
332946 0.11552455507294267 0.12064287507623932 -0.07658392072500682 -0.044463028658318804 0 0 0 0
365892 0.1562588852014011 0.13801389264568398 -0.11855166654327522 -0.04391373895087026 0 0 0 0
398838 0.18838117464474533 0.13511257623473102 -0.14478563453766372 -0.030493504482641192 0 0 0 0
431784 0.19857419376192986 0.15409816840943683 -0.15896463814549722 -0.12842323829542504 0 0 0 0
464730 0.21464980750216067 0.1447079276693758 -0.17688145489215454 -0.11983695803767981 0 0 0 0
497676 0.22700791778255272 0.13485846486273986 -0.1894167055292019 -0.11124142223973217 0 0 0 0
530622 0.23554955208247152 0.12626741433760372 -0.19830063308538107 -0.10328994676283064 0 0 0 0
563568 0.24223260735699279 0.11870638296038934 -0.20498556674799492 -0.09607847498861578 0 0 0 0
596514 0.2473089507584519 0.11194783305631995 -0.21009631668334144 -0.08998220050703692 0 0 0 0
629460 0.2513768178438759 0.10588166343245978 -0.21400097449836 -0.08422878103012998 0 0 0 0
662406 0.25477096426403173 0.10031955042329775 -0.2171931887816165 -0.07943373086296053 0 0 0 0
695352 0.25748437671708574 0.0955759872912833 -0.21967804295654245 -0.07508579113997753 0 0 0 0
728298 0.25989177117562995 0.09127570858735896 -0.2217924933120858 -0.07121744235520941 0 0 0 0
761244 0.26183145663150864 0.08715926818528141 -0.22345037175469937 -0.06762700428074599 0 0 0 0
794190 0.2635649083842968 0.08336503730426442 -0.224683678963066 -0.06415497210690309 0 0 0 0
827136 0.2652269719452521 0.08002419154075577 -0.22627938135937276 -0.06132829423893689 0 0 0 0
860082 0.2662900380738311 0.07682697496739221 -0.2272915617737498 -0.05853065345293307 0 0 0 0
893028 0.26747197849977694 0.07384619963235532 -0.2281902194135805 -0.056053387466344154 0 0 0 0
925974 0.2682965335110809 0.07119101365495091 -0.22900731728144966 -0.053659969122952574 0 0 0 0
958920 0.2692108666981159 0.06850936843968185 -0.2296955635997638 -0.051573057541889025 0 0 0 0
991866 0.2698509888456964 0.06638406508497637 -0.23024265906533317 -0.04949561731786263 0 0 0 0
1024812 0.2704610030603759 0.06414801730306062 -0.23075018946037326 -0.0478363688125846 0 0 0 0
1057758 0.2711699950448746 0.06209075406977726 -0.23132543411453083 -0.045934842292874214 0 0 0 0
1090704 0.27163475611157206 0.060213840904049167 -0.2317831701119801 -0.04428511384619919 0 0 0 0
1123650 0.2721142441317809 0.058464435822419634 -0.2322109326754491 -0.042819194793766086 0 0 0 0
1156596 0.2726368185047398 0.056828985647638997 -0.23253119020540194 -0.04122350752665514 0 0 0 0
1189542 0.27306013608007024 0.05520561493075861 -0.23292714501613515 -0.04018709905193407 0 0 0 0
1222488 0.2733922101251377 0.05364006478593081 -0.2331763888415654 -0.03883154873362543 0 0 0 0
1255434 0.27367886318029494 0.052253161224527896 -0.23346004621088706 -0.03763567202672099 0 0 0 0
1288380 0.2739080527135034 0.05096628360638413 -0.23369175916170562 -0.03643195805016906 0 0 0 0
1321326 0.27407630863963084 0.04955456197300108 -0.23398449898947657 -0.03527605744929239 0 0 0 0
1354272 0.2744527608399328 0.04835973455804205 -0.23418192526808365 -0.03423782902720983 0 0 0 0
1387218 0.27464730268139026 0.04706761192094171 -0.23428658039823516 -0.03315485775860242 0 0 0 0
1420164 0.27488248230894885 0.04593504903647804 -0.23448266731718453 -0.03233852719089517 0 0 0 0
1453110 0.27511087725732586 0.04499896796206005 -0.2347445922708734 -0.03142978953099132 0 0 0 0
1486056 0.2751196697065232 0.04402924942858062 -0.23469032454146807 -0.03053719225283 0 0 0 0
1519002 0.27536711274258374 0.0429888972079172 -0.2350135656301323 -0.029487306333576175 0 0 0 0
1551948 0.2755148465849062 0.042221864820691124 -0.23509541211256837 -0.028685405474972774 0 0 0 0
1584894 0.2757092173545156 0.041368982513762545 -0.2351411457536874 -0.02807106125019722 0 0 0 0
1617840 0.2757683881127447 0.040464874134445016 -0.23530520177336026 -0.027421740372982957 0 0 0 0
1650786 0.2758350883002423 0.03959429353654777 -0.23541922147729444 -0.026527979327114988 0 0 0 0
1683732 0.2757706275051781 0.03887673803204328 -0.2355124299442309 -0.025792155893993123 0 0 0 0
1716678 0.2759741353168844 0.03817042191932758 -0.2355680264524305 -0.025192587015069077 0 0 0 0
1749624 0.27613073920485065 0.03745758621502059 -0.23567710544616954 -0.024518502331733628 0 0 0 0
1782570 0.27619481107946675 0.03664540259464791 -0.23578538518768688 -0.02378533590447212 0 0 0 0
1815516 0.27635300274677543 0.036099791823978766 -0.2357344289008761 -0.023148791679205357 0 0 0 0
1848462 0.2763749305839147 0.035511068412957876 -0.2359011165168226 -0.02267587560302435 0 0 0 0
1881408 0.27653683374407895 0.03488884904778738 -0.23606054678894356 -0.022128601376556544 0 0 0 0
1914354 0.27645864612956045 0.03420121886057944 -0.23595555310599556 -0.02145203185117699 0 0 0 0
1947300 0.27645495893382066 0.033723139303251534 -0.23605476159517103 -0.021023218785099697 0 0 0 0
1980246 0.27654777620571547 0.03317723478953823 -0.2361113658747763 -0.020328464768499085 0 0 0 0
2013192 0.27660533914083973 0.032574332536252956 -0.23628483923090207 -0.019937421412033342 0 0 0 0
2046138 0.27662500411142904 0.032138737997979686 -0.23625155277291088 -0.019400076023118728 0 0 0 0
2079084 0.2766899620144655 0.031723297124442516 -0.2362913985378963 -0.018842370902005443 0 0 0 0
2112030 0.2768836339737216 0.03117871292675553 -0.23635685548143046 -0.018368297747957618 0 0 0 0
2144976 0.2769321804186053 0.030737287716419384 -0.23637112648097183 -0.017872769136562456 0 0 0 0
2177922 0.27703857195953624 0.03040973013168677 -0.2364915292974496 -0.01752575896527084 0 0 0 0
2210868 0.2768702445330224 0.02996110640486424 -0.23650185531331866 -0.017021490097102823 0 0 0 0
2243814 0.27694323202672727 0.029449390253477033 -0.23646446909406346 -0.016600424908429365 0 0 0 0
2276760 0.2770674772447908 0.028978939969381938 -0.23660126314914812 -0.016037348711779545 0 0 0 0
2309706 0.27701486882096443 0.028702431643179982 -0.23664679274060663 -0.015811378980900702 0 0 0 0
2342652 0.2770945005569931 0.028268783984518084 -0.2366088293031046 -0.0153472343359931 0 0 0 0
2375598 0.27706609902864315 0.027955201127631127 -0.23667000511763173 -0.014885135600369014 0 0 0 0
2408544 0.27707712236937804 0.027549402715812694 -0.23680720373878017 -0.01451032591064745 0 0 0 0
2441490 0.27710361268731043 0.02737936366653337 -0.2367060300254137 -0.014129298623326217 0 0 0 0
2474436 0.2769017457204192 0.026928558033689726 -0.236708891393269 -0.013693580830975757 0 0 0 0
2507382 0.2772982680668026 0.026781957219558176 -0.23669532186686962 -0.013330748915839949 0 0 0 0
2540328 0.27725211947466155 0.026308969673492565 -0.23684095397087526 -0.013058776222252192 0 0 0 0
2573274 0.27708546876251805 0.02619302685838935 -0.23680759358119352 -0.012699160120059791 0 0 0 0
2606220 0.2770552020759223 0.02591140719397131 -0.23682766631529836 -0.01221969862685493 0 0 0 0
2639166 0.27736946936352963 0.025595427504176548 -0.23686149271153267 -0.011897734120157655 0 0 0 0
2672112 0.27736469874185493 0.025316636953954426 -0.23691499299417781 -0.011588153316772366 0 0 0 0
2705058 0.2773118404469794 0.024895769135695234 -0.2368791641587142 -0.011282953808492866 0 0 0 0
2738004 0.2774618733987086 0.02470674133843025 -0.2370084627688633 -0.011017842808786357 0 0 0 0
2770950 0.27755260705044643 0.02449096164537209 -0.23710978294126014 -0.010645553076861937 0 0 0 0
2803896 0.2773086326902105 0.024242019462564927 -0.2370198035649141 -0.010330238284655577 0 0 0 0
2836842 0.27730001750957883 0.024129029060002357 -0.236979332735503 -0.010016543869734891 0 0 0 0
2869788 0.27740789811775624 0.023720990829253632 -0.2370459175189609 -0.00964668700294256 0 0 0 0
2902734 0.2775161754764226 0.023450538944709855 -0.2368960077789866 -0.009335259733721575 0 0 0 0
2935680 0.2775422180838503 0.023252542354763955 -0.23704272977416524 -0.008970816078156653 0 0 0 0
2968626 0.2774798943290388 0.02300604324001841 -0.23699765069291392 -0.008692724210394603 0 0 0 0
3001572 0.2775253638758899 0.02303555173234835 -0.23702554333342837 -0.00833820591548483 0 0 0 0
3034518 0.2776182288852217 0.022719001521703218 -0.23707368873251738 -0.007953552172392976 0 0 0 0
3067464 0.27764594702812556 0.022472502949587057 -0.23714518101338114 -0.007886433997111062 0 0 0 0
3100410 0.2775788849929408 0.02242059906691749 -0.23699479568477122 -0.007566188146059838 0 0 0 0
3133356 0.27761801196576896 0.022166406136145247 -0.23723175141664474 -0.007172291980144325 0 0 0 0
3166302 0.27771820577274686 0.021911847973607984 -0.23711347732304602 -0.007042168325541712 0 0 0 0
3199248 0.277705182397999 0.021733816590790492 -0.2371382363659796 -0.006800854925289113 0 0 0 0
3232194 0.277647123423039 0.021684070922749838 -0.23703881495065368 -0.006491777572899928 0 0 0 0
3265140 0.27782085321249983 0.021542102724732382 -0.23718130279602834 -0.006148882624592593 0 0 0 0
3298086 0.2775964198110118 0.021241648006810665 -0.23700064506863364 -0.005875273684222276 0 0 0 0
3331032 0.277716739222158 0.020957938918973414 -0.2371196274765534 -0.005648713841291542 0 0 0 0
3363978 0.2777735588749388 0.020864536666733633 -0.23704580665822328 -0.005370315086749076 0 0 0 0
3396924 0.2779744992214898 0.02066359672510253 -0.2371552961207252 -0.005170072478908375 0 0 0 0
3429870 0.2777774983662163 0.0205992874725408 -0.23723400895918093 -0.0048837237210045984 0 0 0 0
3462816 0.27787850208188386 0.02054383254911206 -0.23714256772197345 -0.004704232461328088 0 0 0 0
3495762 0.2780143967391371 0.0203607905930014 -0.237264103605633 -0.004411232404572469 0 0 0 0
3528708 0.2778264865822055 0.020137111596059697 -0.23700809189840305 -0.004061323518772544 0 0 0 0
3561654 0.278118809429404 0.019994121601290465 -0.2371383558646352 -0.0039107725179689514 0 0 0 0
3594600 0.2781900952708097 0.019818394485032347 -0.2370873916686323 -0.003697892119924771 0 0 0 0
3627546 0.2781454078351347 0.01964776414841344 -0.23736478770614058 -0.003349366572284516 0 0 0 0
3660492 0.2781898451866786 0.019658696104567053 -0.23709567536390921 -0.003200334742309981 0 0 0 0
3693438 0.2780644184506417 0.019520223807700087 -0.23719285297337928 -0.002907647463513763 0 0 0 0
3726384 0.27817110118982047 0.019336139874441268 -0.23725545623188832 -0.0027409566289605582 0 0 0 0
3759330 0.2779511323590292 0.01903048773211249 -0.23722761071455845 -0.0024294723009760317 0 0 0 0
3792276 0.2782805356240658 0.019020641111063066 -0.23728635938655473 -0.002304066643334131 0 0 0 0
3825222 0.27837665125081146 0.018827607936124105 -0.2373282314977546 -0.001991911299032604 0 0 0 0
3858168 0.27828694336295856 0.01880575289579413 -0.23714273770531044 -0.0018359107371770308 0 0 0 0
3891114 0.2782823942087198 0.01874542516180416 -0.23726950119478613 -0.0014557770810655058 0 0 0 0
3924060 0.278167348530499 0.018545191726905913 -0.23713160715656087 -0.0013088133957025183 0 0 0 0
3957006 0.27836776985339706 0.018473720697492552 -0.23718872945038377 -0.0010579975419560046 0 0 0 0
3989952 0.27854068236477425 0.018353461527899035 -0.23718966054294147 -0.0009477317344391404 0 0 0 0
4022898 0.2784565861490336 0.018140233987903445 -0.23717525169220363 -0.0006332326483127086 0 0 0 0
4055844 0.27854085221400793 0.017940664454522866 -0.23717198725423008 -0.0004548790512274298 0 0 0 0
4088790 0.27854744357754957 0.018071473235130177 -0.23721604069394903 -0.00024082491392234324 0 0 0 0
4121736 0.27833031847135203 0.017819485760069975 -0.23712607431879007 -1.726763183165672e-05 0 0 0 0
4154682 0.2785810797936495 0.017761448860015325 -0.23721907672819958 0.0001454755679126615 0 0 0 0
4187628 0.2787492573441066 0.017710159469428523 -0.23716159058903027 0.0003964764335201073 0 0 0 0
4220574 0.2787740114235849 0.017567272099534813 -0.23722182864873706 0.0006152021438865711 0 0 0 0
4253520 0.2786232944261322 0.01745128838174033 -0.23717524457223255 0.0008610933167806586 0 0 0 0
4286466 0.2787620378963831 0.017362468906971327 -0.23712433360555366 0.0010541767322284046 0 0 0 0
4319412 0.2788087982616964 0.017164704542832428 -0.23705779629839072 0.0011229652139843295 0 0 0 0
4352358 0.27886702549647596 0.017118063016652058 -0.23730444648451135 0.0015310697624539135 0 0 0 0
4385304 0.2785934530893331 0.017027570201096052 -0.23719431249881817 0.0017538792014171042 0 0 0 0
4418250 0.2788060767087425 0.01696298773146878 -0.23699362531609908 0.0017616908750683951 0 0 0 0
4451196 0.2791004345931835 0.016912744923759583 -0.23735283000535434 0.0019994884675142606 0 0 0 0
4484142 0.2789668366507353 0.016776538868187738 -0.23715893250731587 0.0022894254528435624 0 0 0 0
4517088 0.2790663002530122 0.016559868732226143 -0.2372596626404641 0.0025015147502898127 0 0 0 0
4550034 0.27900348748836956 0.016593427031234835 -0.23713675906672618 0.0025481447958709763 0 0 0 0
4582980 0.27928824657731394 0.016397833016572685 -0.23728081320310448 0.0028160974395173713 0 0 0 0
4615926 0.27893900669641697 0.016419908942986654 -0.23722996063179355 0.0030770400635096655 0 0 0 0
4648872 0.2791335839605475 0.016265683516037997 -0.23702150772372899 0.003133229422801018 0 0 0 0
4681818 0.27928092497227486 0.016153861097286965 -0.23711853678861203 0.0033921726891100673 0 0 0 0
4714764 0.27927467990668553 0.016283945496803377 -0.23726205357937807 0.0036237359407173355 0 0 0 0
4747710 0.2791111857957858 0.01607320616938042 -0.23717510054328503 0.0036339115285337633 0 0 0 0
4780656 0.2792865529929276 0.01592530538364561 -0.23709733856966553 0.0040245315444056035 0 0 0 0
4813602 0.27931533064197983 0.015779894998528415 -0.23708262793500037 0.004186603363382934 0 0 0 0
4846548 0.2791993748708892 0.0159708905466227 -0.2369857107647873 0.0043075769532324075 0 0 0 0
4879494 0.2793389978237992 0.015726875803530067 -0.237206316716514 0.0046299849582596714 0 0 0 0
4912440 0.2793573152049699 0.01560405862761493 -0.23707876514502257 0.004634556464364676 0 0 0 0
4945386 0.2795233820925748 0.01548458876963744 -0.23718350642491898 0.0050153880589621025 0 0 0 0
4978332 0.27953229975991106 0.015579368891197435 -0.2373345302940136 0.005055637064816674 0 0 0 0
5011278 0.27940759767433637 0.015394878771797373 -0.2370195913854241 0.005273330312845786 0 0 0 0
5044224 0.27953967125958984 0.015284874622664289 -0.236981913267982 0.005537823421268593 0 0 0 0
5077170 0.27966871789295394 0.015287479441680202 -0.237288160999883 0.005631483621369288 0 0 0 0
5110116 0.27952868217862825 0.015187560504650414 -0.236906328433027 0.005734623285459757 0 0 0 0
5143062 0.27965710598287624 0.015032826715632362 -0.2371514067663642 0.005995071531165324 0 0 0 0
5176008 0.27946238145336333 0.014970980909519736 -0.2370591244588092 0.0062781578524816785 0 0 0 0
5208954 0.27972162825458574 0.015041904873796771 -0.23717122963410803 0.0062955453678795945 0 0 0 0
5241900 0.27983591612274866 0.015176669290650603 -0.23714028235951914 0.006506827157013867 0 0 0 0
5274846 0.27977451521067925 0.014822124733084427 -0.23711083147889012 0.006842964972199237 0 0 0 0
5307792 0.27986903446947464 0.014650164284795682 -0.2371063176940263 0.0068976612695384005 0 0 0 0
5340738 0.28006236060825834 0.014596575108062448 -0.23708956981951876 0.007047276562430831 0 0 0 0
5373684 0.27977664653370155 0.014616906833030047 -0.237035416152444 0.007272789051191646 0 0 0 0
5406630 0.27995466820332354 0.014490692495550888 -0.23695155287966627 0.0073993580258399395 0 0 0 0
5439576 0.2800356502716476 0.014444612018441185 -0.23701350346862865 0.007562660439792601 0 0 0 0
5472522 0.2800369707889238 0.014495059448833662 -0.2370928016745924 0.007831053030304153 0 0 0 0
5505468 0.2800366504828074 0.014410600410155964 -0.23700776972796597 0.008019951171944088 0 0 0 0
5538414 0.28018298005407716 0.01421778017473277 -0.2370847213641989 0.008185698228150209 0 0 0 0
5571360 0.2800757716707838 0.014224632537182499 -0.236926743211969 0.008193128381032888 0 0 0 0
5604306 0.28015887981212445 0.014135944018549604 -0.2369640312036579 0.008405945382774022 0 0 0 0
5637252 0.28008481952190184 0.01411269900936071 -0.23697433568964807 0.008624531062691128 0 0 0 0
5670198 0.28022955952176143 0.013965710765256273 -0.23699503681534712 0.008862411033715508 0 0 0 0
5703144 0.2802448481814729 0.013861738968853668 -0.2369391384407233 0.008929678311644939 0 0 0 0
5736090 0.28027176281367533 0.013827166847094766 -0.23691523212531496 0.009099091622987015 0 0 0 0
5769036 0.28030703444261973 0.013811255097476048 -0.23693602730402186 0.009277944350169605 0 0 0 0
5801982 0.28061978857428393 0.013586729271194396 -0.23691058844897647 0.009546589325234152 0 0 0 0
5834928 0.28074794685747584 0.013725752063403639 -0.23695885856005408 0.00961442428180555 0 0 0 0
5867874 0.2804582968327428 0.013707278649623646 -0.23700958174529993 0.00983009244459042 0 0 0 0
5900820 0.2803919809936838 0.013566681476793213 -0.2368513062898997 0.009958836139806134 0 0 0 0
5933766 0.2806180006814756 0.013587176938151514 -0.2369415694661947 0.010214878310326742 0 0 0 0
5966712 0.2804998055988149 0.013550892156012713 -0.23689522676285157 0.010396133623760833 0 0 0 0
5999658 0.2805722538415989 0.013369734987616358 -0.23699742269064414 0.010546498849507762 0 0 0 0
6032604 0.2808873788946563 0.013173103654391992 -0.23688441230263674 0.010572951188011588 0 0 0 0
6065550 0.2808038103650558 0.01330767549325709 -0.23686461409767776 0.010706653930048105 0 0 0 0
6098496 0.28071190680615693 0.013336974623876861 -0.23699938972258355 0.010974766999802831 0 0 0 0
6131442 0.28056920757057663 0.01315057679812174 -0.23687438523904542 0.011189817974368058 0 0 0 0
6164388 0.28074668960560734 0.013132268033772085 -0.23686437229238977 0.011385435513548184 0 0 0 0
6197334 0.2808241813733234 0.013026547451031838 -0.23667364680473182 0.011439808533614126 0 0 0 0
6230280 0.28090516364510115 0.012902118629631448 -0.2368708885326628 0.01163531029699059 0 0 0 0
6263226 0.2811631717942649 0.01287867386560148 -0.23683292423484362 0.011878170617630465 0 0 0 0
6296172 0.2808475620784531 0.0130306952049841 -0.23685947943596083 0.011908763746427714 0 0 0 0
6329118 0.28101951616544224 0.012832592023048331 -0.23679047869966735 0.012168193496434724 0 0 0 0
6362064 0.28095522435051107 0.012891717861632988 -0.23685960069656503 0.012316765304775407 0 0 0 0
6395010 0.2811300953628698 0.012560454459844933 -0.2368331432555197 0.012451583524607584 0 0 0 0
6427956 0.2811080253830344 0.012584516611014767 -0.23674977510992584 0.012603224864666376 0 0 0 0
6460902 0.28102160680321664 0.01261206537773695 -0.23672380999811563 0.012817921363920402 0 0 0 0
6493848 0.2809790734317992 0.01271736120090315 -0.23664416838467217 0.012897174862676858 0 0 0 0
6526794 0.281284498466097 0.012478736214504968 -0.23672142949691538 0.01304768352714731 0 0 0 0
6559740 0.28127690768606944 0.012404645693850483 -0.2366801717751569 0.013360889797057919 0 0 0 0
6592686 0.28138713340243243 0.012443541812866048 -0.23676882923841153 0.013412421510247184 0 0 0 0
6625632 0.28134451608270206 0.01231118283810971 -0.2366745844822008 0.013516368076311396 0 0 0 0
6658578 0.2814156784001129 0.012350461792482174 -0.23663360393963925 0.013763585327674258 0 0 0 0
6691524 0.2813232949874725 0.012194776738867269 -0.2367011775098433 0.01389830694592135 0 0 0 0
6724470 0.28152178390061133 0.012184900203963693 -0.23656687298659518 0.014085499370562594 0 0 0 0
6757416 0.2814276986897226 0.012250715679483704 -0.23661251565107824 0.014225003361638207 0 0 0 0
6790362 0.28159291058001396 0.011967349369629008 -0.2365457166362169 0.014400248386704834 0 0 0 0
6823308 0.28162412062376196 0.012038400355501688 -0.2365527055470284 0.014582379952359406 0 0 0 0
6856254 0.28153589867754714 0.012127517290860727 -0.23657319687063494 0.014620809959856873 0 0 0 0
6889200 0.28160186848540747 0.012072156246853046 -0.23653026702596464 0.014886442621192823 0 0 0 0
6922146 0.27968808598076506 0.015255364927209717 -0.23655559933515546 0.01679618154965679 0 0 0 0
6955092 0.2794596472881587 0.015407683829848631 -0.23641309431650603 0.016777688934659387 0 0 0 0
6988038 0.2795866819447206 0.015327423095557798 -0.23640562795443062 0.016829706353782687 0 0 0 0
7020984 0.27979027676291496 0.015128932390300404 -0.2363016730638487 0.017044876827024758 0 0 0 0
7053930 0.27987226654285946 0.015327400478737962 -0.23620583241663237 0.01723185487027308 0 0 0 0
7086876 0.2797825396495303 0.015046081697244364 -0.23626688554793077 0.017185968009987434 0 0 0 0
7119822 0.27976297231863584 0.015093039332236283 -0.23622961808831186 0.01735078814520204 0 0 0 0
7152768 0.27965972810709633 0.015056583783844774 -0.2362003298162358 0.017376462451007223 0 0 0 0
7185714 0.27979537419068906 0.015073104502910745 -0.23610117967033867 0.017493023501594946 0 0 0 0
7218660 0.27971102343484355 0.014940616149023622 -0.23626956989189354 0.017732828484506163 0 0 0 0
7251606 0.28008367812441387 0.014895330166637133 -0.23626026732319702 0.017863491986211434 0 0 0 0
7284552 0.27998501703029294 0.014744603297882066 -0.23634088978565487 0.018094568141713573 0 0 0 0
7317498 0.2798925085009646 0.0148264221885041 -0.2363839552368841 0.018098922880879307 0 0 0 0
7350444 0.28001131074988656 0.014759878247589633 -0.23628218769590584 0.018281250493775027 0 0 0 0
7383390 0.2801174189214462 0.014690775569996569 -0.23627976713970628 0.018485006540781654 0 0 0 0
7416336 0.2800485047075902 0.014672163614590986 -0.23632129165769325 0.01857573328159676 0 0 0 0
7449282 0.2802280793074316 0.014678718933056906 -0.23635883846915062 0.018667021922038823 0 0 0 0
7482228 0.28003060668595414 0.014611805393026917 -0.2362089222137011 0.01888675894649131 0 0 0 0
7515174 0.28021853921177564 0.014574990332878473 -0.23619956197818437 0.018969471437625545 0 0 0 0
7548120 0.2803610581367823 0.014627759880885317 -0.23623494173168477 0.01922193306893054 0 0 0 0
7581066 0.2802093017575327 0.014412862001969971 -0.2362851738473914 0.019299999689124877 0 0 0 0
7614012 0.28033085186929274 0.014315424739959594 -0.23630605054271037 0.019520731523558717 0 0 0 0
7646958 0.28034062984397196 0.014339334640582424 -0.2363340825754104 0.019730390206788795 0 0 0 0
7679904 0.2804851237044024 0.014241778280624446 -0.23626683830085488 0.019813881190298435 0 0 0 0
7712850 0.280544423694936 0.01430697994826329 -0.23631657617272073 0.020068854048506453 0 0 0 0
7745796 0.2804098634034017 0.014245326318763466 -0.23617463145706372 0.019916853363169562 0 0 0 0
7778742 0.28049944491576095 0.014198312436507135 -0.23618805781099195 0.020291071078333753 0 0 0 0
7811688 0.2805970439729166 0.014187302783917501 -0.23625945542287094 0.020402737230762028 0 0 0 0
7844634 0.28055005161946417 0.014055303512422812 -0.2363133421576152 0.02062957713814889 0 0 0 0
7877580 0.280601316941492 0.01412827949885264 -0.23618037199683992 0.020722668349037587 0 0 0 0
7910526 0.28082405944792044 0.014005157349444951 -0.23622356969081454 0.02086928097975643 0 0 0 0
7943472 0.2806178457293644 0.014054654563463935 -0.23607888015843592 0.02097499208189158 0 0 0 0
7976418 0.28066497912729915 0.014036650313623425 -0.2360700965655416 0.021077539164308573 0 0 0 0
8009364 0.2807465233152321 0.01393219689780586 -0.23613342079996444 0.02122084004028075 0 0 0 0
8042310 0.2808108950460744 0.013893155864030317 -0.23610790551054509 0.021345349163627347 0 0 0 0
8075256 0.28092461033423477 0.013904124101670839 -0.23595947332637182 0.02144824065525181 0 0 0 0
8108202 0.28096521932750645 0.013808849212769704 -0.23605409618620962 0.021549782354048627 0 0 0 0
8141148 0.2811080619646916 0.01367840405933944 -0.23615834574720118 0.02186801533636369 0 0 0 0
8174094 0.28083262767684325 0.013810064912402577 -0.23599635520324375 0.02194266205084561 0 0 0 0
8207040 0.2810104399349913 0.013749086880128934 -0.23610382459336365 0.022148919129083944 0 0 0 0
8239986 0.28107231438701474 0.01369903021725944 -0.23578000115319978 0.02215389337867248 0 0 0 0
8272932 0.2811038423270682 0.013598044365065384 -0.23600759532283166 0.022477263952874513 0 0 0 0
8305878 0.2811032306806591 0.013596981923662843 -0.23594103331280358 0.022512823370532203 0 0 0 0
8338824 0.28124620343186557 0.013472229988991967 -0.2360497752589008 0.02272896755752747 0 0 0 0
8371770 0.281102372792983 0.013447092347850872 -0.23595489610406065 0.02279237914811771 0 0 0 0
8404716 0.2812464879940011 0.013363227237976717 -0.2359686496284573 0.022929843716477057 0 0 0 0
8437662 0.28139520852115035 0.013339632301288207 -0.23578797942755267 0.023005198996234162 0 0 0 0
8470608 0.28145747116844716 0.013438492824959673 -0.23576267031803091 0.023174857523444125 0 0 0 0
8503554 0.2814419558615977 0.013383313830063264 -0.23588316454457653 0.02339283225282816 0 0 0 0
8536500 0.2814047338357848 0.013362215536298145 -0.23581723843596014 0.02346785222351167 0 0 0 0
8569446 0.281360600909374 0.013313784731844823 -0.2358552718070991 0.023739053689559447 0 0 0 0
8602392 0.2814907881810364 0.013188697309607629 -0.23565747209352744 0.023788810678140454 0 0 0 0
8635338 0.28164346272857765 0.01325319637325512 -0.2358227263907979 0.023930328535929475 0 0 0 0
8668284 0.2814949242529124 0.013075746272658957 -0.23574269335836695 0.02406453163415777 0 0 0 0
8701230 0.28161395489300267 0.013125588270086053 -0.23566181139438375 0.02417527918496161 0 0 0 0
8734176 0.28170805757534745 0.013080803765539436 -0.23585387824786427 0.02442637502123612 0 0 0 0
8767122 0.2815962073384937 0.01308933015266513 -0.23576929005425118 0.024609711247575532 0 0 0 0
8800068 0.2816720912015797 0.012986680197757526 -0.23562946108669616 0.02459541057007894 0 0 0 0
8833014 0.2817709840105884 0.012951981166106607 -0.2357053462559357 0.024766989388820305 0 0 0 0
8865960 0.281735508017948 0.012803584737632642 -0.23564870670826393 0.024928750650824397 0 0 0 0
8898906 0.28182611148262976 0.012864943310493381 -0.23577969437653745 0.02511032333125455 0 0 0 0
8931852 0.28186388794029893 0.012964134643440674 -0.23566312472200932 0.025237008066478713 0 0 0 0
8964798 0.28190623604118675 0.012883239964410289 -0.2355369389959307 0.025321423052163783 0 0 0 0
8997744 0.28190212656243696 0.012736894180471971 -0.23559864833236993 0.025452231892482854 0 0 0 0
9030690 0.28201984358632487 0.012876831294718753 -0.23564525259866412 0.025564548534708374 0 0 0 0
9063636 0.2820155263788673 0.012837349420621218 -0.23544594796541354 0.025747524613282884 0 0 0 0
9096582 0.2820955613658375 0.012573060694128288 -0.23560480452302646 0.02590323739352008 0 0 0 0
9129528 0.28220901054210745 0.012590270111134746 -0.23560322124546937 0.026187379122607515 0 0 0 0
9162474 0.28209246924971737 0.01256713189008492 -0.23544539152709085 0.026130147883444296 0 0 0 0
9195420 0.28222596541898476 0.012605947017081951 -0.2355554687324667 0.02624587405072903 0 0 0 0
9228366 0.28221897275480085 0.012468844265240217 -0.23554330187550554 0.026488676954904807 0 0 0 0
9261312 0.28224891884123815 0.01248673186070128 -0.23550729277254423 0.02654796601836807 0 0 0 0
9294258 0.28238793172760557 0.012396784726562944 -0.23546930189575954 0.026771252983038715 0 0 0 0
9327204 0.282207976283538 0.012529334062984296 -0.23537829922254425 0.026921797381897945 0 0 0 0
9360150 0.28227974960286595 0.012454136106178829 -0.23543811395185588 0.0269785385016556 0 0 0 0
9393096 0.2823474928991385 0.01247041790180846 -0.23535247432340545 0.02708990909135625 0 0 0 0
9426042 0.2824117594563424 0.012299646947031735 -0.23532519094228707 0.027215713730140388 0 0 0 0
9458988 0.2824963546032762 0.012352257443818196 -0.23529194762438824 0.027408626695575655 0 0 0 0
9491934 0.2825558039325617 0.012199062599361259 -0.23536174690387682 0.027629387900218377 0 0 0 0
9524880 0.2827379781885068 0.012251801302684226 -0.23529127860390284 0.02766696614070403 0 0 0 0
9557826 0.2825588643758701 0.012275968430088059 -0.23539252522976173 0.027819265687546522 0 0 0 0
9590772 0.28247001778400754 0.01215825694727261 -0.23528961833297307 0.027961935119942088 0 0 0 0
9623718 0.2827327536139206 0.012109042559645794 -0.2352322726223675 0.028079334248823414 0 0 0 0
9656664 0.2828286372887105 0.01197603919594372 -0.23532001320591178 0.028250167161375305 0 0 0 0
9689610 0.2828913672590288 0.011983138675894246 -0.23519000227672157 0.02832805548626266 0 0 0 0
9722556 0.28278491663292876 0.011996036574980426 -0.23527274948439683 0.028488083700808037 0 0 0 0
9755502 0.2829884137282655 0.011973500816714427 -0.2352182803895892 0.028657011336255606 0 0 0 0
9788448 0.28277727208899894 0.011954333617187073 -0.23496040240186167 0.028759186368796912 0 0 0 0
9821394 0.2829253418661181 0.011845531393183534 -0.235142265142673 0.02888159689060984 0 0 0 0
9854340 0.28307287633377903 0.011675366124126755 -0.23510902131509426 0.029084477545776234 0 0 0 0
9887286 0.2830761231304351 0.011719312174919519 -0.23515677617537656 0.02919473886367455 0 0 0 0
9920232 0.28287957712766604 0.01181337225965104 -0.2350917526677178 0.029219615100792816 0 0 0 0
9953178 0.2829531206599033 0.011805678687306772 -0.23505143450718743 0.029462619204804953 0 0 0 0
9986124 0.28303786293457267 0.01173788072362152 -0.23491286130196448 0.02954837873719008 0 0 0 0
10019070 0.28320693352771326 0.011750320501528794 -0.23498992202867283 0.02973871105644721 0 0 0 0
10052016 0.2832667917813396 0.011524569396254517 -0.2349731766564455 0.029868292130590036 0 0 0 0
10084962 0.28328277077338665 0.011507105292474042 -0.2350442155006543 0.02999925011816886 0 0 0 0
10117908 0.2831298481735896 0.011638394268171499 -0.23500244732156558 0.030110978713010692 0 0 0 0
10150854 0.2833845657250638 0.011466368636365262 -0.23496193948218996 0.03024626215158294 0 0 0 0
10183800 0.28340398332168515 0.011428275174927921 -0.23487999853870203 0.030347282271331197 0 0 0 0
10216746 0.2833772019901468 0.011506266393108559 -0.23479072609235513 0.03051393953294537 0 0 0 0
10249692 0.283452628155239 0.01149030725313845 -0.23482756408740926 0.03060072825019069 0 0 0 0
10282638 0.28344344519180553 0.011261678750250114 -0.23494301163179193 0.030828269062461826 0 0 0 0
10315584 0.2833099539303057 0.011452755406245284 -0.23484227713165112 0.030908677994583047 0 0 0 0
10348530 0.28357686398891346 0.011349676292418981 -0.2348082589046049 0.030880004043359364 0 0 0 0
10381476 0.28367295218167604 0.011264431015996557 -0.23485938419589675 0.03115535253018319 0 0 0 0
10414422 0.28362812700163736 0.011249760485041008 -0.23477923063280567 0.031267804580061384 0 0 0 0
10447368 0.2836892526284383 0.011167956385616575 -0.2347624123800086 0.03138599442067256 0 0 0 0
10480314 0.2837002120627914 0.011144686112242163 -0.2347664970359135 0.031649633536012335 0 0 0 0
10513260 0.2836801440864141 0.011277432630809216 -0.2346479863460847 0.031670887941389336 0 0 0 0
10546206 0.28382728555700093 0.011109709353644782 -0.23462082361541273 0.03181497884169049 0 0 0 0
10579152 0.28388080681457895 0.011083720234306475 -0.2346776140713058 0.031896166944397585 0 0 0 0
10612098 0.2837484751623951 0.011090975049443872 -0.23455159336107315 0.03207238226639871 0 0 0 0
10645044 0.28399410634459393 0.010975114597382101 -0.23457269238758297 0.032217580487522775 0 0 0 0
10677990 0.2838491761301121 0.010936182998286532 -0.23463793364188956 0.03245119874154151 0 0 0 0
10710936 0.2839600201327293 0.011007800169536352 -0.23451469395636887 0.03235684985842971 0 0 0 0
10743882 0.28397876045257664 0.010861710373337215 -0.23452574365067583 0.032651178433069535 0 0 0 0
10776828 0.28423347032071367 0.010877248098208715 -0.23451093234031634 0.0327430029902384 0 0 0 0
10809774 0.284055310901847 0.01089677224456202 -0.23456964716783102 0.03290902658170832 0 0 0 0
10842720 0.2840100777968351 0.010798872272367128 -0.23446512166876546 0.03307118221688868 0 0 0 0
10875666 0.2841845829778041 0.010738469833702793 -0.23430128406759793 0.03311696928356145 0 0 0 0
10908612 0.2841050528969158 0.010852271389307605 -0.2344824492820762 0.03318727088361759 0 0 0 0
10941558 0.28429110021121123 0.010662069301385725 -0.2343598809080242 0.03343996820923775 0 0 0 0
10974504 0.28429043885284594 0.010644719634085285 -0.23430053182252708 0.03353515818823201 0 0 0 0
11007450 0.2841247424366476 0.01063755451465246 -0.23438818447491422 0.03374781267116467 0 0 0 0
11040396 0.28439830814115036 0.010600752188115826 -0.23426236116739294 0.033736651647817466 0 0 0 0
11073342 0.284444265270069 0.010480319396449422 -0.23437350482312422 0.033896071379056536 0 0 0 0
11106288 0.28440640518515303 0.010481935874507927 -0.23419033939845907 0.034022448655616745 0 0 0 0
11139234 0.2845132432520052 0.010560895687525955 -0.23424825335497626 0.034151200936475966 0 0 0 0
11172180 0.28456271259088955 0.01046955938662506 -0.2343240182391146 0.03425958549388711 0 0 0 0
11205126 0.2847698095157214 0.010437561482491 -0.23414887936076165 0.03436069115030391 0 0 0 0
11238072 0.28467243940987186 0.010458571917481155 -0.23419379927432263 0.0346426679554935 0 0 0 0
11271018 0.2845728690184454 0.01038250784622912 -0.23424924935046987 0.034771377998393284 0 0 0 0
11303964 0.2846720058649611 0.010192360283037355 -0.23409564368051367 0.03471997179619955 0 0 0 0
11336910 0.2847154620888248 0.01035713243357689 -0.23395506488263168 0.034882464513545576 0 0 0 0
11369856 0.28468686883340344 0.01026693275915492 -0.2339825870992365 0.03500467627209937 0 0 0 0
11402802 0.28497983624732504 0.010355382575232669 -0.23417953511510003 0.03522436488338862 0 0 0 0
11435748 0.28503780946449314 0.010227487741093782 -0.23404546383407088 0.03533642441185322 0 0 0 0
11468694 0.28494667622116493 0.010123278185852937 -0.23406292082804359 0.035449163757516465 0 0 0 0
11501640 0.28496493758791 0.010122390600910369 -0.2340177933606189 0.03556713054363592 0 0 0 0
11534586 0.2849805995747918 0.01003042637655936 -0.2340438627764815 0.035698005296313735 0 0 0 0
11567532 0.285068800377596 0.010053709648853907 -0.23395932873024403 0.035899254905510984 0 0 0 0
11600478 0.28521391263406914 0.010126546149396311 -0.2338793265603432 0.035944130374640636 0 0 0 0
11633424 0.2852394599289831 0.01001430670450267 -0.23390241925084665 0.03608893396936702 0 0 0 0
11666370 0.28512183587454776 0.00999761661736709 -0.2339470670337985 0.03626227425807618 0 0 0 0
11699316 0.28518335993242755 0.010028544540624327 -0.23385230116843353 0.03640548762627722 0 0 0 0
11732262 0.2851994162870274 0.009903456885638763 -0.23389623400616597 0.03642788756014501 0 0 0 0
11765208 0.28533186450607795 0.009912114803219775 -0.23376840029050913 0.036696446680995996 0 0 0 0
11798154 0.2854907494969043 0.00992062235963311 -0.2337906507784882 0.03671731535959551 0 0 0 0
11831100 0.28554478462790894 0.00980754940339601 -0.23383270752121094 0.0368913298707584 0 0 0 0
11864046 0.2852748406602187 0.009902409269582637 -0.23375271177757542 0.03702738906913754 0 0 0 0
11896992 0.28532626577816605 0.009735178296228811 -0.23370824143107363 0.03711610379783096 0 0 0 0
11929938 0.2853716722950217 0.009758538145620116 -0.23370080767610235 0.037200433271007 0 0 0 0
11962884 0.2855082862344531 0.009734515504367396 -0.23367591546092933 0.03730346479014794 0 0 0 0
11995830 0.28570992749844765 0.009607959639467787 -0.23365087873780305 0.03748280688981025 0 0 0 0
12028776 0.2855973345058937 0.00955952914213106 -0.23358686737521264 0.03769279749564057 0 0 0 0
12061722 0.28564733513225926 0.009713332404450693 -0.23368880382045087 0.03781884341134576 0 0 0 0
12094668 0.28583301360367697 0.009527607824771706 -0.233646816146456 0.037854337454964006 0 0 0 0
12127614 0.28575966742004355 0.00962968589980145 -0.23366138548743498 0.03813418296109334 0 0 0 0
12160560 0.2857478127127551 0.009574911125392258 -0.2335509228933712 0.038161180314356155 0 0 0 0
12193506 0.28585368277936274 0.009387969719987791 -0.2334522126789812 0.03833141925878138 0 0 0 0
12226452 0.28591300311797496 0.009463219038754226 -0.2335032386241092 0.038421318666444035 0 0 0 0
12259398 0.28598661084107474 0.009467660198943184 -0.23346108189968295 0.03847910378883792 0 0 0 0
12292344 0.28605162064686396 0.009382502901985586 -0.23339163660881174 0.038595851422303484 0 0 0 0
12325290 0.28596830070391627 0.009235482870367125 -0.2333513699370721 0.038742394873376745 0 0 0 0
12358236 0.28626741157821883 0.009267102695953286 -0.23343739776830877 0.03889099443701247 0 0 0 0
12391182 0.28607886742016236 0.009286106734497198 -0.23331330904058986 0.03904083164208808 0 0 0 0
12424128 0.28616185417569723 0.00921203237279736 -0.23328735139193765 0.039235802093903115 0 0 0 0
12457074 0.2861403421677722 0.009213849008996319 -0.23332115347252605 0.03919538372769756 0 0 0 0
12490020 0.2862353108475882 0.00906323877503918 -0.23328122365848927 0.03940792220350077 0 0 0 0
12522966 0.28631564837956835 0.008965596750149511 -0.23328264667668017 0.03949571307374415 0 0 0 0
12555912 0.2864667945407445 0.009131550276115874 -0.23320653611277814 0.039578409151447745 0 0 0 0
12588858 0.2863723526783913 0.009063253470262753 -0.23320373882455755 0.03978917208432743 0 0 0 0
12621804 0.28650683980940295 0.009011654373436656 -0.23327842078321823 0.03996520931551973 0 0 0 0
12654750 0.2866708975186964 0.008982115592530279 -0.23323544012159472 0.03996924817692154 0 0 0 0
12687696 0.2864341831602307 0.009033082278584471 -0.23301818078337136 0.0401819147429816 0 0 0 0
12720642 0.2864656338576951 0.009015595214851901 -0.23311679627841778 0.04039908037848439 0 0 0 0
12753588 0.2863833589662167 0.008995930237954518 -0.2331088462757372 0.04039287993211943 0 0 0 0
12786534 0.2866819718445629 0.008751248447814025 -0.23300886780181002 0.04047641728278892 0 0 0 0
12819480 0.2867673870152197 0.00877650425724641 -0.23308191203366005 0.04058846331427035 0 0 0 0
12852426 0.28661112947136413 0.008680247977100696 -0.23297261766413283 0.040849042177572896 0 0 0 0
12885372 0.28685179918113934 0.008704612374612612 -0.23296717670492229 0.04095385429889207 0 0 0 0
12918318 0.2867564342939297 0.00873453795798578 -0.2329384265633562 0.04114048992736506 0 0 0 0
12951264 0.28681760727972117 0.00883693213604166 -0.23292835435636694 0.041221821659053554 0 0 0 0
12984210 0.2867079313018344 0.00867653744658773 -0.2329260890784309 0.041277667753265496 0 0 0 0
13017156 0.2868177777465722 0.008448602190976975 -0.23288928727404198 0.04144896099982895 0 0 0 0
13050102 0.2869188835332834 0.00861469396799018 -0.23281917563949148 0.04151856739868911 0 0 0 0
13083048 0.2872707707200121 0.008552267517098333 -0.23290387320941996 0.04175951944053653 0 0 0 0
13115994 0.28702260273727587 0.008727481314613629 -0.2328967452461582 0.04185419376591029 0 0 0 0
13148940 0.28700654713696083 0.008588335416488372 -0.23280803384023435 0.04185139048215136 0 0 0 0
13181886 0.2870518103986213 0.008591159062203462 -0.2327585769009858 0.04207182102788031 0 0 0 0
13214832 0.28716215593193106 0.008408956180431248 -0.23276476040756716 0.04225580973203296 0 0 0 0
13247778 0.2870595301761516 0.00848556396851009 -0.23276928314906706 0.04223329577555447 0 0 0 0
13280724 0.28711060662292065 0.008535509919093577 -0.232662623285652 0.042392728561470035 0 0 0 0
13313670 0.2873983853982369 0.008233408746998178 -0.2325912545207018 0.04257428308662658 0 0 0 0
13346616 0.28734565046589094 0.008256520814704281 -0.232602224141215 0.042796506592516784 0 0 0 0
13379562 0.2873729462891461 0.008243989365255227 -0.23264652491497462 0.04279802583287291 0 0 0 0
13412508 0.2872581213280259 0.00831072315924822 -0.2325923868570014 0.04285199576023169 0 0 0 0
13445454 0.28740616659632195 0.008109051548903795 -0.23248406997088228 0.043024640439735286 0 0 0 0
13478400 0.2874870273433757 0.008117702993402247 -0.23253427388475012 0.04323275941254141 0 0 0 0
13511346 0.28744055178968403 0.008195702043912805 -0.23237858028710548 0.04329862605966855 0 0 0 0
13544292 0.2875583562532012 0.00813136494362463 -0.23253266331750594 0.04348553136780801 0 0 0 0
13577238 0.2878430346909389 0.008013934791459638 -0.23248177654864904 0.04361116446235044 0 0 0 0
13610184 0.28780246561733047 0.008125380267005992 -0.23242794447292298 0.04375189125768621 0 0 0 0
13643130 0.2877741102755697 0.007975231068681983 -0.23243059798295565 0.04379481050816956 0 0 0 0
13676076 0.2877954066910695 0.007891418026871794 -0.23235341376644386 0.04387405986925723 0 0 0 0
13709022 0.28794556947451344 0.007757004498390726 -0.232305253634157 0.044116065734678356 0 0 0 0
13741968 0.2878212551622915 0.008073584148075597 -0.23229732487824534 0.04406972331250775 0 0 0 0
13774914 0.28794230524311126 0.007918400876028615 -0.23228715828904226 0.04423808544991288 0 0 0 0
13807860 0.28789087779332473 0.00787404596644246 -0.23229607628656215 0.04454666191622553 0 0 0 0
13840806 0.28792926166225796 0.007774306495540722 -0.2323293235011734 0.04460953883053968 0 0 0 0
13873752 0.28810499078466634 0.007721887937573777 -0.232187646888481 0.04460744888624893 0 0 0 0
13906698 0.2880623281918662 0.007769274651965263 -0.232057466945702 0.04469418943638428 0 0 0 0
13939644 0.2882228625201017 0.007808042861408013 -0.23224224478168914 0.04491267810421005 0 0 0 0
13972590 0.28810953503945563 0.007613117176242349 -0.2320888274893813 0.04519335322008816 0 0 0 0
14005536 0.2880332386178919 0.007808711264436034 -0.23196458036144635 0.04518879289195824 0 0 0 0
14038482 0.2882573261019143 0.007615482366288235 -0.23208221062703852 0.04525548238229534 0 0 0 0
14071428 0.2882784565116113 0.007576389250818946 -0.23207578671852444 0.04530863006663745 0 0 0 0
14104374 0.2882477279252386 0.007636198530463107 -0.2319641239111566 0.04547911735190408 0 0 0 0
14137320 0.2882969097956254 0.007688746664341427 -0.23195993604131185 0.04557275065890728 0 0 0 0
14170266 0.2885902709790685 0.007517597536513597 -0.23192251379639628 0.04571148972434278 0 0 0 0
14203212 0.28851666264624976 0.007498607668243139 -0.23193526316506505 0.04600332346677023 0 0 0 0
14236158 0.2884737479408622 0.007402243534437847 -0.2318775444560341 0.04600673216723954 0 0 0 0
14269104 0.28849263308540457 0.007410756047878733 -0.23178736312222228 0.046143246085384254 0 0 0 0
14302050 0.28872091130761685 0.007396451664526647 -0.23174937324090775 0.04624588402177881 0 0 0 0
14334996 0.28864877422428703 0.007374946914872536 -0.23174551245637762 0.0463319771124653 0 0 0 0
14367942 0.2887738563355804 0.007356550752368562 -0.23179787089767628 0.04654437376407286 0 0 0 0
14400888 0.2886232853612126 0.007395002990542105 -0.23175994973268202 0.046749203814151735 0 0 0 0
14433834 0.28888546436066903 0.007202045998412844 -0.2317151015626487 0.046815653264389155 0 0 0 0
14466780 0.28883377196561283 0.0072119257544093155 -0.2317410255297496 0.046821701430097354 0 0 0 0
14499726 0.2890646861939273 0.007079050955038016 -0.23174398737073695 0.04698422019361408 0 0 0 0
14532672 0.28912882207448426 0.00706519647675965 -0.2316817782260724 0.04709491974296976 0 0 0 0
14565618 0.28895704259225585 0.007175897911106173 -0.23155551049267692 0.047198061811443065 0 0 0 0
14598564 0.28909778298822103 0.007169774554468283 -0.23147888651837345 0.047345393687430314 0 0 0 0
14631510 0.28904494521381474 0.007047683608092374 -0.23165175150831613 0.04765377548016977 0 0 0 0
14664456 0.28913795329375763 0.007016895091034312 -0.23152958516792127 0.04762347059781138 0 0 0 0
14697402 0.28920783954738377 0.006786947928394763 -0.23151905114353774 0.047726348508474535 0 0 0 0
14730348 0.2890776132340928 0.006996609265568517 -0.23141328120455829 0.04783616946940762 0 0 0 0
14763294 0.2892951255771701 0.006986394290016116 -0.2314540470538129 0.048010318826933886 0 0 0 0
14796240 0.2893234259403481 0.006983315279308012 -0.2314521274054595 0.04803308008813298 0 0 0 0
14829186 0.28932559807343017 0.006855134505221965 -0.23140704768189665 0.04833465673129203 0 0 0 0
14862132 0.2893516758344428 0.006845856933756782 -0.2312145774863807 0.04830369654125194 0 0 0 0
14895078 0.2895071411449862 0.006643297399909542 -0.2312434667319162 0.048349880117318215 0 0 0 0
14928024 0.2893957449137565 0.006815098009917358 -0.2312432976274657 0.04856944203076765 0 0 0 0
14960970 0.2895740768416491 0.006834300358010337 -0.23125178795046078 0.048652662483121514 0 0 0 0
14993916 0.28971004896445446 0.006683135665467885 -0.2311407366354838 0.04875009008533167 0 0 0 0
15026862 0.28952085357350593 0.006650194809493123 -0.23124463456768118 0.049143668048742005 0 0 0 0
15059808 0.2896126855034539 0.006687626583903735 -0.23106777886650126 0.04903694285106784 0 0 0 0
15092754 0.28991738977960196 0.006529530736812423 -0.2313147433497239 0.04914242231207966 0 0 0 0
15125700 0.28979221275553685 0.0064015834610624215 -0.23120826868086222 0.049396178436009075 0 0 0 0
15158646 0.289717937951402 0.006634028421097175 -0.23104420463386666 0.049483257687883524 0 0 0 0
15191592 0.28988133963035445 0.0065072048832985055 -0.23102601608632156 0.049476082430710604 0 0 0 0
15224538 0.2899300642954883 0.006501045918329072 -0.23087166462815709 0.04961078437384331 0 0 0 0
15257484 0.2899510327511209 0.006473704976587218 -0.23111490479513175 0.04995183906384723 0 0 0 0
15290430 0.28993300199466693 0.0063554656473791115 -0.23093318551827863 0.04986442536833887 0 0 0 0
15323376 0.29014423770261805 0.006186934345406951 -0.23087116585638995 0.05000456763170999 0 0 0 0
15356322 0.2901848953584682 0.006405041984936605 -0.23083975315715177 0.0501602193328565 0 0 0 0
15389268 0.29018158242162934 0.0062942493589835564 -0.2308914952181318 0.050274059274935334 0 0 0 0
15422214 0.290303884485083 0.006285027431101929 -0.23080686024482483 0.05039061131676862 0 0 0 0
15455160 0.29021408976940133 0.006285871254177932 -0.23087766392951428 0.05069131990813609 0 0 0 0
15488106 0.29038925670554927 0.006206006283262607 -0.2308303000834497 0.05061616470329188 0 0 0 0
15521052 0.29035972492781065 0.0061091129571379495 -0.23059814752128638 0.0506812360688083 0 0 0 0
15553998 0.2904065093346489 0.006107930489321683 -0.2306482937601134 0.0508718101187231 0 0 0 0
15586944 0.29048290221959305 0.006062440114493715 -0.23064256739327194 0.05112840552493143 0 0 0 0
15619890 0.2904354800884772 0.006095150509296838 -0.23051039725632785 0.0511237989185393 0 0 0 0
15652836 0.290511084027675 0.005938164649983925 -0.23072849876622556 0.051321835804786074 0 0 0 0
15685782 0.29052670061838803 0.005978795713581799 -0.23065152093278393 0.05138649534574782 0 0 0 0
15718728 0.2906868950417932 0.005964463740171571 -0.23063346390864767 0.05154326987611727 0 0 0 0
15751674 0.2907410791738716 0.005932650967443107 -0.23042050017798982 0.051690510340196415 0 0 0 0
15784620 0.2906206010172691 0.005989268192614065 -0.23030657867703785 0.05171321917407558 0 0 0 0
15817566 0.29073031507485514 0.005837706019297388 -0.23075011188607333 0.0517596812414191 0 0 0 0
15850512 0.29093387177968116 0.005826473180154997 -0.2304529688930964 0.051996214058264836 0 0 0 0
15883458 0.29097109112502684 0.005882950183248597 -0.23028545396254338 0.05200992009381577 0 0 0 0
15916404 0.2908725423732877 0.005755042246030364 -0.23036996837124876 0.05227546736024949 0 0 0 0
15949350 0.2907600285239807 0.005904872902053294 -0.23016673337915025 0.05235181638225657 0 0 0 0
15982296 0.29106015350288383 0.005531677522564576 -0.23050257954925116 0.05258054554686147 0 0 0 0
16015242 0.29101158093409335 0.0056679214513639655 -0.23024498459454157 0.052506357038441906 0 0 0 0
16048188 0.2910562984648047 0.0057294726535754015 -0.23020672487603638 0.05281374217676708 0 0 0 0
16081134 0.2912116451613101 0.00550052038085192 -0.23017788629311203 0.052909748343588414 0 0 0 0
16114080 0.29112164169210214 0.005613033030794438 -0.2303130635587506 0.05310655940752124 0 0 0 0
16147026 0.2911275705735907 0.005632235621761339 -0.2300503745974023 0.053012749760868984 0 0 0 0
16179972 0.2913368516651063 0.005493824011424045 -0.23011988414250303 0.05313628780361441 0 0 0 0
16212918 0.2914381059502125 0.005317157450151553 -0.23001904013919874 0.05323359017588308 0 0 0 0
16245864 0.29135926998443223 0.005355836436064363 -0.23014725173366496 0.053436007869398325 0 0 0 0
16278810 0.2912456542020127 0.005390772195555392 -0.23015359128195123 0.053633967997921785 0 0 0 0
16311756 0.2912944410987091 0.0054871971638773935 -0.2298852347859863 0.05366996912175615 0 0 0 0
16344702 0.29153794193920624 0.005244239018005857 -0.2299623246692628 0.05375679135801843 0 0 0 0
16377648 0.2916885889029812 0.005148852963645776 -0.22985961682366504 0.05383770370614908 0 0 0 0
16410594 0.29159146765903726 0.005370019532709558 -0.2298128668516772 0.054018519404599036 0 0 0 0
16443540 0.2917791993319742 0.005180095065739802 -0.22976522915983003 0.05416766011881944 0 0 0 0
16476486 0.29148292606965215 0.005193887985926874 -0.22971515712858498 0.05426505639797366 0 0 0 0
16509432 0.29172138606598735 0.005107966462030042 -0.22981186204415213 0.054419058481563524 0 0 0 0
16542378 0.2918939730969893 0.005071353204582309 -0.22977220108374102 0.054457438677603574 0 0 0 0
16575324 0.29189087816793574 0.0051151469313682925 -0.22957760419738257 0.05452008620679638 0 0 0 0
16608270 0.2919584223013998 0.004893657894456241 -0.22976342770346425 0.05489384999054284 0 0 0 0
16641216 0.29182155283330957 0.005066350053890295 -0.22955984815590283 0.05487478818207642 0 0 0 0
16674162 0.29206905754718915 0.004954676090640766 -0.2296699991066771 0.05488021290045424 0 0 0 0
16707108 0.2924917061858651 0.004900297956162906 -0.22952158883773363 0.054997309608402836 0 0 0 0
16740054 0.29224452111146976 0.004966180876250509 -0.22962248743588742 0.05522063396951154 0 0 0 0
16773000 0.2923365757407227 0.0049314572986385915 -0.22957780960545604 0.05532791120384793 0 0 0 0
16805946 0.2925652091770247 0.0048154764801883725 -0.22929992612292507 0.055367611516855035 0 0 0 0
16838892 0.2919259517672085 0.004700923052927021 -0.2295307174138298 0.05563211928437119 0 0 0 0
16871838 0.29211909304568373 0.004765291862925649 -0.2293443009483881 0.05563995576779127 0 0 0 0
16904784 0.2924505459020507 0.004698531125772352 -0.22929814112384805 0.05573146298795274 0 0 0 0
16937730 0.2923342689269253 0.004570841215981696 -0.2294729664916953 0.0559806451534708 0 0 0 0
16970676 0.29253176314276413 0.004813743742115492 -0.22913394836699044 0.055838414184392095 0 0 0 0
17003622 0.29236937713213146 0.004472459992533123 -0.22912344994315093 0.0563356255527774 0 0 0 0
17036568 0.2923677631589847 0.004706085833391738 -0.22919554014349794 0.056305753719450874 0 0 0 0
17069514 0.29257111606052516 0.004530495720137222 -0.2293544120663187 0.05639153205246706 0 0 0 0
17102460 0.2926811077491566 0.004634336353715941 -0.22924752300844903 0.056561010358635415 0 0 0 0
17135406 0.2927144207890639 0.004447883496384269 -0.2292214083120759 0.056714784480769415 0 0 0 0
17168352 0.2925874971983458 0.004508309089918093 -0.2292536352110679 0.056903435022706075 0 0 0 0
17201298 0.2927337327209751 0.004279822412729775 -0.2292008170240474 0.05696219129632378 0 0 0 0
17234244 0.2930307586216003 0.004395032282577617 -0.228988242002162 0.056891323012374796 0 0 0 0
17267190 0.29295959858259807 0.0042652291471087156 -0.22913396634596978 0.05716753864274456 0 0 0 0
17300136 0.293011173344807 0.004239803710042072 -0.22880799773477897 0.05714412557892992 0 0 0 0
17333082 0.2931773058991515 0.004141827899247498 -0.2289320048697903 0.057326454394656515 0 0 0 0
17366028 0.2928755488316408 0.004216104704755968 -0.22891018262141297 0.057495217715513455 0 0 0 0
17398974 0.2930655569330063 0.004388252414420565 -0.2289864930531844 0.05757121277071455 0 0 0 0
17431920 0.2931651603409356 0.0041872439644584 -0.22881775798188858 0.05768126414734106 0 0 0 0
17464866 0.2935588555969334 0.004115180779016038 -0.22898163826666498 0.05798456314604398 0 0 0 0
17497812 0.2932824251337483 0.004127052951724289 -0.22861024744410396 0.05786955287973728 0 0 0 0
17530758 0.2935147168819324 0.003876907807501229 -0.22875861302472866 0.058558720446256214 0 0 0 0
17563704 0.2933053645636968 0.0037111529758712715 -0.22858780967357958 0.058199139702164615 0 0 0 0
17596650 0.29328849884026353 0.0036691760989855213 -0.22850075105160403 0.0582076453187721 0 0 0 0
17629596 0.29358466883471274 0.003891064790670173 -0.22853477909247427 0.058219921247788485 0 0 0 0
17662542 0.2936092469039449 0.0038343035100424777 -0.228482727587371 0.05843474009258756 0 0 0 0
17695488 0.29378445973399925 0.0036797755926640417 -0.2285324595153744 0.058618166141177507 0 0 0 0
17728434 0.2936030744840092 0.0038621324172153715 -0.22849338552148282 0.05876539299975701 0 0 0 0
17761380 0.2936207128408543 0.003899329605289533 -0.22855342238571497 0.058883290914294145 0 0 0 0
17794326 0.2935818286352178 0.0036245539813461957 -0.22863727881776527 0.059031420687512465 0 0 0 0
17827272 0.2937723788065341 0.0035664134049594627 -0.22840031741670314 0.05913549429681264 0 0 0 0
17860218 0.2937768616679096 0.0036045204969297026 -0.22844729344221135 0.05916127986517244 0 0 0 0
17893164 0.2941013039078485 0.003681422900672659 -0.22839025072070215 0.059277176257292424 0 0 0 0
17926110 0.2937630894167197 0.003581579011034275 -0.22819117164859332 0.0594727994930837 0 0 0 0
17959056 0.2938773488400179 0.0037572753036109233 -0.2283670181922126 0.059668169008896446 0 0 0 0
17992002 0.2940808350569816 0.0034034101590917827 -0.22825706150652134 0.05959488328834439 0 0 0 0
18024948 0.29428112668841255 0.0035645671752999545 -0.22827523090038296 0.05970648007632756 0 0 0 0
18057894 0.29408651678688635 0.0034041008378964117 -0.22819663899518372 0.060066136335063844 0 0 0 0
18090840 0.2940329390905591 0.003783994869800808 -0.2281717589277058 0.060042493279793385 0 0 0 0
18123786 0.29417580458773157 0.003162754702056872 -0.22813053678474532 0.06016086657076855 0 0 0 0
18156732 0.29439395151147857 0.003292005160320978 -0.22802622003415052 0.0603310132123875 0 0 0 0
18189678 0.294660244637821 0.0032952279212924663 -0.22803788673671951 0.06027149270475068 0 0 0 0
18222624 0.29451460096005067 0.0032114306356450014 -0.2280602510641816 0.06047858537769134 0 0 0 0
18255570 0.2943781642866631 0.003158134096172413 -0.22778982540371673 0.06063134007049533 0 0 0 0
18288516 0.294307381167167 0.002805715016813346 -0.2278865588455615 0.06085465645161619 0 0 0 0
18321462 0.29448915513582385 0.0033031053623179037 -0.22791670931454455 0.06082698691931478 0 0 0 0
18354408 0.2945151165298366 0.002949079036088484 -0.22794501062094003 0.06102791794642653 0 0 0 0
18387354 0.29490762167976925 0.0034509597661574573 -0.22783653440965915 0.06098701178182933 0 0 0 0
18420300 0.29475829921788405 0.0031474304031431748 -0.22780012375733144 0.06098422878819954 0 0 0 0
18453246 0.29459393992724214 0.003110473636613868 -0.22783670214568655 0.06137571806411707 0 0 0 0
18486192 0.29467345349177376 0.003049730127024505 -0.22774847827335284 0.06145984360131327 0 0 0 0
18519138 0.29485043731740046 0.002932127353282214 -0.22765705044243018 0.06148361016901738 0 0 0 0
18552084 0.2949739479946745 0.0029122091092071145 -0.22761149362997493 0.06157274151961303 0 0 0 0
18585030 0.2951166909178345 0.0028363060466970185 -0.22762567201052852 0.0618194775942334 0 0 0 0
18617976 0.29497921371247865 0.0029365284870792596 -0.22760028780935804 0.06189326974167801 0 0 0 0
18650922 0.2949937876218398 0.0027438198988898217 -0.22748601413688335 0.06204981695543773 0 0 0 0
18683868 0.2949866888649171 0.002788595738884791 -0.22756603077961202 0.06212032290454517 0 0 0 0
18716814 0.29521524651224257 0.0026093326796992247 -0.22749366269260554 0.062219636665477696 0 0 0 0
18749760 0.2952126387485461 0.0027106781092386665 -0.22737058863956566 0.06223335075936634 0 0 0 0
18782706 0.29536927566134435 0.0026115907055747605 -0.22750125215928874 0.06252441945538988 0 0 0 0
18815652 0.29535235971236806 0.0026150000705812524 -0.22727668579358423 0.0624742904127941 0 0 0 0
18848598 0.29553038560029476 0.0025230032801339896 -0.22739406533714426 0.06263076622564491 0 0 0 0
18881544 0.29533435084703713 0.0025959241606094544 -0.22713761546212025 0.06281786376730206 0 0 0 0
18914490 0.29549924747360273 0.0025808029784249367 -0.2274404969803029 0.06303058255942674 0 0 0 0
18947436 0.29552804019534035 0.0021858781128411995 -0.22738833020922558 0.0631090262473529 0 0 0 0
18980382 0.2957359804862326 0.0024309251522734152 -0.22714906113587355 0.06306914029793399 0 0 0 0
19013328 0.29548841066086173 0.002506592382921911 -0.2271685632193717 0.06324744089593655 0 0 0 0
19046274 0.29559938089846 0.002448320350117633 -0.22705389032891354 0.06336210318529462 0 0 0 0
19079220 0.2955476826039208 0.002392754020248962 -0.22721853956224158 0.0637177237807425 0 0 0 0
19112166 0.2956120886217442 0.0022538253379461672 -0.22696608724961786 0.063498792247641 0 0 0 0
19145112 0.2957181234397583 0.0020320479351194055 -0.2270476090408118 0.06381429512565318 0 0 0 0
19178058 0.2961816004160587 0.0021592686681838474 -0.22705502402940644 0.06387561451481276 0 0 0 0
19211004 0.2957244787850868 0.0022395738671238067 -0.2268233300812688 0.0639749442650552 0 0 0 0
19243950 0.2959015755443294 0.002050112962407533 -0.22677729831370133 0.06418968163898811 0 0 0 0
19276896 0.29586786525896164 0.002110970518053156 -0.2268427128259621 0.0642799965284532 0 0 0 0
19309842 0.29608154303060236 0.0019505216927806774 -0.2268898026237488 0.06436921196166542 0 0 0 0
19342788 0.2964910703691752 0.0019891382865931608 -0.22679778617974086 0.0644559692486091 0 0 0 0
19375734 0.295957361926233 0.002035147834231191 -0.22661775622786323 0.0645637027566356 0 0 0 0
19408680 0.29627348204348986 0.0019969458352257895 -0.2268133937174343 0.06471587872648793 0 0 0 0
19441626 0.29601798982713184 0.0019037544016946297 -0.22663361198602855 0.0646950200834501 0 0 0 0
19474572 0.2963728570785397 0.0017564377650912905 -0.22660636188053948 0.06497841260269874 0 0 0 0
19507518 0.29658423495013486 0.0018824220176343344 -0.22662828370292465 0.06492144216674876 0 0 0 0
19540464 0.296438036044447 0.0018264251496091966 -0.22654567050460042 0.06518541175889238 0 0 0 0
19573410 0.29631835312737226 0.0017520320757544114 -0.2264557328105288 0.06526157304462907 0 0 0 0
19606356 0.2964154238660319 0.0017546490818003458 -0.22637642654168352 0.06533106506243368 0 0 0 0
19639302 0.29653216541122257 0.0016749409245316097 -0.22641102412896585 0.06547824773303726 0 0 0 0
19672248 0.29656288077553306 0.0015814080461112126 -0.22637511168480695 0.06550688700411395 0 0 0 0
19705194 0.29674976681016185 0.0016642943502591092 -0.22638711845837933 0.06563702916629043 0 0 0 0
19738140 0.296961293223252 0.0016087488761830882 -0.2263262570648519 0.06561638157953995 0 0 0 0
19771086 0.29673086621293293 0.0015076949940915074 -0.22630596255288066 0.06602386492049914 0 0 0 0
19804032 0.29676818100927577 0.0015338476464074025 -0.2262859947742628 0.0661074895342996 0 0 0 0
19836978 0.29674317783909787 0.001315773405428001 -0.2260726316088583 0.06601392352515915 0 0 0 0
19869924 0.2970960909855419 0.0014326492987182466 -0.22621602009033837 0.06616488037956988 0 0 0 0
19902870 0.296951676800885 0.0013927275116647222 -0.22616547695095507 0.06644041258782533 0 0 0 0
19935816 0.2968806979718672 0.0013017198116093008 -0.22599915774781593 0.06647570995655876 0 0 0 0
19968762 0.2969562165893595 0.0013183960418885771 -0.22601983489678026 0.06664178844504717 0 0 0 0
20001708 0.29723655640936003 0.0011235527454149913 -0.22600028440960154 0.06677347790875147 0 0 0 0
20034654 0.2972121579971232 0.0012132440989255932 -0.22601917496681878 0.06685383491873055 0 0 0 0
20067600 0.29739689409434444 0.0012324881848624497 -0.22591196497854227 0.06675225748304224 0 0 0 0
20100546 0.2970842018079629 0.001140964255240335 -0.22579151794688193 0.06713784581899732 0 0 0 0
20133492 0.2974477638339697 0.001177882810447754 -0.22596552255370567 0.06726944901017676 0 0 0 0
20166438 0.29754361893949 0.0010486883859071967 -0.22586830776810998 0.06741444453643715 0 0 0 0
20199384 0.29746580216219376 0.0010133637152200119 -0.22575594554727083 0.06735254296902304 0 0 0 0
20232330 0.2974900875763204 0.001070137554027355 -0.22577952160306622 0.06753293272635211 0 0 0 0
20265276 0.2976760050372579 0.0008907241692121702 -0.2257178175079926 0.06764324484899739 0 0 0 0
20298222 0.29774347007665775 0.0008019362367942843 -0.22572518419449256 0.06778052725877438 0 0 0 0
20331168 0.2977486243071624 0.0009038995072597673 -0.22553610755306072 0.06792484571172185 0 0 0 0
20364114 0.2976338408471365 0.0007982330804441151 -0.22558186462230204 0.06813378179649139 0 0 0 0
20397060 0.2977205814473131 0.0006857667410544687 -0.22558420760168735 0.06808515808479944 0 0 0 0
20430006 0.29790992930542576 0.0007157387825544633 -0.2255637318114961 0.06826911226462463 0 0 0 0
20462952 0.2979428682516823 0.0006366942724428836 -0.2253833748657676 0.06846825694538554 0 0 0 0
20495898 0.2981023639051334 0.0006765983219877488 -0.2255386381704453 0.06852130831439776 0 0 0 0
20528844 0.2980126653599569 0.0005983499515686123 -0.225374457538635 0.06867553733404189 0 0 0 0
20561790 0.2981594039755723 0.0005664164768728507 -0.22553495065608942 0.06880680655766795 0 0 0 0
20594736 0.2981184921143692 0.0004547322867299456 -0.22523364240793262 0.06885088802331406 0 0 0 0
20627682 0.2981438781221555 0.0005181470087751749 -0.2252419349275504 0.06888479040032677 0 0 0 0
20660628 0.2984069674678047 0.0005658553750596018 -0.22534218572360987 0.06908039739406506 0 0 0 0
20693574 0.29837292528136017 0.00045017799705129055 -0.22538925519622627 0.06919062161770238 0 0 0 0
20726520 0.29828236516625894 0.0003489491896336292 -0.2252222719595301 0.06939148129778504 0 0 0 0
20759466 0.29822811430270446 0.00030322154672933585 -0.22502733878448403 0.06942866550688682 0 0 0 0
20792412 0.29843648781062393 0.0003367943144165453 -0.22515596560412623 0.06948292400948425 0 0 0 0
20825358 0.2985474207044398 0.0002628732552874942 -0.2250158156186994 0.06952404959584076 0 0 0 0
20858304 0.29863095250958066 0.0002476807359914724 -0.22495134905242103 0.06978281875062005 0 0 0 0
20891250 0.2986006726535455 0.00023074098836415208 -0.2250020273654605 0.0699102663615257 0 0 0 0
20924196 0.29856774983485374 0.00013540459585134346 -0.224823882768808 0.07003463587229963 0 0 0 0
20957142 0.2987670612695219 0.0001965645074467538 -0.22499714141186736 0.0700262518318972 0 0 0 0
20990088 0.29885821132489304 1.798997650410933e-05 -0.22489180275417317 0.07015482624550252 0 0 0 0
21023034 0.2988521338756472 2.9956320011440353e-05 -0.22473832252773826 0.07039931180398927 0 0 0 0
21055980 0.29906005716820006 8.559756509581933e-05 -0.22482381295364912 0.07033585579561558 0 0 0 0
21088926 0.29894302680176577 -0.00022607943972811117 -0.2248277993243642 0.07066555443723342 0 0 0 0
21121872 0.2987331930721716 -4.609900241198548e-05 -0.22453442248211467 0.07052926663048126 0 0 0 0
21154818 0.2991249339402596 -0.00010470343508239779 -0.22471915412747928 0.07073078471302903 0 0 0 0
21187764 0.29918594225920725 -0.0001571462555905521 -0.22470202523527455 0.07093391118324889 0 0 0 0
21220710 0.2990918059791357 -0.00023696205861006004 -0.2246128055612973 0.07076851279219977 0 0 0 0
21253656 0.2993366135565233 -0.0004031818295480058 -0.22453464333624376 0.07111943665477644 0 0 0 0
21286602 0.2992534435617087 -0.0002806998605124305 -0.2245047090756172 0.07127544179700124 0 0 0 0
21319548 0.2994107242078981 -0.0004238909986711041 -0.22456256876636266 0.07133846761093428 0 0 0 0
21352494 0.299429388546114 -0.00038342304995047315 -0.2243598065668722 0.07133855518624004 0 0 0 0
21385440 0.2993577633540423 -0.0004330117145607729 -0.224276242865397 0.07143888093850956 0 0 0 0
21418386 0.2995216856479927 -0.0005132863529847916 -0.22443394905504807 0.07169758035652174 0 0 0 0
21451332 0.29947727953491216 -0.00048794835541221744 -0.22428618142742188 0.07160505548556834 0 0 0 0
21484278 0.29969828878940824 -0.0006197668913052388 -0.2242803756109913 0.07187235595349524 0 0 0 0
21517224 0.29980724580718454 -0.0006095984527354025 -0.22423428283595653 0.0721682653714917 0 0 0 0
21550170 0.29976813191555896 -0.0008012131895797984 -0.22411252855004646 0.07214100304242801 0 0 0 0
21583116 0.2997295216142491 -0.0006369129692810312 -0.22405889222832343 0.07215041292501499 0 0 0 0
21616062 0.2998610422579495 -0.0008163709398290163 -0.22415298540743117 0.0723327938939477 0 0 0 0
21649008 0.2998805712176319 -0.0008378070682293377 -0.22392521383892328 0.0722648275157512 0 0 0 0
21681954 0.2998979785559451 -0.0007606887727682508 -0.22390382561382854 0.07242594253694878 0 0 0 0
21714900 0.30002822087405207 -0.0008387459331826407 -0.2240200296331316 0.0727634713841414 0 0 0 0
21747846 0.2999179554957009 -0.0008400500034935664 -0.22391776372242891 0.07283131975030835 0 0 0 0
21780792 0.30014659250476605 -0.001013804778756892 -0.22393351042585863 0.0728292715751757 0 0 0 0
21813738 0.3002259892046632 -0.0009203113678882405 -0.22378771289735436 0.07290022012422645 0 0 0 0
21846684 0.3003679050265735 -0.0011501006225950203 -0.22372649810337594 0.0731956492607788 0 0 0 0
21879630 0.30028487956154426 -0.0009747543293267213 -0.2236233706669009 0.07317136313191133 0 0 0 0
21912576 0.30035778432949134 -0.0010346115966887988 -0.2236784801877829 0.07333449195480825 0 0 0 0
21945522 0.3003381121436461 -0.001076666985975217 -0.2235621915549429 0.07330206483733387 0 0 0 0
21978468 0.3003061058389908 -0.0011050580680499365 -0.22354688188187866 0.07343810960849097 0 0 0 0
22011414 0.30036072865598346 -0.0011638515323138087 -0.22360978557186248 0.07365423681985575 0 0 0 0
22044360 0.3005393000812564 -0.0013780750673681084 -0.22345528923310776 0.07362756694517397 0 0 0 0
22077306 0.30079704822899167 -0.0013207311749245775 -0.22356815479948508 0.07392726841934215 0 0 0 0
22110252 0.3007052047817168 -0.001545465723071445 -0.22347574616236132 0.07413514924746137 0 0 0 0
22143198 0.30070008570561296 -0.0014701624364929446 -0.22351783468758823 0.07422547942409892 0 0 0 0
22176144 0.30080112008631216 -0.0015614616744972045 -0.2235062728482358 0.07431392798729708 0 0 0 0
22209090 0.30097939296196263 -0.001584971756199763 -0.22337140384304066 0.07445902684060028 0 0 0 0
22242036 0.30090045554696826 -0.0015237279685115465 -0.223199283744189 0.07451250239959867 0 0 0 0
22274982 0.30092236225452584 -0.0016627234872589461 -0.22327909813885777 0.07458452580976369 0 0 0 0
22307928 0.30085412149403895 -0.0017297034610644852 -0.22329227682121605 0.07479490444620562 0 0 0 0
22340874 0.3009784870489768 -0.00153675280652709 -0.22321971878470986 0.07471958900789061 0 0 0 0
22373820 0.3011976107393388 -0.001674351075665031 -0.22322313070517116 0.0748612500795173 0 0 0 0
22406766 0.3009041087771287 -0.0017316626438826498 -0.22301623029076187 0.07478451410671721 0 0 0 0
22439712 0.30133431117231246 -0.0018413079211453411 -0.2230117048121211 0.07510260695766063 0 0 0 0
22472658 0.3013272588595443 -0.0018029877725334908 -0.22292275634343736 0.07531226763812734 0 0 0 0
22505604 0.3012324181288382 -0.0018787736801109214 -0.22290264824106382 0.07530153971370239 0 0 0 0
22538550 0.3015035429845833 -0.0021574215608024297 -0.2230632342623948 0.07566732157121231 0 0 0 0
22571496 0.3013324745459497 -0.0018420006083553686 -0.22268909885364008 0.07543178527086694 0 0 0 0
22604442 0.30154517362716804 -0.0019390851393697925 -0.2229684808048664 0.07567675528544643 0 0 0 0
22637388 0.3014661854936761 -0.002010819996983909 -0.22277020262272007 0.07569400667860017 0 0 0 0
22670334 0.30179416535637993 -0.002216626684142655 -0.2227275300943952 0.07599938553888322 0 0 0 0
22703280 0.3017162733847566 -0.0021387153476276942 -0.2226707955924545 0.07605144552325305 0 0 0 0
22736226 0.30179405566312534 -0.0023751525657381826 -0.22266538452011506 0.07625681589891076 0 0 0 0
22769172 0.3016523661507119 -0.002107398605134287 -0.22252042253016188 0.07613363776565443 0 0 0 0
22802118 0.3018682791544336 -0.0022016439369346606 -0.22265421911673472 0.07634946563199384 0 0 0 0
22835064 0.30212319666699383 -0.002384984925632604 -0.22246560141448438 0.0766596990184119 0 0 0 0
22868010 0.30196528080796564 -0.0023482430178592543 -0.22236559417072985 0.07645853317632137 0 0 0 0
22900956 0.3020296790131175 -0.002428112600709154 -0.2224416360940688 0.07669422666358244 0 0 0 0
22933902 0.3019029100371044 -0.002433370403821345 -0.22233163692520896 0.07676205378467968 0 0 0 0
22966848 0.3021289363848473 -0.0025999394718758803 -0.22251219780629153 0.07696248663680803 0 0 0 0
22999794 0.302162827015755 -0.0025668709300048194 -0.22234787362230377 0.07684583028143835 0 0 0 0
23032740 0.3023936908959904 -0.0027294624731585976 -0.22231267174627017 0.07732594908474585 0 0 0 0
23065686 0.30216770024387696 -0.002648107163402569 -0.22214118356936874 0.07730989007127535 0 0 0 0
23098632 0.30241050707498585 -0.002704566815928091 -0.222241081872114 0.07746622784157452 0 0 0 0
23131578 0.30240404067909293 -0.002842071896476638 -0.22225448890771796 0.07754416371668199 0 0 0 0
23164524 0.30239405207969994 -0.0027976167059695733 -0.22218648551266212 0.07761687261639318 0 0 0 0
23197470 0.30245132138241154 -0.0026359745880869907 -0.222027091889594 0.07760765761132492 0 0 0 0
23230416 0.302662109503324 -0.002856762959130569 -0.22198205424701645 0.07769262653555228 0 0 0 0
23263362 0.302545563516628 -0.0029116995265578167 -0.22185599810155712 0.07778891801598306 0 0 0 0
23296308 0.30274722737741944 -0.0028980923166908026 -0.22189187573049457 0.07799826511770484 0 0 0 0
23329254 0.30288463335285515 -0.003004170361964126 -0.22195083614523925 0.0781762488991821 0 0 0 0
23362200 0.3027919179468118 -0.0031649650929783677 -0.22192515471624477 0.07833180972801908 0 0 0 0
23395146 0.30274446017183454 -0.0028833389902398034 -0.2217972060522193 0.07831337835979635 0 0 0 0
23428092 0.3029430782429321 -0.003087428568299407 -0.22178539491337487 0.07830920347178624 0 0 0 0
23461038 0.30313588012031034 -0.003262657992753979 -0.2217304287414231 0.07865159072880748 0 0 0 0
23493984 0.3030116945292359 -0.0032875852807573696 -0.22168610280690715 0.07876427194081304 0 0 0 0
23526930 0.30305946646163645 -0.003362151627941776 -0.2217341547281437 0.07884564224431992 0 0 0 0
23559876 0.30310373550790504 -0.0032335616498220406 -0.22155694748802485 0.07892894604738407 0 0 0 0
23592822 0.3033961346510375 -0.003291283415410567 -0.2216199950822412 0.07908427278076555 0 0 0 0
23625768 0.3031038027566761 -0.0033250286635586727 -0.2214749392677425 0.07923325573876454 0 0 0 0
23658714 0.30339581639047253 -0.0035319925266592014 -0.22144175791823562 0.07931360987911812 0 0 0 0
23691660 0.3034305475436295 -0.0036435092429774386 -0.22141058115573187 0.07939093338315492 0 0 0 0
23724606 0.30333066939874254 -0.0036030465985491845 -0.22138914856277853 0.0794212619000394 0 0 0 0
23757552 0.3035054471669369 -0.0035559597941091257 -0.22134021435530662 0.07942818609951027 0 0 0 0
23790498 0.30357804357799995 -0.00356755712836338 -0.2212112593663901 0.07956760781399652 0 0 0 0
23823444 0.3036558545312823 -0.0036327218247234135 -0.22122938321162355 0.07981123976306324 0 0 0 0
23856390 0.3036573007971869 -0.0037765017338905623 -0.22130960128149818 0.07997378127343475 0 0 0 0
23889336 0.30363360226961605 -0.003653948070081772 -0.22109904505315023 0.07985900625939901 0 0 0 0
23922282 0.30394804770970624 -0.003916029313515703 -0.2212175883210594 0.08017625376491673 0 0 0 0
23955228 0.30395268414922993 -0.003922058455957866 -0.221047940057427 0.08024434660840729 0 0 0 0
23988174 0.30388664315300873 -0.003906319801816516 -0.2209331310147262 0.08048237075910655 0 0 0 0
24021120 0.303922729941997 -0.004014568953336987 -0.22089748268047918 0.08044362010471208 0 0 0 0
24054066 0.3040336035867298 -0.004083437376888217 -0.221021915440974 0.08063393333992944 0 0 0 0
24087012 0.3041552592217761 -0.004109664157525305 -0.22087881124568712 0.08066084507675629 0 0 0 0
24119958 0.3041059981203875 -0.003975749758818107 -0.2207120694097919 0.08065213098617179 0 0 0 0
24152904 0.3044762014492682 -0.004082314969627576 -0.2208777556912114 0.08091688212463663 0 0 0 0
24185850 0.30426192148852454 -0.004280859475556525 -0.22080137340618938 0.0811315421091944 0 0 0 0
24218796 0.3042127390713987 -0.004256446058408362 -0.22067476922571047 0.08110256038849259 0 0 0 0
24251742 0.30435472124880647 -0.004165094301090002 -0.22061973097161286 0.08107582422830291 0 0 0 0
24284688 0.3046156542925046 -0.004349553894220276 -0.22076533991287525 0.08137415167365707 0 0 0 0
24317634 0.30465395409849655 -0.004395501133822684 -0.22056213591978588 0.0814141930931407 0 0 0 0
24350580 0.3045390948451607 -0.004494149726242637 -0.22047230876014756 0.08162044421884607 0 0 0 0
24383526 0.3045792252238062 -0.00459227645716533 -0.22055578184537447 0.08171743072087925 0 0 0 0
24416472 0.30458561056405997 -0.004377920877407037 -0.22038643610561096 0.08164818240029362 0 0 0 0
24449418 0.30476012173011935 -0.004568368773299884 -0.22042913571440373 0.08189059276016562 0 0 0 0
24482364 0.30485941640974434 -0.004591211005880082 -0.22028425825955214 0.08185275845278771 0 0 0 0
24515310 0.3049450519066311 -0.004746958063030975 -0.22035342492224397 0.08224037732373518 0 0 0 0
24548256 0.30483156387992466 -0.004775759928152975 -0.2201805147378456 0.08224027680950627 0 0 0 0
24581202 0.3048565179613572 -0.0048909409749264355 -0.22026593159401625 0.08244665502096046 0 0 0 0
24614148 0.30491304531582347 -0.004784434674081613 -0.22022317775348751 0.08238717865056783 0 0 0 0
24647094 0.3051041333525253 -0.004760329505932783 -0.22012338709342028 0.08259362534701913 0 0 0 0
24680040 0.3052246529528893 -0.004911863718175682 -0.2200899454502883 0.08254971960369663 0 0 0 0
24712986 0.3052956895762951 -0.004900033083637241 -0.2201419170215667 0.08281944522350246 0 0 0 0
24745932 0.3052686893212293 -0.004905572429889187 -0.2200177533856261 0.08285298370442763 0 0 0 0
24778878 0.3054359607544071 -0.00497478111230681 -0.2198928251198167 0.08300798245020259 0 0 0 0
24811824 0.30524406805597226 -0.005076383176449383 -0.21984718988694857 0.08315348177897265 0 0 0 0
24844770 0.3055295871213385 -0.005219918325976976 -0.2200060597935402 0.08328841986134414 0 0 0 0
24877716 0.30552351718075765 -0.005172323487080958 -0.21982227353858852 0.08321911878765678 0 0 0 0
24910662 0.3056472486555797 -0.005110414746884243 -0.21974276392726996 0.08335429366768302 0 0 0 0
24943608 0.30578713980001093 -0.005155517948009537 -0.2197130943517692 0.08352793612666244 0 0 0 0
24976554 0.3058581429973943 -0.005307956313329708 -0.21970223269600456 0.08383508952386272 0 0 0 0
25009500 0.305813820676013 -0.005298796670965669 -0.21969043860094015 0.08380939469468257 0 0 0 0
25042446 0.30584855668919175 -0.00549535123209614 -0.21950712535709 0.08388972483535703 0 0 0 0
25075392 0.30580486674928403 -0.005461046976052491 -0.21958461180969396 0.08405218767662419 0 0 0 0
25108338 0.3059381072583581 -0.00550028287663755 -0.21946081024206937 0.08401890431968832 0 0 0 0
25141284 0.3059937287314569 -0.0055006432148969435 -0.21943771875407528 0.08405946785491096 0 0 0 0
25174230 0.30609948853993 -0.00563318352603492 -0.21931941644635777 0.08436048878387031 0 0 0 0
25207176 0.3061457973066413 -0.0057927769616890595 -0.21930446364881329 0.08436797190164012 0 0 0 0
25240122 0.30610438015726044 -0.005813182161081672 -0.2193821198663693 0.0846270002548425 0 0 0 0
25273068 0.3062712382782154 -0.005598036201335998 -0.21932052207591488 0.08457490745602655 0 0 0 0
25306014 0.3063683085759549 -0.005797671109120881 -0.21929170670583686 0.08475340057796985 0 0 0 0
25338960 0.3064116398413636 -0.005861976432514124 -0.21915113276955323 0.08491656834875727 0 0 0 0
25371906 0.3065086809144856 -0.00610280804815809 -0.21912292110078116 0.0850133367048744 0 0 0 0
25404852 0.30636904593367903 -0.006030058088893757 -0.21886025034277085 0.08511376316678619 0 0 0 0
25437798 0.3065475673430832 -0.005938215901450691 -0.2190510464102124 0.08508285147255275 0 0 0 0
25470744 0.30652807150108163 -0.006034196121857376 -0.21886875610953574 0.08519915166937425 0 0 0 0
25503690 0.3066409713779302 -0.006133854675773307 -0.21886437519126378 0.08529118451819864 0 0 0 0
25536636 0.3067399274298876 -0.006163683018365689 -0.21885222553715114 0.08552654535469609 0 0 0 0
25569582 0.3068794556955519 -0.006248269357221535 -0.21882474925574405 0.08567240395874393 0 0 0 0
25602528 0.3068457807997268 -0.0064448332549825885 -0.2188079547423615 0.08582540247386777 0 0 0 0
25635474 0.3068800195029423 -0.006419758150521035 -0.21877847236194686 0.08590984211401888 0 0 0 0
25668420 0.3069935204258931 -0.006419166368481038 -0.21881633680165719 0.08584954642345709 0 0 0 0
25701366 0.30695037742556325 -0.006436161115975487 -0.21868800926355014 0.08606648365892479 0 0 0 0
25734312 0.3071485321732406 -0.00644960732764199 -0.21855561237727344 0.08599968590123794 0 0 0 0
25767258 0.3071356899232806 -0.0065864570737676 -0.21855505789778246 0.08629103841948085 0 0 0 0
25800204 0.30700288241237284 -0.0065760605394053605 -0.21857036172120498 0.08641762398596113 0 0 0 0
25833150 0.30723572777889757 -0.006470664444356025 -0.21837152727137762 0.0863478079577422 0 0 0 0
25866096 0.3071538057408907 -0.0065383605769939275 -0.21828941632111257 0.08652083177477968 0 0 0 0
25899042 0.30747693289787736 -0.006736798427850363 -0.21830031082473786 0.0865614132732349 0 0 0 0
25931988 0.3073208843305812 -0.006863068418300362 -0.21821929590124817 0.08689662458204821 0 0 0 0
25964934 0.3074509133510349 -0.006740829149896564 -0.21833331433023662 0.08683668170311282 0 0 0 0
25997880 0.30761572420159305 -0.006727644342626812 -0.2181897056385029 0.08698433804661543 0 0 0 0
26030826 0.3076399063448241 -0.0068985833870600505 -0.21822280306141842 0.08704322120268478 0 0 0 0
26063772 0.307633970239482 -0.007041934348095333 -0.2180656119856 0.08720656317244464 0 0 0 0
26096718 0.3076838164775444 -0.007153288585023992 -0.21808975956116813 0.08737041188648954 0 0 0 0
26129664 0.30782612077287014 -0.0071308064502059185 -0.21807516897818952 0.08744103433295504 0 0 0 0
26162610 0.30770533161941444 -0.006999121354744606 -0.21793845598153103 0.08737600649521873 0 0 0 0
26195556 0.30801480316783236 -0.007090097116034618 -0.21787484789656 0.08760269083531251 0 0 0 0
26228502 0.307933464163007 -0.00712688860107879 -0.21779845521076233 0.08764831935946141 0 0 0 0
26261448 0.30810417178281124 -0.00720485760889105 -0.21783087733333198 0.08774375528257411 0 0 0 0
26294394 0.30808870722585285 -0.007431817807414055 -0.21779708415187518 0.0880086546134089 0 0 0 0
26327340 0.3080609278997354 -0.007502996216797761 -0.21764279190634006 0.08823085121033646 0 0 0 0
26360286 0.30819105411093595 -0.007546719327326313 -0.2178269755277679 0.08828879022372658 0 0 0 0
26393232 0.30825064380093814 -0.007294576962835578 -0.2177635633845559 0.08828347948680344 0 0 0 0
26426178 0.30815287842358813 -0.007521107276353335 -0.21768539022784547 0.08843275008200564 0 0 0 0
26459124 0.30837488912645183 -0.007571034645875445 -0.21747747007682663 0.08844078175785794 0 0 0 0
26492070 0.3084503058048432 -0.007522709907465849 -0.21748478275666994 0.08863027662113748 0 0 0 0
26525016 0.3085311856082309 -0.00768879040098247 -0.21738350496764908 0.08876917841335549 0 0 0 0
26557962 0.30843875429333106 -0.007805636397130492 -0.21730182479975313 0.08894701394764301 0 0 0 0
26590908 0.3086667990173034 -0.007896373978772566 -0.21728246164204773 0.08909224728937315 0 0 0 0
26623854 0.30869683830953887 -0.007815494563107683 -0.2173773082923614 0.08913459665776409 0 0 0 0
26656800 0.30867645419951445 -0.007838951628034283 -0.21726383280001177 0.08914533383481747 0 0 0 0
26689746 0.30896665127714196 -0.00789648146773496 -0.217216346269435 0.08927043942693609 0 0 0 0
26722692 0.3089814989977386 -0.008046100924412701 -0.21714635635176213 0.08927668244072769 0 0 0 0
26755638 0.3089746968153035 -0.008129087595781683 -0.21713932355765364 0.08956705853190929 0 0 0 0
26788584 0.30897508074660024 -0.008057762130197514 -0.2172053510696225 0.0896376231218777 0 0 0 0
26821530 0.3091144904070871 -0.00815195851478204 -0.21702867585843424 0.0897803000795205 0 0 0 0
26854476 0.30903979454780395 -0.008161619272650597 -0.21690820639242125 0.08974740209407772 0 0 0 0
26887422 0.3091818649714715 -0.008324594181289705 -0.2168646924017436 0.09004637721822122 0 0 0 0
26920368 0.30922007766514226 -0.008451147203380308 -0.2168327537618824 0.09022286671844508 0 0 0 0
26953314 0.30943028078878726 -0.008532527326834575 -0.21675229649336697 0.09002514448083937 0 0 0 0
26986260 0.30937909107653677 -0.008285162473058466 -0.21686765587560347 0.09022471483531501 0 0 0 0
27019206 0.30947252940650416 -0.008477946201659639 -0.21662150042560868 0.09035926049896624 0 0 0 0
27052152 0.3095498900641289 -0.008526795867297775 -0.21662519432057356 0.09042737760097959 0 0 0 0
27085098 0.3095502617896806 -0.008476046694737555 -0.2165685767479827 0.09055787250233933 0 0 0 0
27118044 0.3094590353352549 -0.008522625823370922 -0.2165069010070399 0.09059652586131425 0 0 0 0
27150990 0.30965913921577376 -0.008831921831122575 -0.2165604788402514 0.09080739518570578 0 0 0 0
27183936 0.3095350689081831 -0.008923478126601176 -0.21641099028791383 0.09093998875316364 0 0 0 0
27216882 0.30994305920166565 -0.008942062446012209 -0.2164019132381909 0.09092183103915064 0 0 0 0
27249828 0.30979780535185175 -0.008695195309099717 -0.21646198546503967 0.09102386920836317 0 0 0 0
27282774 0.3100077903486364 -0.008841163154347388 -0.21628103461611203 0.09108035621761486 0 0 0 0
27315720 0.30993941811842685 -0.008964418382874416 -0.21626372933862892 0.09133430623045434 0 0 0 0
27348666 0.31004370520865704 -0.008981236651649778 -0.21629756490947208 0.09142466026700442 0 0 0 0
27381612 0.3100227419259992 -0.00911045237687984 -0.21615692154743815 0.09140291892509239 0 0 0 0
27414558 0.31028246570127993 -0.009210801182024553 -0.21609397899293906 0.09154494777116297 0 0 0 0
27447504 0.3102282406685721 -0.009185945158166394 -0.21623308340517855 0.09166153275721625 0 0 0 0
27480450 0.3102929810423529 -0.009093821564784891 -0.21596000423827547 0.09175187859701096 0 0 0 0
27513396 0.3104359606100499 -0.009324089442263974 -0.21586617101265554 0.09198280049232731 0 0 0 0
27546342 0.31038765720442124 -0.009302069715865644 -0.2159369758833912 0.09194066896665468 0 0 0 0
27579288 0.3103871625856791 -0.009437668865975761 -0.21590461918708986 0.09222292615662746 0 0 0 0
27612234 0.31054987744080953 -0.009305752028936406 -0.21590884881812158 0.09235752719227569 0 0 0 0
27645180 0.3106753657770821 -0.009426637074264593 -0.21571051762476434 0.09238538179793916 0 0 0 0
27678126 0.31057546392493973 -0.009555831122011539 -0.21566204644422313 0.0923374779326786 0 0 0 0
27711072 0.31062400078944447 -0.009623205347833072 -0.2156193448258192 0.09266114246690736 0 0 0 0
27744018 0.3106415793158192 -0.00970004189071147 -0.21565102688445306 0.09267072977875075 0 0 0 0
27776964 0.3108769481372011 -0.009678909405695364 -0.2154731031321694 0.0927581925840021 0 0 0 0
27809910 0.3109281973182 -0.009781119576336567 -0.21543020415109101 0.09274890800764017 0 0 0 0
27842856 0.3107794142998659 -0.009852539401154915 -0.21543140428210067 0.09315957767676496 0 0 0 0
27875802 0.31100763568725254 -0.009757085613792729 -0.21547658401538225 0.09310758473088265 0 0 0 0
27908748 0.3111921124176677 -0.00977716859818355 -0.21554170928404726 0.09318066556112965 0 0 0 0
27941694 0.3111298936183118 -0.009905572139409059 -0.2152311046076554 0.0932841718532062 0 0 0 0
27974640 0.31128212222120355 -0.009972784685835116 -0.21522973666476775 0.09345324726236899 0 0 0 0
28007586 0.3111295077173012 -0.010152447569722731 -0.2151743831594572 0.0936345907568309 0 0 0 0
28040532 0.3112063373077652 -0.010261436085039238 -0.2151108822837759 0.09359894964002421 0 0 0 0
28073478 0.31140609411590126 -0.010083924609429282 -0.21530123664747775 0.09368159212197542 0 0 0 0
28106424 0.31131738944513726 -0.010022471346471806 -0.21500261372173415 0.09369082739449205 0 0 0 0
28139370 0.31166270485232944 -0.010294042626372618 -0.2150850224932492 0.09409545876075547 0 0 0 0
28172316 0.31143134026324637 -0.010284858896534672 -0.2149092287764485 0.0938933868320419 0 0 0 0
28205262 0.3115081868958682 -0.010572507090096129 -0.21493100944740187 0.09435525992272141 0 0 0 0
28238208 0.3116052569475068 -0.010630835328857953 -0.2148539370884385 0.09448670435635095 0 0 0 0
28271154 0.3118014637128625 -0.010398776534497422 -0.21495695803001358 0.09435069986366311 0 0 0 0
28304100 0.31185862017203025 -0.010450345769767713 -0.21469078280916562 0.09443603298351379 0 0 0 0
28337046 0.3118594286585986 -0.0107194591013223 -0.21474460104875434 0.09460643005657879 0 0 0 0
28369992 0.31188712923454404 -0.010814602175141108 -0.2145896461298218 0.09468610445705587 0 0 0 0
28402938 0.31182517489390865 -0.010599857230533229 -0.21457819374872805 0.09468925237519295 0 0 0 0
28435884 0.312033625878834 -0.01090420786328907 -0.21448895054817438 0.09502744605102104 0 0 0 0
28468830 0.31204397974267545 -0.010994262816425411 -0.21453490666851555 0.09525264803220287 0 0 0 0
28501776 0.31220312537956196 -0.010923643208716964 -0.21450832909631942 0.09509312238380739 0 0 0 0
28534722 0.3122379368718728 -0.010842483996693084 -0.2142716931667652 0.09516790150486161 0 0 0 0
28567668 0.31238788149249685 -0.01099441876567926 -0.21434455274935993 0.09535373307074638 0 0 0 0
28600614 0.3123094779954093 -0.011224457905230106 -0.21427377871774067 0.09552730622995657 0 0 0 0
28633560 0.31249342857802226 -0.011140246736662395 -0.21435614299887984 0.09547840183493105 0 0 0 0
28666506 0.3125278426215122 -0.011057676563661722 -0.21424275836021797 0.09568303380583829 0 0 0 0
28699452 0.31251587783578205 -0.011170975699990803 -0.21416570768643006 0.09551145666422806 0 0 0 0
28732398 0.31268783374169284 -0.011486071757156291 -0.21411172719995844 0.09590115691375585 0 0 0 0
28765344 0.31260363110571765 -0.011440356829531548 -0.21411852487355013 0.09597203778352305 0 0 0 0
28798290 0.3127958974644154 -0.011340051065281971 -0.21412803324193216 0.09612877865694958 0 0 0 0
28831236 0.3127338919178191 -0.011477453501938554 -0.21393772267101296 0.09616420640622537 0 0 0 0
28864182 0.3128992820446788 -0.011716007692815937 -0.2138785602587141 0.09645741543361898 0 0 0 0
28897128 0.3129341818132423 -0.011661307558458662 -0.21390843265226864 0.09629101416167148 0 0 0 0
28930074 0.31297912478883255 -0.011492363318443395 -0.21361309913060855 0.09635617897689526 0 0 0 0
28963020 0.31287594554087206 -0.011697512348795104 -0.213705426468069 0.09664295654095592 0 0 0 0
28995966 0.31311209595692757 -0.011704781544042453 -0.21371623836406267 0.09651197956382972 0 0 0 0
29028912 0.31313767993648284 -0.011938530567766444 -0.21363546482132234 0.09699821863777196 0 0 0 0
29061858 0.3131712167942989 -0.011931636611246178 -0.21364172935750492 0.09697362114692336 0 0 0 0
29094804 0.31326695808946786 -0.01180532017323319 -0.2133362747040444 0.09692257195524213 0 0 0 0
29127750 0.31349119794235963 -0.012022408459729678 -0.21356295085452753 0.09720427075127375 0 0 0 0
29160696 0.31323319542804395 -0.01203531250205135 -0.2132814861500461 0.09711881418356057 0 0 0 0
29193642 0.31345373135245375 -0.012197992254364017 -0.21341493858201957 0.09743759268749592 0 0 0 0
29226588 0.3134490948525033 -0.012040835747623456 -0.2134451609615388 0.09748554733854624 0 0 0 0
29259534 0.31371597319037625 -0.012060345405056249 -0.21317027060444663 0.0975646966031501 0 0 0 0
29292480 0.3136330536775415 -0.012250961175209856 -0.2132728081701402 0.0976215693495424 0 0 0 0
29325426 0.31367991076060203 -0.012454051325166136 -0.21318368414703875 0.09788472853491308 0 0 0 0
29358372 0.31377379864130706 -0.012421429911724733 -0.21299536335231603 0.09788157478178011 0 0 0 0
29391318 0.31387272506108266 -0.012506475978319885 -0.21315967613272174 0.09790139153510974 0 0 0 0
29424264 0.31392298447163786 -0.012464696644635622 -0.21299299801561222 0.09809617633313462 0 0 0 0
29457210 0.3140494891383788 -0.01236951324409196 -0.21306298402572682 0.09817057859934782 0 0 0 0
29490156 0.31417709172647124 -0.012581213569345962 -0.21295516090695082 0.09839693353491584 0 0 0 0
29523102 0.3141149725440375 -0.01264741063977721 -0.21289461767528584 0.09841364864891074 0 0 0 0
29556048 0.31396795418647927 -0.012673801924487822 -0.21271746659618992 0.09837341105359623 0 0 0 0
29588994 0.3142407140885617 -0.012905723912084187 -0.21271562294965718 0.09872277114060966 0 0 0 0
29621940 0.3143116100375026 -0.012866382669571715 -0.21270513152530632 0.09851906913451695 0 0 0 0
29654886 0.3142784937431337 -0.01282313301289673 -0.21269656679621501 0.09879003141927407 0 0 0 0
29687832 0.3142308011847574 -0.013049412408102517 -0.2125581843884926 0.09892353887528044 0 0 0 0
29720778 0.3145364330416879 -0.013135355172754283 -0.21263100834211437 0.0990757918130303 0 0 0 0
29753724 0.31456448604297094 -0.013211397780813029 -0.2124896227713407 0.09910314204949364 0 0 0 0
29786670 0.31458611025749145 -0.012929039274789599 -0.2123956007168989 0.0992693239746998 0 0 0 0
29819616 0.3146765514366481 -0.013241643063166315 -0.2123672309216957 0.09926324808334937 0 0 0 0
29852562 0.3147658126536565 -0.013456791639030906 -0.21235247522046827 0.09951338437941644 0 0 0 0
29885508 0.31492093541500443 -0.013406147382958271 -0.2123014449034351 0.0997055741353792 0 0 0 0
29918454 0.31493637322873586 -0.013447300613268844 -0.2122376922568227 0.09959302992150106 0 0 0 0
29951400 0.31492451122745924 -0.013300207542003322 -0.21207894285516102 0.09977731951340485 0 0 0 0
29984346 0.3149797048706115 -0.013572659486798835 -0.2120879771417783 0.09992353513889556 0 0 0 0
30017292 0.31485201140533337 -0.013518893071767088 -0.21197262498141559 0.09996402802084198 0 0 0 0
30050238 0.31499151102180395 -0.013672471209148806 -0.2120496934125454 0.10005416388504362 0 0 0 0
30083184 0.31525720201174046 -0.013462448683723663 -0.21195600003717088 0.10013867077015569 0 0 0 0
30116130 0.3151592229339822 -0.013637674166957806 -0.2118455222641405 0.10016642188604884 0 0 0 0
30149076 0.3152611078704254 -0.013714257369424934 -0.2119003332434697 0.10034239536729818 0 0 0 0
30182022 0.31520259361718805 -0.013806266683598346 -0.21168348047550298 0.10040405131934702 0 0 0 0
30214968 0.3154608186163628 -0.014062308706324552 -0.21176583393318005 0.10052280765839447 0 0 0 0
30247914 0.3154453132143101 -0.01386497443698718 -0.21178915618259683 0.10054997419643129 0 0 0 0
30280860 0.3156596357389577 -0.01387349376438266 -0.21161429809085613 0.10070279650666689 0 0 0 0
30313806 0.3156159196721645 -0.013976593977378191 -0.21153011456500548 0.10089302025755392 0 0 0 0
30346752 0.3157037413409426 -0.014089147903815474 -0.21148857435888901 0.100980793599597 0 0 0 0
30379698 0.31553678145200514 -0.014256325314910131 -0.21138774099468893 0.10098330795371264 0 0 0 0
30412644 0.3155898060095807 -0.014345813278463224 -0.21146044555354415 0.10134155703309698 0 0 0 0
30445590 0.3158351347744595 -0.014278321673498136 -0.2114398748243433 0.10132746273015877 0 0 0 0
30478536 0.3159605350880897 -0.014403357088169264 -0.21144408806817785 0.10143260415912281 0 0 0 0
30511482 0.31595624110196074 -0.01427577535941318 -0.21114211461350915 0.10149660456318352 0 0 0 0
30544428 0.3161401195360673 -0.0143496073722429 -0.21118113060707958 0.10168039352164016 0 0 0 0
30577374 0.31614305491766886 -0.014725241219445446 -0.21123585271709527 0.10165620315941033 0 0 0 0
30610320 0.3157866168350499 -0.014631151462737791 -0.21108139631068146 0.10176938123373339 0 0 0 0
30643266 0.3162755647968652 -0.014947894884140988 -0.2109928727049861 0.10199344052546938 0 0 0 0
30676212 0.3163294127654629 -0.01484192580288512 -0.2110177331414605 0.10211765157077576 0 0 0 0
30709158 0.3162478841765492 -0.014954990789798414 -0.210868916050697 0.10206347864543149 0 0 0 0
30742104 0.3165017249218534 -0.014945289367741662 -0.21094547243895007 0.10231218230939555 0 0 0 0
30775050 0.3164618975986701 -0.014842140446252433 -0.21068732656440875 0.10223608050897419 0 0 0 0
30807996 0.31657141812561623 -0.014763258594391851 -0.21069085458276293 0.10238763024189214 0 0 0 0
30840942 0.3167980374332266 -0.015099374027474098 -0.21078999919162897 0.10260064975183213 0 0 0 0
30873888 0.3167167461055679 -0.015203540734535443 -0.21068532937618806 0.10260145120868648 0 0 0 0
30906834 0.3166740135437557 -0.015214413013370835 -0.21056675242681963 0.10269586924024633 0 0 0 0
30939780 0.3168783999030106 -0.015278487093187621 -0.21053591854840892 0.10286730245911958 0 0 0 0
30972726 0.316783024389264 -0.015185154376132484 -0.21037117413432438 0.10288622697982493 0 0 0 0
31005672 0.31703445910104266 -0.01538417491564552 -0.21058823427892062 0.10322216821489248 0 0 0 0
31038618 0.3168681695500988 -0.015440750563905677 -0.21038419354879884 0.10309824817446235 0 0 0 0
31071564 0.3169409823580901 -0.015420845335367472 -0.2103008740797621 0.10310378097138632 0 0 0 0
31104510 0.31734969807128277 -0.01568057505361739 -0.2104260046054283 0.10353275926864365 0 0 0 0
31137456 0.3171208663309165 -0.015467076460849856 -0.21021120946457908 0.10348647744436207 0 0 0 0
31170402 0.3170221627569611 -0.015592719490734588 -0.21014722284643253 0.10344917255737189 0 0 0 0
31203348 0.3172937228762959 -0.01591582785039698 -0.2100248759313349 0.10360433363039186 0 0 0 0
31236294 0.31750813487259427 -0.01578796594908078 -0.21010308743693076 0.10384279599506666 0 0 0 0
31269240 0.31749539514690045 -0.015668474859734677 -0.2099713560437567 0.10388448402982574 0 0 0 0
31302186 0.31733651383575995 -0.01588966069782873 -0.2098928924954179 0.10393569897746263 0 0 0 0
31335132 0.31748967677885886 -0.01612486777103636 -0.20989988040677038 0.10402370816707751 0 0 0 0
31368078 0.31776495246221875 -0.016097782540824012 -0.20979211133124656 0.10424306410446815 0 0 0 0
31401024 0.31769853827544087 -0.01602246921082836 -0.2096623909833032 0.10419088399244648 0 0 0 0
31433970 0.31762397217188776 -0.016172670673367015 -0.20968667446963832 0.10432692725146145 0 0 0 0
31466916 0.3179233079016032 -0.016283895418425228 -0.20973168688270344 0.10459664053454303 0 0 0 0
31499862 0.31799546179275795 -0.01640497438675907 -0.20961011529991014 0.10457911385790024 0 0 0 0
31532808 0.3179336075974017 -0.016333023892366755 -0.20939417239339617 0.10459740588579354 0 0 0 0
31565754 0.3179546492250764 -0.016329719212319273 -0.20947316875870362 0.10469163037710838 0 0 0 0
31598700 0.3178335151813573 -0.016425455614009994 -0.2095160847824031 0.10496095150650724 0 0 0 0
31631646 0.3179857420056558 -0.016576593309486846 -0.20950962781270166 0.10497776194321641 0 0 0 0
31664592 0.3182022779695778 -0.016610712065999143 -0.20938755744710755 0.10510562648413756 0 0 0 0
31697538 0.3182468988350734 -0.01665502862893665 -0.2092271361135675 0.10517645339729158 0 0 0 0
31730484 0.3181472635821575 -0.016699511266639138 -0.20916545504571074 0.10525435681934384 0 0 0 0
31763430 0.3182258843001791 -0.01679830292975471 -0.2091174950793667 0.10550065165723532 0 0 0 0
31796376 0.3182886793146929 -0.016911846168434636 -0.20931675366576638 0.10545815440785623 0 0 0 0
31829322 0.3184902780487215 -0.016711022126673424 -0.2088886573408798 0.10543833385460719 0 0 0 0
31862268 0.31855645553107703 -0.0171244182502079 -0.20911724872520307 0.10580449811538793 0 0 0 0
31895214 0.31845022040029497 -0.017046537222346995 -0.20891036108793554 0.10588758902652473 0 0 0 0
31928160 0.3185966546419382 -0.01701060278903341 -0.2089123170209222 0.1061360993639185 0 0 0 0
31961106 0.31882282684307683 -0.017402981052018467 -0.20884885374393444 0.10592493915941581 0 0 0 0
31994052 0.3189220132662871 -0.017424185416503236 -0.20879015960172193 0.10621511368936269 0 0 0 0
32026998 0.3187683716784929 -0.01729463496417938 -0.2087725220573249 0.10618590139793205 0 0 0 0
32059944 0.31907914828858713 -0.017294818077937826 -0.20870178069445458 0.10641450302320983 0 0 0 0
32092890 0.31904660817464053 -0.017323643605570444 -0.2086010683147902 0.10647101615498691 0 0 0 0
32125836 0.3189149965583522 -0.01748240035483574 -0.20848083500313974 0.10653673522494984 0 0 0 0
32158782 0.31907744126495513 -0.01770727109102712 -0.20854145768359741 0.10656794532493405 0 0 0 0
32191728 0.31902840993182296 -0.017596368966975508 -0.20844740079265714 0.10665196640760267 0 0 0 0
32224674 0.3193400006113976 -0.017617022906152358 -0.20843299791804068 0.10692283009198594 0 0 0 0
32257620 0.3193257519690195 -0.017676441098759155 -0.2084326466543552 0.10701069383483014 0 0 0 0
32290566 0.3191276777848668 -0.017745506400750042 -0.20822694164449407 0.10711066607050111 0 0 0 0
32323512 0.3195167083946378 -0.018150494900194585 -0.20818126176252183 0.10709170592940646 0 0 0 0
32356458 0.3194675151644125 -0.017796968162092867 -0.20800435199937584 0.10721199953987878 0 0 0 0
32389404 0.3194613920159527 -0.018028107333454984 -0.20806081211189592 0.1072585501713089 0 0 0 0
32422350 0.31953616356226927 -0.018157353110095587 -0.207982733181573 0.10747015242035969 0 0 0 0
32455296 0.3194585489491931 -0.018156147190244425 -0.2079330628171398 0.10773370568694889 0 0 0 0
32488242 0.3195722080346122 -0.01826500480418597 -0.20796403580916525 0.10759940338793778 0 0 0 0
32521188 0.3198390534736809 -0.018303061530642484 -0.20799080429760503 0.10772263638754279 0 0 0 0
32554134 0.31994955949030857 -0.018250420623244147 -0.20769504871582603 0.10781809166238304 0 0 0 0
32587080 0.32005632988757077 -0.018175091824000934 -0.2077465004784613 0.10793579816041324 0 0 0 0
32620026 0.3200777353164468 -0.018572147505165348 -0.20780476727121996 0.10811789617833246 0 0 0 0
32652972 0.3199550747317262 -0.01838899912732299 -0.2076000473261727 0.10810465071441522 0 0 0 0
32685918 0.32002756231849727 -0.018655632332952653 -0.20760912197327833 0.10837110633587162 0 0 0 0
32718864 0.3201700799739812 -0.018812710987791855 -0.20744631466565616 0.10828593099046627 0 0 0 0
32751810 0.32044453396445954 -0.018704874577294694 -0.2074913473681075 0.10859381158589104 0 0 0 0
32784756 0.3203965495475824 -0.018685942519556308 -0.20746164927284996 0.10866035005803806 0 0 0 0
32817702 0.320257310234059 -0.01886532823945919 -0.2073482471240706 0.10865282223142807 0 0 0 0
32850648 0.32047282116362547 -0.018931682392105367 -0.20735940619568868 0.10896337089741054 0 0 0 0
32883594 0.3203249774759664 -0.01906066959906008 -0.20729527681991688 0.10882637960852756 0 0 0 0
32916540 0.3204274596034104 -0.019044284874796955 -0.20732324555084045 0.1088606692012176 0 0 0 0
32949486 0.32071718206669725 -0.01906383688918152 -0.20710746576831204 0.10918023996963235 0 0 0 0
32982432 0.3207764574656877 -0.0190115468322992 -0.2070238739017866 0.10921682915828196 0 0 0 0
33015378 0.32081727947354616 -0.019240555818707795 -0.20706879338494813 0.10932286245023634 0 0 0 0
33048324 0.32077742864460806 -0.019359832620552752 -0.20692190492709406 0.1094382038737739 0 0 0 0
33081270 0.32064529922760177 -0.01939869546940589 -0.20695378850168256 0.10947963641558896 0 0 0 0
33114216 0.3209700609603282 -0.019452596762705998 -0.20688040802079602 0.1096208912958231 0 0 0 0
33147162 0.3211470938991702 -0.01936413420918395 -0.20668531122930434 0.1095726924875645 0 0 0 0
33180108 0.3211985029790871 -0.01964510309934675 -0.20679062713695132 0.10982889487292931 0 0 0 0
33213054 0.3210154227283337 -0.019665208622719928 -0.2066371064527408 0.10992965129142462 0 0 0 0
33246000 0.320993571145483 -0.01972245435384493 -0.2065225952731595 0.11005466524034463 0 0 0 0
33278946 0.32127539935578114 -0.019778594328242683 -0.20653674927355148 0.11005447601148384 0 0 0 0
33311892 0.32127024586089636 -0.019952485083744576 -0.20650765595595222 0.11010758948069248 0 0 0 0
33344838 0.32136839181873816 -0.020040927628524587 -0.2064754506043157 0.1102295390362922 0 0 0 0
33377784 0.32141004811704277 -0.01997053771360577 -0.20649482777802625 0.11035797063663111 0 0 0 0
33410730 0.32151170311451926 -0.0200783093563764 -0.2062759427499378 0.11059348776511982 0 0 0 0
33443676 0.32145539840901777 -0.019978882838714105 -0.20629462714569216 0.11059985205440767 0 0 0 0
33476622 0.32173776027764156 -0.020276753690375165 -0.20610315002065102 0.11071954091632387 0 0 0 0
33509568 0.32169108324775314 -0.020186322533084514 -0.20616801011607486 0.11078241592966695 0 0 0 0
33542514 0.32221279869470776 -0.02020361488517827 -0.20614367251606058 0.1109558545018091 0 0 0 0
33575460 0.3218204124446442 -0.0203040729784113 -0.20600876993420647 0.1109646018773827 0 0 0 0
33608406 0.32182137082473616 -0.02048449430064828 -0.2059555491858439 0.11120591523248217 0 0 0 0
33641352 0.32198230474696515 -0.020443883223559077 -0.2060343623847974 0.11130935766970303 0 0 0 0
33674298 0.3220007053055702 -0.02067441586521682 -0.2058391916597803 0.1113565526216687 0 0 0 0
33707244 0.32213513256987664 -0.020462074477619625 -0.20575996574456465 0.11117031634249351 0 0 0 0
33740190 0.32212205349383505 -0.02054189611644549 -0.20567149144187788 0.1115242740890597 0 0 0 0
33773136 0.32217108391861393 -0.02084035425109517 -0.2055864097178395 0.11157212407036368 0 0 0 0
33806082 0.3222599041568455 -0.020637050671307042 -0.2056735564421653 0.11170226253153917 0 0 0 0
33839028 0.32257346498973755 -0.021020765069322662 -0.20557233747641113 0.11202626786515259 0 0 0 0
33871974 0.3226939581884994 -0.020920514949768758 -0.20552022764730676 0.11174045025519787 0 0 0 0
33904920 0.32243972346286787 -0.020936815436750144 -0.20548795737935427 0.11213427185581183 0 0 0 0
33937866 0.32235238448298625 -0.02112744134138581 -0.20524620429472057 0.11208531260131074 0 0 0 0
33970812 0.32269102458651977 -0.02109849137286814 -0.2051900605359453 0.11196931638652656 0 0 0 0
34003758 0.32254741235908957 -0.02130355761970967 -0.20535641944183305 0.11236694198828975 0 0 0 0
34036704 0.32269881019814756 -0.021267553564404976 -0.20521255258552923 0.11227221105845932 0 0 0 0
34069650 0.32299565006886855 -0.02121706739517267 -0.20518903133651462 0.1124620236789506 0 0 0 0
34102596 0.32315141493509797 -0.021413700256334583 -0.2050989047766368 0.11263926745204254 0 0 0 0
34135542 0.3228210734168495 -0.021348199412541055 -0.20496445743972647 0.1127458256274252 0 0 0 0
34168488 0.32311260328436686 -0.021566133441412925 -0.20506642440829234 0.11290161766580468 0 0 0 0
34201434 0.3229075220036661 -0.021541545188000184 -0.2050321935004828 0.11308093668998535 0 0 0 0
34234380 0.3230364666934231 -0.0217711137856268 -0.20490491249342682 0.11302244190009497 0 0 0 0
34267326 0.32326242092296575 -0.021657319048971887 -0.20482976749240522 0.11302318911623416 0 0 0 0
34300272 0.32326899804984105 -0.021886654882829808 -0.20476728242255987 0.11327331973233438 0 0 0 0
34333218 0.32337477264080144 -0.02202938905497059 -0.20472351394832203 0.11336336781919383 0 0 0 0
34366164 0.3233899260768416 -0.021900298795873213 -0.20477603943066955 0.11338838168780639 0 0 0 0
34399110 0.32336320977549415 -0.022003087647629704 -0.20474984957056255 0.11357875993090621 0 0 0 0
34432056 0.3236835594629458 -0.022072747549554097 -0.20454928807872558 0.11355341848140996 0 0 0 0
34465002 0.3233613502273572 -0.022182699802584388 -0.20435396202088943 0.11370570025359927 0 0 0 0
34497948 0.32358461328819743 -0.02213796878598591 -0.20438954326972786 0.11378205838699627 0 0 0 0
34530894 0.32377242101224885 -0.02236465827109243 -0.2043295070440352 0.11395523243678271 0 0 0 0
34563840 0.3239104507255878 -0.02256321674003065 -0.2042643157409983 0.11407815663454089 0 0 0 0
34596786 0.32396434846218153 -0.02259322056477745 -0.20424058000555229 0.1140865993519947 0 0 0 0
34629732 0.32385635632897386 -0.0224667184542257 -0.20412190504508543 0.11415992338633488 0 0 0 0
34662678 0.32403650868201084 -0.022585206210300062 -0.20409274828566515 0.11436492750542328 0 0 0 0
34695624 0.3238751106557523 -0.02267997487021475 -0.20398903905237567 0.11437757690306585 0 0 0 0
34728570 0.3241436277622197 -0.02260776661831808 -0.2040739562205223 0.11466410761019373 0 0 0 0
34761516 0.32414724709285153 -0.022760607658920996 -0.2038908521458162 0.11448725870690989 0 0 0 0
34794462 0.324109644018622 -0.022733946383683645 -0.20393163342654133 0.11470213178217371 0 0 0 0
34827408 0.3242678867078351 -0.022813095734557556 -0.20381048843266256 0.11467761340256692 0 0 0 0
34860354 0.3244305668763065 -0.022942056600213524 -0.20366009118151068 0.11488413130344323 0 0 0 0
34893300 0.3245968403992198 -0.022984479013096193 -0.2036418577231962 0.11500668333082936 0 0 0 0
34926246 0.3244116092073275 -0.02303592355256149 -0.2034235437196358 0.11496180832402698 0 0 0 0
34959192 0.3245405973364928 -0.02338410645172095 -0.20354012732290172 0.11533726407108874 0 0 0 0
34992138 0.3246590853303942 -0.023346236402115476 -0.20350117659903766 0.115345998689239 0 0 0 0
35025084 0.3248403697426919 -0.023201873652721857 -0.20342461455153207 0.11546964216280951 0 0 0 0
35058030 0.3245576101485556 -0.023252375760884843 -0.2032528299215586 0.11534019200690951 0 0 0 0
35090976 0.3248193553453895 -0.023516251929639586 -0.20331329177914675 0.11574361380741326 0 0 0 0
35123922 0.3248978601654778 -0.023421407689125918 -0.20341365678408946 0.11562048045484523 0 0 0 0
35156868 0.3247978258833207 -0.023687680329307695 -0.20314846913039952 0.11572551200919094 0 0 0 0
35189814 0.32488086054245713 -0.023621370285219923 -0.20309786439314148 0.1157691700717906 0 0 0 0
35222760 0.32524496798917485 -0.02367605684899777 -0.20305319212159065 0.11612915974952398 0 0 0 0
35255706 0.3253084904724873 -0.023736909845730424 -0.20291879251687708 0.11611174321678167 0 0 0 0
35288652 0.325188113225621 -0.02368064945479179 -0.20309957408410023 0.11616834344637854 0 0 0 0
35321598 0.3249836801697861 -0.024120869988234133 -0.2029281974744763 0.11625237681180037 0 0 0 0
35354544 0.3252726607318084 -0.023901273112082497 -0.20271581553970827 0.11649524325766128 0 0 0 0
35387490 0.3251716785646031 -0.024186791005357255 -0.20269098266617397 0.11646851339270572 0 0 0 0
35420436 0.32542414141723985 -0.02408588975267831 -0.2027103818170486 0.11656127919878619 0 0 0 0
35453382 0.3254774340172255 -0.02445456637054623 -0.20274227607884956 0.11676841253471044 0 0 0 0
35486328 0.32572038728259484 -0.024242617961795936 -0.20255650984832205 0.11680540168672122 0 0 0 0
35519274 0.32557090403039013 -0.0244541288489306 -0.20256915491696909 0.11693375471223247 0 0 0 0
35552220 0.3256678744894264 -0.024303954728834787 -0.20245834668388735 0.1170626774610147 0 0 0 0
35585166 0.32588919238634007 -0.024473438488569692 -0.20224940604716693 0.1169061407489492 0 0 0 0
35618112 0.3259292376491961 -0.024681208599942453 -0.20226354690057363 0.11718948684050273 0 0 0 0
35651058 0.32591627230792863 -0.024684574864374406 -0.20224947099473956 0.11736720054720647 0 0 0 0
35684004 0.3260060914031482 -0.024728187478802274 -0.20233823516036117 0.11745636457983295 0 0 0 0
35716950 0.3259282317198874 -0.024770246598716725 -0.2019903899975366 0.11731631070119045 0 0 0 0
35749896 0.3259634634683883 -0.024919530036940123 -0.20202941506962627 0.11752552243578587 0 0 0 0
35782842 0.3261438739222843 -0.025004995327269408 -0.20199880059645003 0.11782447911557008 0 0 0 0
35815788 0.32620061317519805 -0.025146333372294542 -0.20186550679546378 0.11764085257493084 0 0 0 0
35848734 0.32622705176609074 -0.02502244084739303 -0.20188208901604932 0.1178985364028925 0 0 0 0
35881680 0.3265044750708144 -0.025131310187047326 -0.20181110073409886 0.11791648117346536 0 0 0 0
35914626 0.32645283564369587 -0.025384150428354606 -0.20195038536713852 0.11818274116729753 0 0 0 0
35947572 0.32656823864577533 -0.025251326109000268 -0.20169664977678822 0.11803850431662924 0 0 0 0
35980518 0.32655212911051046 -0.025242915414754624 -0.2016061273500451 0.11816386736731636 0 0 0 0
36013464 0.3266763494879202 -0.025511376416162385 -0.2015390163103135 0.11847393372974625 0 0 0 0
36046410 0.3265215748387026 -0.025641737558039022 -0.2015073015369302 0.11844387834846848 0 0 0 0
36079356 0.3267481127814156 -0.025615389404436632 -0.2015734570826979 0.11867827173856076 0 0 0 0
36112302 0.32677365148489484 -0.02576714839640745 -0.20148424419621158 0.1185761728396875 0 0 0 0
36145248 0.32682554367740224 -0.025874821136569068 -0.20138714721450693 0.11867285442057553 0 0 0 0
36178194 0.3269901540521311 -0.025652838368952414 -0.20131440770984035 0.11882186395221553 0 0 0 0
36211140 0.3269541181059945 -0.025999842616311608 -0.20111673076504816 0.11888247257663476 0 0 0 0
36244086 0.32695792829304493 -0.025931664392613886 -0.2010754524426651 0.11897526320101155 0 0 0 0
36277032 0.32712077718991395 -0.025904378046906325 -0.20119745415221438 0.11919724303044953 0 0 0 0
36309978 0.3271305495933755 -0.026181834682961536 -0.20112036931557012 0.11938428115689219 0 0 0 0
36342924 0.32717993862455796 -0.026201370402226955 -0.20099106239673425 0.11933774011845105 0 0 0 0
36375870 0.3273175322726286 -0.026178412208093714 -0.20083873745342423 0.11937012781772308 0 0 0 0
36408816 0.3272337142239743 -0.02629337222339221 -0.20091431077970975 0.11963038157214748 0 0 0 0
36441762 0.3275608270889642 -0.02637074809464954 -0.20075999867151784 0.11955280420155456 0 0 0 0
36474708 0.32733730904184927 -0.026439939672234684 -0.20072810024700644 0.11979406439299745 0 0 0 0
36507654 0.32763521621502345 -0.026526867454540214 -0.20059804549060958 0.11976070755431942 0 0 0 0
36540600 0.3277811973861515 -0.026535136781972116 -0.2005861930070805 0.11993552857172315 0 0 0 0
36573546 0.3277255104098238 -0.02668335543510259 -0.20050905648800504 0.12010247258474224 0 0 0 0
36606492 0.32772561748192774 -0.02676516807916304 -0.20046833225267754 0.12009993976429029 0 0 0 0
36639438 0.3278820313070937 -0.02677271732155684 -0.20057594883337498 0.12030868463113119 0 0 0 0
36672384 0.32778013657446664 -0.026836600885283904 -0.20035364688406904 0.1202113761518075 0 0 0 0
36705330 0.327853859617537 -0.027135090493329732 -0.20027317878244247 0.12044970171326953 0 0 0 0
36738276 0.3283339357576936 -0.02682288802919569 -0.2002040399463103 0.12038099774732705 0 0 0 0
36771222 0.328115057801111 -0.02711227160367999 -0.2001080895905333 0.12049555263617397 0 0 0 0
36804168 0.3281238400383633 -0.027166262567486308 -0.20008459405141876 0.12087010172789023 0 0 0 0
36837114 0.328189854056066 -0.027300411438903504 -0.20011245801877642 0.12090253886470502 0 0 0 0
36870060 0.32848616748698567 -0.02732106846441373 -0.1999710029432162 0.12089338325722955 0 0 0 0
36903006 0.3281058866277904 -0.02729422340312535 -0.19989684890786383 0.12095049051930777 0 0 0 0
36935952 0.3284018571067774 -0.02768005242829126 -0.19981865324615658 0.12101820625493968 0 0 0 0
36968898 0.32833726829572 -0.02773310656355746 -0.19987519495356942 0.1212298825293604 0 0 0 0
37001844 0.3285951657208249 -0.02771494920115642 -0.19969759597409334 0.12138064971475508 0 0 0 0
37034790 0.3286295052024848 -0.027610293346091608 -0.19965509699970652 0.12120380230855933 0 0 0 0
37067736 0.3285412595437749 -0.027712007002804084 -0.19945397846252 0.1215027552421136 0 0 0 0
37100682 0.32882757297275494 -0.027812487042908365 -0.19960559694500873 0.12155370398809519 0 0 0 0
37133628 0.32876971116470394 -0.028038796139634035 -0.19948428040838656 0.12166194234150429 0 0 0 0
37166574 0.3289753523813248 -0.0278707692075301 -0.1994045481418679 0.12162367185924007 0 0 0 0
37199520 0.3289172334314973 -0.02805094733125383 -0.19926407889294057 0.12187348478879755 0 0 0 0
37232466 0.3291573191753627 -0.02810420759003916 -0.19940392819901698 0.1219947897698892 0 0 0 0
37265412 0.3289951256668393 -0.028392702735253426 -0.19924255128755355 0.12201010239907531 0 0 0 0
37298358 0.32916301163385164 -0.02831176503563603 -0.19910340936644685 0.12217644547744333 0 0 0 0
37331304 0.329063163873967 -0.02842883847898511 -0.19900710007667938 0.12223539959089547 0 0 0 0
37364250 0.32911321110578584 -0.028445456395619195 -0.19898285503012092 0.12226111140959685 0 0 0 0
37397196 0.32929732771212683 -0.028436645704868688 -0.1990020981760299 0.12243451582405589 0 0 0 0
37430142 0.3292875803878185 -0.028662301090251013 -0.19898913927443684 0.12247429895882161 0 0 0 0
37463088 0.32944457098636026 -0.028824397730989975 -0.1988585937196455 0.12270520493795481 0 0 0 0
37496034 0.32960277747293826 -0.028770882129369114 -0.19859417548267003 0.12261336721064602 0 0 0 0
37528980 0.32967991984735556 -0.028805922692817957 -0.1986360774320132 0.12277035821959581 0 0 0 0
37561926 0.32953862568761016 -0.02895257722491373 -0.19861756918644594 0.12299097908952715 0 0 0 0
37594872 0.329633522657925 -0.028921700512117576 -0.1984485425920723 0.12299361041731129 0 0 0 0
37627818 0.329810615858523 -0.029015338772882992 -0.19861273585401265 0.12314981529653023 0 0 0 0
37660764 0.3299390601141422 -0.029337158429560296 -0.19855347292071526 0.12336165420163914 0 0 0 0
37693710 0.33002326180354846 -0.029102860080413073 -0.1982721137235056 0.12317541801947839 0 0 0 0
37726656 0.32999323149270754 -0.029213886418317448 -0.19841362670219145 0.12352342776800768 0 0 0 0
37759602 0.3299263926830802 -0.029320038422800055 -0.1981727254771511 0.12343875401903706 0 0 0 0
37792548 0.33005867407416467 -0.029299530841923018 -0.1981266321460409 0.12361815445737913 0 0 0 0
37825494 0.33022372485927837 -0.029641054166048515 -0.19821981759950386 0.12359027503271286 0 0 0 0
37858440 0.3302326724657816 -0.02959335210107968 -0.19804196005491548 0.12360301649047147 0 0 0 0
37891386 0.33035623118988766 -0.029668308992363918 -0.19797202815991657 0.12390957527734561 0 0 0 0
37924332 0.3303612216767077 -0.029703966488812232 -0.19794740264158542 0.12408316890561812 0 0 0 0
37957278 0.3303596043330017 -0.02988662965469243 -0.19785725847273442 0.12393231271935383 0 0 0 0
37990224 0.3305355449157607 -0.029818270465378386 -0.19785562198130976 0.12425803099797766 0 0 0 0
38023170 0.3306098203191691 -0.029888989131715223 -0.19791063170720927 0.12416516529774588 0 0 0 0
38056116 0.33062670759009694 -0.030077868695249865 -0.1977348398657424 0.12429514833257695 0 0 0 0
38089062 0.3306702988684488 -0.030178536155287376 -0.1975942607706501 0.12435061362839363 0 0 0 0
38122008 0.3307913008402717 -0.030257577892383248 -0.19743772957418912 0.12458668078022259 0 0 0 0
38154954 0.3309452409440146 -0.030382897581589227 -0.1974667142737437 0.12465116699056615 0 0 0 0
38187900 0.3309384556224938 -0.030134594998952328 -0.19732585976461062 0.12462896226252913 0 0 0 0
38220846 0.3309710450630258 -0.030290677447180142 -0.19732223966227128 0.12483575664169064 0 0 0 0
38253792 0.331056669408398 -0.030472200565806636 -0.19742540638103218 0.12496976944660237 0 0 0 0
38286738 0.33102969774772456 -0.030785228868097498 -0.1972323495372035 0.12500256801264462 0 0 0 0
38319684 0.33115832809536977 -0.03077045353857731 -0.19704483924527863 0.12513877432804876 0 0 0 0
38352630 0.3311065798822218 -0.03080477907821029 -0.1969840479851847 0.1252975111081867 0 0 0 0
38385576 0.3311740322596739 -0.030790193580157294 -0.19701831855000168 0.125369146415357 0 0 0 0
38418522 0.33123101254623494 -0.03083546200017563 -0.196916413031563 0.12548294210471456 0 0 0 0
38451468 0.33138543857719127 -0.030959929317902514 -0.19693629493041725 0.12533168334675282 0 0 0 0
38484414 0.33154277612665334 -0.03119640525811368 -0.19682034825978834 0.12574245317921995 0 0 0 0
38517360 0.3314930183716361 -0.03123985736295519 -0.19675077777838035 0.12576028456736987 0 0 0 0
38550306 0.331519053008108 -0.031050721326386838 -0.1966550417884419 0.1257912595344846 0 0 0 0
38583252 0.3315875726413348 -0.03140247035958514 -0.19670449908705193 0.12585555919467145 0 0 0 0
38616198 0.33183559541215224 -0.03134493297065151 -0.19654362218932722 0.12598161670576896 0 0 0 0
38649144 0.3317377822305932 -0.031372413712325076 -0.19654982092695508 0.12611849781918338 0 0 0 0
38682090 0.3317820466801365 -0.031567604616880234 -0.1964109601672821 0.12620139574951322 0 0 0 0
38715036 0.3319428528134711 -0.031500513809167 -0.19641731626625672 0.12623682642211245 0 0 0 0
38747982 0.33194847707914577 -0.0317449260533749 -0.1963638862776335 0.12628617490943694 0 0 0 0
38780928 0.3320298815870074 -0.03184580666034046 -0.19631209764790236 0.126287569500015 0 0 0 0
38813874 0.3322482875820034 -0.0317299294684963 -0.19608644353590574 0.12649848821742193 0 0 0 0
38846820 0.332156962440016 -0.031967621816750266 -0.19610721934589423 0.12673026284925404 0 0 0 0
38879766 0.33220560468083166 -0.0321543050977259 -0.19606834027255976 0.1268511629031988 0 0 0 0
38912712 0.3322131761587933 -0.031953789878850655 -0.19607097822634764 0.1268541123401035 0 0 0 0
38945658 0.3322654992879329 -0.032187721594702075 -0.19588878007851215 0.12694330635636955 0 0 0 0
38978604 0.3323296070880555 -0.03215798310336116 -0.19584519590833696 0.1270653904611023 0 0 0 0
39011550 0.332552124947112 -0.03242242308306415 -0.19569749273282547 0.12722736324968253 0 0 0 0
39044496 0.3326465229647869 -0.03238518448473733 -0.19580401879154816 0.12723092037139486 0 0 0 0
39077442 0.3327472628705322 -0.03244352779107108 -0.19558969402439177 0.1273750577769489 0 0 0 0
39110388 0.332929115186859 -0.03235375170623254 -0.1955992124538536 0.1273315657595276 0 0 0 0
39143334 0.33289743599121807 -0.0325793155476953 -0.1953957979584131 0.12750856514208536 0 0 0 0
39176280 0.3328575795099818 -0.03276814916172078 -0.1956216635949482 0.1276185905137237 0 0 0 0
39209226 0.33283668847340897 -0.03289232084595194 -0.19533433341821752 0.12774737966486824 0 0 0 0
39242172 0.33295672986321123 -0.032832385993482226 -0.19526751309149412 0.12770363607343696 0 0 0 0
39275118 0.3329145098360317 -0.033034937078667496 -0.19515131085145263 0.12794978473948398 0 0 0 0
39308064 0.33307561065205066 -0.03299527805804364 -0.19512118500631057 0.12800912764530115 0 0 0 0
39341010 0.3330036810753679 -0.03299584431061775 -0.19508065266399605 0.12812959486090297 0 0 0 0
39373956 0.33314038772392246 -0.03316736388211856 -0.19511266710366137 0.12817858495678142 0 0 0 0
39406902 0.333245315181239 -0.033313837193185564 -0.1950180909817547 0.12820360496422714 0 0 0 0
39439848 0.333434916318936 -0.03330768147640803 -0.19494921694573153 0.12823097464655617 0 0 0 0
39472794 0.3334679155774488 -0.03329266350112261 -0.19481868819299522 0.12840643772535873 0 0 0 0
39505740 0.33344337368211296 -0.03352464628270923 -0.194754834291961 0.12854804684355242 0 0 0 0
39538686 0.3334113368735514 -0.03363522133541746 -0.19486398019295972 0.12859436056162893 0 0 0 0
39571632 0.3334800589996239 -0.03365793263121669 -0.19473265470630044 0.12869733255250748 0 0 0 0
39604578 0.33374852259294663 -0.03385816192119969 -0.19447590547288446 0.1287786859209118 0 0 0 0
39637524 0.33375169412786343 -0.03366627860766711 -0.19452472266921045 0.12892211797935121 0 0 0 0
39670470 0.3338410431480122 -0.033766676262224245 -0.19433281457620558 0.12902905088324565 0 0 0 0
39703416 0.3338249910420267 -0.034028960179778966 -0.1945226748337809 0.129147094585051 0 0 0 0
39736362 0.3338607607388965 -0.034070888653378734 -0.19438884295438602 0.12917150916054013 0 0 0 0
39769308 0.3340615875661526 -0.034156604754928106 -0.19410276326111012 0.12925397304171546 0 0 0 0
39802254 0.3341430371609172 -0.03421872507680381 -0.19428105513922064 0.12956106259872105 0 0 0 0
39835200 0.3340738714242194 -0.033991714741247486 -0.19406844015749053 0.12941368444344367 0 0 0 0
39868146 0.33418425412850866 -0.03443426322467765 -0.19422802052705224 0.12960345283138025 0 0 0 0
39901092 0.334159687424993 -0.034405760209622854 -0.19396863142548187 0.12961556039509842 0 0 0 0
39934038 0.33429672289259105 -0.03456272595882919 -0.19385873227689146 0.1297050838779935 0 0 0 0
39966984 0.3343686970663693 -0.0347098749355899 -0.1939008043135651 0.12991134980949232 0 0 0 0
39999930 0.33437342539136533 -0.03468877949382083 -0.1936526030246927 0.13000223699256533 0 0 0 0
