! Differential S-parameters generated from single-ended measurements
# Hz S RI R 100
300000 -0.113006135894 0.0709670395144 0.298612649967 0.0717790785231 0.298400426396 0.068472730708 -0.329949747096 0.0443820402039
332946 -0.0928976886542 0.124272778046 0.308154178601 0.0784407541843 0.30945394013 0.0758277807126 -0.312135549047 0.103406780926
365892 -0.0538497216799 0.142493093807 0.313049217428 0.071362704723 0.315816846849 0.0680441071971 -0.273487305017 0.125176707306
398838 -0.0230681067234 0.139866706936 0.315889408243 0.0652640994918 0.318973781578 0.0608709653335 -0.243316247198 0.124482525929
431784 -0.0300850505459 0.150955345762 0.314524228433 0.0380102198292 0.313644969968 0.0400523860483 -0.254623033123 0.121899568848
464730 -0.0139173927771 0.141622890139 0.315772640415 0.0348954775157 0.315529694766 0.0372402847672 -0.238095457491 0.114432076211
497676 -0.00256000387442 0.131592118492 0.316357678627 0.0315346486643 0.316367574486 0.0341642207922 -0.228978207624 0.105640997977
530622 0.00553088746284 0.123025325749 0.316653139683 0.0288100559076 0.317076013608 0.0313932354467 -0.221424904074 0.0984593828436
563568 0.0117057242917 0.115657506521 0.317135271719 0.0262910324614 0.317781473804 0.0290680941231 -0.216019751189 0.0924451982383
596514 0.0166519577151 0.109248416692 0.317543712338 0.0245147262706 0.318420610569 0.0270484352356 -0.211426071743 0.0872515342288
629460 0.0206109071126 0.103240571709 0.31781600792 0.0217381824546 0.318869175766 0.0244741998691 -0.207855996358 0.0824280388926
662406 0.0237836308291 0.0978050707021 0.317979579901 0.0202171948492 0.319309717937 0.0228315784393 -0.205087562752 0.0782858707096
695352 0.0264484508598 0.0932385091662 0.318261368962 0.0186913048645 0.319677168219 0.0214053890669 -0.202547489172 0.0745568376213
728298 0.0286480593345 0.0890157233133 0.318297923381 0.0173889508858 0.319719860315 0.0199621721297 -0.200644723885 0.0711533898156
761244 0.030709608705 0.0851239733928 0.318046214016 0.015757521921 0.319539301764 0.0182080332987 -0.198571730299 0.0681000501162
794190 0.0323492292536 0.0814015758948 0.318305684183 0.0143380540452 0.319834425881 0.0168329942012 -0.196986221246 0.0651172609087
827136 0.033955243245 0.0781218235135 0.318789061363 0.0133878913525 0.320406580208 0.0157338760301 -0.195484843143 0.0622481701164
860082 0.0351581502124 0.0749455581979 0.318671872189 0.0126849349012 0.32038749858 0.0150598119685 -0.194314091945 0.059893655284
893028 0.0362963003592 0.0721108907764 0.318553799779 0.0112489644047 0.320254567467 0.0136169055894 -0.193244531166 0.0576797829369
925974 0.037177260473 0.0695209899762 0.318651958224 0.0105430351596 0.320421622123 0.0128750553382 -0.192391121343 0.055716732188
958920 0.0381346142306 0.0669263345251 0.318810436477 0.00972430098307 0.320511172787 0.0121643232433 -0.191398552292 0.0535821613852
991866 0.0388510997417 0.0647949588121 0.318800766354 0.00886433570877 0.320788974881 0.011066963565 -0.190778081526 0.0517138766509
1024812 0.0394936757651 0.0624953884545 0.318691837291 0.0079290153025 0.320370219609 0.0101883258258 -0.189941486597 0.0500210470527
1057758 0.0402619861446 0.060510839537 0.318872246447 0.00723241239537 0.320831894238 0.00960136770236 -0.189463676308 0.0484407349737
1090704 0.0405920774679 0.0585747208575 0.318898132372 0.0063635847395 0.320763461923 0.00870646994633 -0.189232709941 0.046788571043
1123650 0.0410870606346 0.0569241484457 0.318909580678 0.00576229441822 0.320780125693 0.008259325253 -0.188647508355 0.0455880160507
1156596 0.0416265743202 0.0553349312523 0.318714067975 0.0049762902487 0.320692353579 0.00720537799855 -0.188066772308 0.0441273634489
1189542 0.0423178143329 0.0537928979051 0.319171515753 0.00462591291134 0.320844555855 0.00696027637863 -0.187406754449 0.042756453613
1222488 0.0424893073088 0.0521741395472 0.318905214404 0.00415493576437 0.320674921726 0.0064215516844 -0.18716380264 0.0416629351421
1255434 0.0427183454244 0.0508333722178 0.318952152318 0.00339898312343 0.320779589229 0.00573933838716 -0.187078234031 0.0404188998314
1288380 0.0429625868836 0.0494610091976 0.318744020736 0.00263847705755 0.320679446072 0.00499885974165 -0.186755933678 0.0394116432697
1321326 0.0432627535669 0.0482867207722 0.318707449724 0.0022401425103 0.320856350779 0.00454956332693 -0.186329621275 0.0384476771456
1354272 0.0435752028592 0.0470972276501 0.318712764576 0.00191650833531 0.320812721343 0.00417166905812 -0.186256872997 0.0375849409629
1387218 0.0438013669059 0.0457740246648 0.318859161677 0.00122149571886 0.320777509268 0.00360124531385 -0.185872988957 0.0366114183057
1420164 0.0440391727189 0.0446343087374 0.318824355472 0.000744298828282 0.320828419964 0.00302774935709 -0.185613226155 0.0356230433982
1453110 0.0441864525771 0.0436317560354 0.318846637133 0.000408856245659 0.320949412983 0.00248935185168 -0.185468207067 0.034727932489
1486056 0.0440855846645 0.0427247710873 0.318530670021 -0.000178747552463 0.320760050443 0.002125518294 -0.185762438223 0.0339144819249
1519002 0.0443306738456 0.0417030752372 0.318822185428 -0.000573544403626 0.321051961648 0.00179407011748 -0.185581232778 0.0332758834764
1551948 0.0444863801522 0.0408992157821 0.318781989551 -0.000949635701016 0.320995715095 0.0014166258242 -0.185314428496 0.032581843041
1584894 0.0447149374417 0.0401215981318 0.318748729929 -0.00151522543361 0.320845175912 0.0011358636328 -0.185359901826 0.0318470972671
1617840 0.0447833437103 0.0393120366654 0.318674274824 -0.00193213475771 0.320871907842 0.000409408087111 -0.185255646574 0.0312756952331
1650786 0.0447493912743 0.0384332430386 0.318703272388 -0.00223230955986 0.320829349657 3.44806912794e-05 -0.185117302192 0.0307068286647
1683732 0.0447026321884 0.0376308197173 0.318830673216 -0.00257340851916 0.320896261185 -0.00015583439269 -0.185199471424 0.0300057593636
1716678 0.0448533463224 0.0370457773586 0.318843701173 -0.00289894456563 0.320893300228 -0.000625676478258 -0.185050430108 0.0294924440242
1749624 0.0450631390693 0.0364195391065 0.318793213541 -0.00326710961422 0.320923011458 -0.000981497644342 -0.18502209816 0.0291233185606
1782570 0.0451348457667 0.0356764422609 0.318796500816 -0.00362473925399 0.320772364328 -0.00136554165562 -0.184988791547 0.028585838697
1815516 0.0452296598358 0.0350179026347 0.31868154935 -0.00386068169006 0.320701734403 -0.00159102704219 -0.184852282992 0.02792645399
1848462 0.0452444132786 0.0343619459632 0.318552258977 -0.00425083779124 0.320771672166 -0.00202813249136 -0.184780172768 0.0275226934102
1881408 0.0453814681385 0.0337647694765 0.318549591846 -0.00470978568559 0.320883629234 -0.00239138173885 -0.184700716756 0.0270207536563
1914354 0.0452611782811 0.0333065958926 0.318481869372 -0.00507899593414 0.320705845924 -0.00280563360934 -0.184971390592 0.0267080091454
1947300 0.0453340457426 0.0328584186695 0.318720749789 -0.00515552557151 0.32107359226 -0.00281150558229 -0.184925641432 0.0263385185674
1980246 0.0452352416511 0.0322236860959 0.318522669447 -0.00569216060239 0.320634529821 -0.00345419416391 -0.184827036945 0.0259661395935
2013192 0.0454421785862 0.0318175525189 0.318607436444 -0.00591911368226 0.320860944394 -0.00351077803093 -0.184797288737 0.0255061072983
2046138 0.0453627696515 0.0313765192748 0.318602382372 -0.00625002793243 0.320768182777 -0.00383267464689 -0.184896227799 0.02523271396
2079084 0.0454423219895 0.0309341665145 0.318366963514 -0.00668185114385 0.320753243563 -0.0043470660672 -0.18480218324 0.0249928831032
2112030 0.0455112334509 0.0303916418097 0.318550831527 -0.00677063521599 0.320846520453 -0.00447066394835 -0.184766650843 0.0246412268405
2144976 0.0454683268635 0.0300205509113 0.318394932782 -0.00721504923986 0.320922149238 -0.0048898916427 -0.184889116446 0.0244464874706
2177922 0.045557859306 0.0297520843835 0.318307674408 -0.00747191116301 0.320970017851 -0.00492406912465 -0.18482037498 0.0241581958244
2210868 0.0454797943383 0.0292771470084 0.3185375212 -0.00779946053327 0.320837248561 -0.00529621081352 -0.184926851186 0.0239314931142
2243814 0.0454728658205 0.0288908294074 0.318224482694 -0.00799643428777 0.320857690045 -0.00575907647388 -0.184778648194 0.0235568502952
2276760 0.0455989371802 0.0284272552581 0.318470848699 -0.00825176959874 0.320728987287 -0.00611703583891 -0.184707369253 0.0231982237522
2309706 0.0455767250473 0.0281920451457 0.318482224169 -0.00843180463267 0.320819986484 -0.00609396624184 -0.184916074264 0.0231514784621
2342652 0.0456072072829 0.027798013235 0.318179683058 -0.00874399801009 0.320664025395 -0.00650037538391 -0.184987090817 0.0227578507198
2375598 0.0455738032025 0.0274434266284 0.3183147716 -0.00905828565718 0.32083287399 -0.00681750879308 -0.184741864092 0.0225429569666
2408544 0.0455795392755 0.0271345307451 0.318361385103 -0.00925644863533 0.320951934711 -0.00709851415831 -0.184800997754 0.022444710884
2441490 0.0455550949126 0.0269711838841 0.318178151692 -0.00954233500771 0.320961482694 -0.00733881374876 -0.184822976101 0.0222546287608
2474436 0.0454640660866 0.0266166039557 0.318357073529 -0.00985308056787 0.320843774562 -0.00756271083121 -0.18490868825 0.0221377615489
2507382 0.0457307307429 0.0263336009428 0.318138344627 -0.0101394357632 0.320663823109 -0.00780977432111 -0.184791431672 0.0219441979739
2540328 0.0458069867191 0.0260387300428 0.318297523568 -0.0103187905015 0.320764609735 -0.00810925198031 -0.184818676286 0.0218092461534
2573274 0.0455735788427 0.0258968981451 0.318223699796 -0.010476599449 0.320874200689 -0.00821029547937 -0.184938753067 0.0215230477805
2606220 0.0456007752122 0.0257120993281 0.318132566491 -0.0108289425506 0.320786846891 -0.00858794080148 -0.184987397131 0.021524506969
2639166 0.0456970051683 0.0254224964598 0.318106420356 -0.0113054757867 0.320903566645 -0.00893295679191 -0.184881929198 0.021360622244
2672112 0.0458189274298 0.0251469067714 0.318166073066 -0.0113991067077 0.320748060327 -0.00927495925316 -0.184685540571 0.0209913217263
2705058 0.0458596975646 0.0249738165295 0.318206683241 -0.0114809561555 0.320601328042 -0.00930312444766 -0.184742824668 0.0210870565471
2738004 0.0459108452821 0.0247391496374 0.318326908804 -0.0117091234094 0.320779729404 -0.0094983031095 -0.184826788629 0.0210534108516
2770950 0.045945280794 0.0245453122455 0.318209589228 -0.0120558501165 0.320743041516 -0.00977362481188 -0.184720217274 0.0209311824858
2803896 0.0457538199516 0.0243213440038 0.318141203551 -0.0121476707304 0.320643022103 -0.0100141476496 -0.184771944626 0.0208974395594
2836842 0.0457256880841 0.0240699787088 0.318089115806 -0.012469836966 0.320743560884 -0.0102129070663 -0.184757764504 0.0205121467603
2869788 0.0458332054976 0.0238990905254 0.318146777173 -0.0127801992844 0.320873304145 -0.0106374655515 -0.184636361649 0.0204701015063
2902734 0.0459373663918 0.0236650642485 0.318025553965 -0.0127953061645 0.320583942623 -0.0108234000406 -0.184892999651 0.0205976288814
2935680 0.0459108280429 0.0234615921243 0.318222863087 -0.0132791061352 0.320673253528 -0.0109211201898 -0.18484712669 0.0203270333835
2968626 0.0458205133198 0.0233308314596 0.318119649463 -0.0133273708914 0.320736820191 -0.0111512653303 -0.185004350638 0.0203202521992
3001572 0.0458594149927 0.0232411494513 0.318094281318 -0.0137237427431 0.320785820282 -0.0114737131575 -0.184717696406 0.0201831090322
3034518 0.0459701664443 0.0230091161927 0.317956602778 -0.0139331047289 0.320660508214 -0.0118554936572 -0.184659520135 0.0202493821568
3067464 0.0460053580735 0.0229289684016 0.318027710449 -0.0139874355332 0.320615384736 -0.0118529353438 -0.184901124719 0.0202155682081
3100410 0.045903270569 0.0228055485108 0.317934178983 -0.0141573479996 0.320645820978 -0.0119734947396 -0.184931998238 0.020046293059
3133356 0.0459172516011 0.0225311566341 0.318103768673 -0.0146385350036 0.32076291426 -0.0123198580814 -0.184622998663 0.0199487882814
3166302 0.0460768075552 0.0224308142315 0.317978471059 -0.0147933783443 0.320483058989 -0.0125713063724 -0.184632520418 0.0198355714266
3199248 0.0461492383843 0.0222821030973 0.318084799011 -0.0148398623395 0.320679896626 -0.0128530125545 -0.184630404613 0.0199223310257
3232194 0.0459532245678 0.0222280409897 0.317985795606 -0.0150999992441 0.320472411994 -0.0129841137402 -0.18461825404 0.0198973880768
3265140 0.0461145219193 0.0220792080534 0.317880202422 -0.0153120107197 0.320655474749 -0.013221950779 -0.184790555497 0.0197402761533
3298086 0.0459339434579 0.0218201965495 0.318019029524 -0.015541645342 0.320621039806 -0.0133764920237 -0.184782441154 0.0197072405572
3331032 0.0461508957804 0.0217292100248 0.317990548514 -0.0157715160173 0.320767743366 -0.0137047422836 -0.18456821754 0.0196227211745
3363978 0.0462275114545 0.0215761113214 0.317870720068 -0.015911462092 0.320491596866 -0.0139062178701 -0.184414196824 0.0195980377927
3396924 0.0462924097961 0.0215654772475 0.317977507274 -0.0160993501655 0.320534602791 -0.0140260377254 -0.184504010418 0.0196637362411
3429870 0.0461626402775 0.0214562493049 0.318109318291 -0.0164518355371 0.320631566983 -0.014457448956 -0.184543683441 0.0195829724324
3462816 0.0461835096273 0.021366949053 0.317904879821 -0.0163721622484 0.320525614726 -0.0143529851134 -0.184411375199 0.019523231557
3495762 0.0462829589006 0.0212316818692 0.318102201046 -0.016854488383 0.320766406072 -0.0147436765887 -0.1845932185 0.0194922786093
3528708 0.0462126388328 0.0211245247027 0.317744026799 -0.0170861453892 0.320397849559 -0.0149213184503 -0.184436248812 0.0193711005808
3561654 0.046562752263 0.0210436820692 0.317804137699 -0.0171467439873 0.320330816047 -0.0152754844117 -0.184529980631 0.0195321425947
3594600 0.0465203034183 0.0209490733608 0.317697445852 -0.0173597550856 0.320431128877 -0.0153729215875 -0.184521510779 0.019595489573
3627546 0.0465018488308 0.020681022472 0.31790334871 -0.0176976143087 0.320538337179 -0.0156374384813 -0.184373154934 0.0193560089417
3660492 0.0463793990434 0.0207901404386 0.31777518118 -0.0176509244367 0.320524626753 -0.0156184565004 -0.184457759242 0.0194688282711
3693438 0.0462844490693 0.0206435357731 0.317876987007 -0.0179442016346 0.320572199082 -0.0160226581431 -0.184406622476 0.0193799717843
3726384 0.0465273508079 0.0204607129019 0.31785311372 -0.0179987472269 0.320507175599 -0.016058199137 -0.184256173218 0.0192952672655
3759330 0.046343667112 0.0203230279857 0.3178092501 -0.0184524122668 0.320663050478 -0.016378012536 -0.184407013459 0.0193031123058
3792276 0.0466192847181 0.0203869101011 0.317750915896 -0.0186165127097 0.32053686072 -0.0165758820755 -0.18421288604 0.0192313581937
3825222 0.0467414765517 0.0200993256221 0.317699258558 -0.018719306028 0.320438147946 -0.0168121388867 -0.184120669851 0.0192142095523
3858168 0.0464685697728 0.0202339626988 0.317649999709 -0.0188339218566 0.320338648055 -0.0168375283001 -0.184300124593 0.0193365761873
3891114 0.0467115743724 0.0200500780323 0.317614470211 -0.0193090869352 0.320603649728 -0.0172367620942 -0.184139733346 0.0192171045301
3924060 0.0465347497912 0.0199335839403 0.317808599102 -0.0193926248569 0.320406462027 -0.0174689721277 -0.184209052628 0.01922430716
3957006 0.0467179061089 0.0199395755149 0.317530938174 -0.0197107186519 0.32038796556 -0.0175725492757 -0.18407449993 0.0191115895583
3989952 0.0469299053316 0.0198762397812 0.317744393457 -0.0198135100637 0.320277793103 -0.0177280511209 -0.183945656882 0.0191419652649
4022898 0.046815115963 0.0197538643145 0.317482202492 -0.0199401704645 0.320343273056 -0.0181317356903 -0.18394849749 0.0192420862059
4055844 0.0468901556345 0.0196514144621 0.317698049604 -0.0200668582975 0.320147963603 -0.0179844712334 -0.183969946404 0.0191955355567
4088790 0.0468410859142 0.0196978464283 0.31760817116 -0.0204068294326 0.320564773533 -0.0185139061779 -0.184066503932 0.0192311713691
4121736 0.0468307831859 0.0193511626746 0.317501815573 -0.0204609168004 0.32025818497 -0.0183747235679 -0.183924781145 0.0191041860085
4154682 0.0470447869765 0.0195132767333 0.317600248853 -0.0207038929394 0.320435935978 -0.0187526002084 -0.183871008227 0.0191272593108
4187628 0.0470581556002 0.0193790494777 0.317483214719 -0.0209031367662 0.32024868443 -0.0190529183431 -0.183802536946 0.0191117868313
4220574 0.0470890123916 0.0193040642422 0.317652286406 -0.0210297967793 0.320247701849 -0.0190971714409 -0.183735140623 0.019120240527
4253520 0.0469982264534 0.019198875618 0.31767667484 -0.021115356975 0.320162235175 -0.0192001866908 -0.18366731778 0.0192078178594
4286466 0.0469934873584 0.0191942963724 0.317687499371 -0.0216206319305 0.320346433351 -0.0195660423555 -0.183800264125 0.019146286767
4319412 0.047065907722 0.0191136793993 0.317459808004 -0.0215735836761 0.320223606845 -0.0196534358888 -0.183789885863 0.0191411673787
4352358 0.0472934862001 0.0190014513389 0.317615322994 -0.0217324683234 0.32050474087 -0.0199204135783 -0.183586047962 0.0192053719279
4385304 0.0471027178921 0.0188486904376 0.317582764509 -0.0220788404955 0.320303278479 -0.0199633418875 -0.18379153375 0.0190625294682
4418250 0.0471545039159 0.0190188194332 0.317309918643 -0.0221884698311 0.320299356753 -0.0202960455204 -0.183664671879 0.0191838986525
4451196 0.0475268482913 0.0188424244839 0.317490195015 -0.0222482278783 0.320355318894 -0.0205054813623 -0.183395338176 0.019139286311
4484142 0.0472882552332 0.0188114905962 0.317368404772 -0.0224713172592 0.32022416132 -0.0205936995645 -0.183605967126 0.0192513716807
4517088 0.0473584654066 0.0186731782697 0.317458173033 -0.0227028826395 0.320342854903 -0.0209846573187 -0.183564882314 0.0191335181885
4550034 0.0473620073743 0.0186543073017 0.317254321302 -0.0228176776576 0.320106318925 -0.020998104004 -0.183387198412 0.019067558569
4582980 0.0475125690552 0.0185592345915 0.317419223681 -0.0229271082671 0.320245962846 -0.0212449687826 -0.183362968627 0.0191267770595
4615926 0.0473947520997 0.0185645698761 0.317601767403 -0.0235469685465 0.320422443028 -0.0214214376881 -0.183404721289 0.0191167247889
4648872 0.0474170825984 0.0185337878141 0.317071699793 -0.0232970107937 0.320100433567 -0.021492699576 -0.183285021705 0.0192465419816
4681818 0.0476039919312 0.0185098505813 0.317315175442 -0.023652808283 0.320053278156 -0.0219758965408 -0.183253871783 0.0192508003966
4714764 0.0476679586386 0.0184435407872 0.31750846097 -0.0238383985051 0.320247185195 -0.0221497654065 -0.183274973406 0.0190972227555
4747710 0.0475592036881 0.0183570165496 0.317590367204 -0.0239364491322 0.320365798336 -0.0221876727967 -0.183251609252 0.0191376555272
4780656 0.0476367155048 0.0182486326241 0.317367854874 -0.024126024555 0.320191473444 -0.0224020740497 -0.18309004831 0.0191627322846
4813602 0.0476445611454 0.0182082166346 0.317234094225 -0.0242470465047 0.320254774606 -0.0224246315264 -0.183178507946 0.0192370172786
4846548 0.0476436453826 0.0183374317515 0.317442403354 -0.0246641086213 0.320121525308 -0.0228886912766 -0.183003033946 0.0191852505216
4879494 0.0477424133992 0.0181262571754 0.317304673524 -0.0247066895162 0.320093552974 -0.0228282365088 -0.1831602341 0.0191001060175
4912440 0.0477756986139 0.0180969149648 0.31734340297 -0.0247588219277 0.32019852583 -0.0228584665498 -0.183002650504 0.0192495326209
4945386 0.0479386367977 0.0179934381073 0.317432004274 -0.0250880942963 0.320194274857 -0.0234286454438 -0.182916386434 0.0190459481426
4978332 0.0479220994522 0.0180679077458 0.317337164757 -0.0252915290549 0.320248241918 -0.0234681947644 -0.182764199174 0.0192645517426
5011278 0.0479585964551 0.0179236683151 0.317144046664 -0.0253491696297 0.320021382474 -0.0237600042106 -0.182932899547 0.0191307396524
5044224 0.0479913323927 0.0179095569178 0.317260815537 -0.0255820146291 0.319958759234 -0.0240353589944 -0.182825228302 0.0192276845968
5077170 0.0480885367016 0.0178898283092 0.317374810028 -0.0256317453103 0.31999352747 -0.0240351941267 -0.182819416916 0.0191561785479
5110116 0.0478811505653 0.0177970998752 0.317126233814 -0.0259089166284 0.319903958611 -0.0239114269154 -0.18295844653 0.0192051640359
5143062 0.0481487029571 0.0177655818248 0.31726602456 -0.026054889404 0.320090176971 -0.0242665488253 -0.182546866676 0.019191596132
5176008 0.0480282145696 0.0176591229544 0.317170712435 -0.0263314991206 0.320152819083 -0.0245920855965 -0.182560304575 0.0192212329768
5208954 0.0481838962132 0.0177511054583 0.317372185412 -0.0264211743198 0.320181414631 -0.0247345637761 -0.182727136557 0.0191874082928
5241900 0.0483010198885 0.0177854695729 0.317178735291 -0.0266293960614 0.320078059643 -0.0250130333473 -0.182576651297 0.0191822456698
5274846 0.0482515713413 0.0175338996024 0.317352491675 -0.0268203656647 0.320126769306 -0.0251068103617 -0.182504904368 0.0192854812906
5307792 0.0483079165154 0.0174234773003 0.317257776724 -0.0268212346918 0.319894699589 -0.0250808135793 -0.182458570083 0.0191166607
5340738 0.0483698026559 0.0176030700745 0.317270978367 -0.027229382328 0.320049999084 -0.0255607746031 -0.182498709198 0.0192817589546
5373684 0.0482686174444 0.017417930892 0.316978674596 -0.0271352683021 0.319987396229 -0.0254979766699 -0.182339176582 0.019235653341
5406630 0.0482872844238 0.0174688160237 0.317343134113 -0.02750213353 0.320059193646 -0.0257482157659 -0.182513963322 0.019332690005
5439576 0.0484988320562 0.0174866405073 0.317241429843 -0.0275678524955 0.319968400625 -0.0259586650146 -0.182420753415 0.0193794715765
5472522 0.0484997445109 0.0173519096808 0.317167431733 -0.0278105603496 0.319919618714 -0.0261024340503 -0.182361395539 0.0191560320218
5505468 0.048506888622 0.0173469438413 0.316892747625 -0.0280517260064 0.319787839289 -0.0263636821966 -0.182322161591 0.0192481554905
5538414 0.0486092467543 0.0171090965736 0.317094827663 -0.0282135774827 0.319718715892 -0.0264147818764 -0.182311912748 0.0191010029142
5571360 0.0485630090742 0.0171883855725 0.317013950172 -0.028177363105 0.319879130701 -0.0264011468877 -0.18225298465 0.0193037537906
5604306 0.0486153173799 0.017129246692 0.317110165051 -0.0283400772998 0.319837803121 -0.0266625827788 -0.182185813152 0.0193217476275
5637252 0.0486377832711 0.0171316696922 0.316968886131 -0.0285691501984 0.319744914506 -0.026865666154 -0.182215657018 0.0191291250059
5670198 0.0487150246719 0.016949076076 0.317101567786 -0.0289669057982 0.319917173604 -0.0271969367487 -0.18206704543 0.0192001846641
5703144 0.0486528384675 0.0169662458232 0.316829867159 -0.0288743948325 0.319963731544 -0.0271082266269 -0.182060020761 0.0191982640343
5736090 0.0486207935559 0.0169050681924 0.316896326849 -0.0289746257165 0.319958817017 -0.0272507304931 -0.182005312822 0.0192145471118
5769036 0.0487656843395 0.0169760925647 0.317052353296 -0.0293189871378 0.319836971554 -0.0277334024486 -0.182071752658 0.0192635327958
5801982 0.0490505227213 0.0166607279416 0.317184788746 -0.0293130287098 0.319576233374 -0.0275837147948 -0.181889827284 0.019154177844
5834928 0.048949865976 0.0168647947697 0.316937462703 -0.0295634764986 0.319752643778 -0.0278806885143 -0.181966633759 0.0191421091475
5867874 0.0488772281523 0.0168584541363 0.317010166723 -0.0296682923837 0.319732190003 -0.0280919217956 -0.182092504092 0.0192591504681
5900820 0.0488499183556 0.0167408393336 0.316808251258 -0.0298251080996 0.319821652219 -0.0282515109006 -0.181814051717 0.0191079878312
5933766 0.0490272262654 0.0166843756056 0.317098450697 -0.0301594308175 0.319791259653 -0.0283817588548 -0.181880975907 0.0191669621462
5966712 0.0489777975223 0.0166643045737 0.316930532413 -0.0302939144589 0.319775340718 -0.0285077525197 -0.181897757322 0.0190705264071
5999658 0.0490323982048 0.0166066559663 0.317288086404 -0.0303737867759 0.319820190308 -0.0286691705652 -0.181822455348 0.0190767310199
6032604 0.0491871674609 0.0164086109874 0.316819569272 -0.0303119170376 0.319763694895 -0.0285844197851 -0.181827516839 0.0190997013944
6065550 0.0491368923743 0.0165487221347 0.317072090144 -0.0305844822696 0.319843759147 -0.0290186765198 -0.181645567358 0.0189527618371
6098496 0.0491005322648 0.0165822817592 0.317100188905 -0.0307652351719 0.319832851593 -0.0292022252416 -0.181824251674 0.0190738140767
6131442 0.0491188377913 0.0163993739439 0.316851378442 -0.0309069760268 0.319726582553 -0.0293589956899 -0.181552132526 0.0189948541255
6164388 0.04916226463 0.0163874622395 0.316993837105 -0.0310658149747 0.319586205305 -0.0295788436219 -0.181756893275 0.0189200828269
6197334 0.0491817845089 0.0162504609684 0.316787031371 -0.0310220963318 0.319665977595 -0.0293864268926 -0.181672062464 0.0189652723202
6230280 0.0493252722678 0.0161837100585 0.317044322995 -0.0312565513903 0.319745090001 -0.0295968517689 -0.181507856326 0.0190454304144
6263226 0.0493298894289 0.0161794212908 0.316859922833 -0.0314714564612 0.319708124915 -0.0298211529402 -0.181670535391 0.01884572724
6296172 0.0492682159475 0.0162677051476 0.316808186562 -0.0316026193108 0.319824097317 -0.029963954635 -0.181666001214 0.018902585882
6329118 0.0493465321822 0.0160471570278 0.317092423945 -0.031590033729 0.319752640576 -0.0300805332261 -0.181727208368 0.0187663224855
6362064 0.0493522668128 0.0160262008138 0.317043442594 -0.031690566038 0.319686382348 -0.0300612884866 -0.181596468964 0.0186825812685
6395010 0.0494010203915 0.0158773539825 0.317116759098 -0.0318215392778 0.319859129712 -0.0300925917864 -0.181608007077 0.0187684049265
6427956 0.0492950540275 0.0158261744694 0.317115052612 -0.031879550174 0.31999134293 -0.0303317888898 -0.181665701174 0.0186541136954
6460902 0.049197024961 0.0157941309803 0.316947589961 -0.0320959611816 0.319685478164 -0.0306013849919 -0.181871250753 0.0184884871008
6493848 0.0491797448763 0.0157845903944 0.316970494688 -0.032187345958 0.320008933507 -0.0306437714844 -0.181768675825 0.0184430955833
6526794 0.049282330242 0.0156357220575 0.31702479443 -0.0320143765898 0.320089246211 -0.0305784914632 -0.181812757013 0.0183201562568
6559740 0.0493549488908 0.0155074878169 0.31717285209 -0.0323703765056 0.320077007548 -0.0307239245971 -0.182033954416 0.0181678098975
6592686 0.0493536596586 0.0154930527364 0.317345488849 -0.0322951730885 0.320038216126 -0.0307387355089 -0.18194465408 0.0181132753834
6625632 0.0492410298756 0.0153389548092 0.317427696411 -0.0323351631587 0.320245497279 -0.0307393539009 -0.181910429352 0.0180379984671
6658578 0.0493030289908 0.0152370048859 0.317619456205 -0.0326248434771 0.320237303078 -0.0309775136398 -0.182212055261 0.0178381613987
6691524 0.0491179498709 0.0150980963701 0.317611652838 -0.0326387942423 0.320530653284 -0.0311041011327 -0.182364797528 0.017540633523
6724470 0.0490598271929 0.0150717610354 0.317708693597 -0.0324686077371 0.320485564802 -0.0310711310993 -0.182685337743 0.0175317637003
6757416 0.0488798359684 0.0150306387969 0.318058481475 -0.0325607758015 0.320657096882 -0.0309731979314 -0.182955202345 0.017311784505
6790362 0.0489068250254 0.014709103631 0.318249574667 -0.0324465612068 0.321011047899 -0.0310247429585 -0.183135962394 0.0171202508733
6823308 0.048644357801 0.0147079068041 0.31867743862 -0.0324878303293 0.321187285414 -0.0311181463294 -0.183541169238 0.0170287094219
6856254 0.0483842498689 0.0146772557979 0.318882048261 -0.0327153165255 0.321877516467 -0.0312597412272 -0.184257951247 0.016833367065
6889200 0.0480182118463 0.0146089611115 0.319530062558 -0.0327796428983 0.322334784797 -0.0313544087512 -0.184970118516 0.0167408214797
6922146 0.0466650331695 0.0159381042963 0.319262494001 -0.0310027109759 0.32293887598 -0.0311556980665 -0.185873849172 0.0163579771701
6955092 0.0462577481731 0.0161782428862 0.320054634934 -0.031205670561 0.323541828234 -0.0314886613278 -0.186553082373 0.0166975342819
6988038 0.0457191123741 0.0163738622947 0.321054738815 -0.0320221540722 0.324302901546 -0.0321093874024 -0.187761512534 0.0171286708134
7020984 0.0452903568951 0.0168468123374 0.321820862347 -0.0329498556993 0.325077328321 -0.0332159698588 -0.188626938758 0.0184279552976
7053930 0.0449218558387 0.0175850765149 0.322339324478 -0.0345628033877 0.325530571485 -0.0344913497459 -0.189434399602 0.0199331490105
7086876 0.0449884554559 0.0184368931916 0.3224839894 -0.0358051769549 0.32577373868 -0.0360237402981 -0.189463584408 0.021716695058
7119822 0.0451662390987 0.0193173973973 0.32179791475 -0.0373772311286 0.325372567665 -0.0374704481508 -0.188907769424 0.0236731069614
7152768 0.0456320568428 0.0199309429383 0.321139826642 -0.0384838236338 0.32450467874 -0.0384175269761 -0.187925198945 0.0249157081837
7185714 0.0462271149432 0.0203895356204 0.320100803058 -0.0393382504084 0.323536034279 -0.0394699404938 -0.186647955083 0.0259772483929
7218660 0.0468773875771 0.0204412946903 0.318975221319 -0.0396213930735 0.322689403895 -0.039734201759 -0.185237356183 0.0260975152437
7251606 0.0475109807183 0.0205135023452 0.318085187661 -0.0399923334319 0.321549145456 -0.0399088744688 -0.184220688393 0.0262697494177
7284552 0.0479119561328 0.0203254961265 0.317470940169 -0.0399550706982 0.321004109675 -0.0400460356271 -0.183389586064 0.0260796545813
7317498 0.0484015919014 0.0201831354216 0.317253902647 -0.040090487482 0.32074144674 -0.0401221711933 -0.182631763908 0.0259090888242
7350444 0.0485460471607 0.0201238478896 0.316862544749 -0.0404189320392 0.320447947127 -0.0401327747219 -0.182049153082 0.0258125739605
7383390 0.0488246642428 0.0199101752486 0.316428663917 -0.0400173485247 0.319916933207 -0.0401968437837 -0.181704009126 0.0256141391502
7416336 0.0490408123796 0.0198334598093 0.315943465284 -0.0399507749223 0.319704898315 -0.0399695528512 -0.181126172891 0.0251526720187
7449282 0.049334931821 0.0197691933793 0.316107490921 -0.0400497841769 0.319563573206 -0.0401310064071 -0.180949854317 0.0251017969871
7482228 0.0493469809156 0.0195189097772 0.315781358478 -0.0400230058316 0.319228322555 -0.0400634727614 -0.1805143351 0.0249538819834
7515174 0.0494494474674 0.0195447169514 0.315356068635 -0.0400108327967 0.318981998522 -0.040007330559 -0.180441122352 0.0246132343258
7548120 0.0495470027647 0.0194428413582 0.315453063133 -0.0401695431245 0.319111019335 -0.0403351628717 -0.180329044559 0.0246178375902
7581066 0.0497307313676 0.0193264893271 0.315370162628 -0.0399631014904 0.318790680618 -0.0401198905992 -0.18006148592 0.0243478165712
7614012 0.0497790271144 0.0191995011385 0.315426668794 -0.0400894606503 0.318871927963 -0.0403850441038 -0.179948524366 0.0242436597519
7646958 0.0497550162195 0.0191356682867 0.314883920574 -0.0401655914376 0.318648988552 -0.0403072695471 -0.179814690817 0.0241562890667
7679904 0.0500109869993 0.0190508087806 0.315262824841 -0.0402874050281 0.318777676619 -0.0404960257477 -0.179767526681 0.0241369435162
7712850 0.049991605411 0.0190135537057 0.314706468479 -0.0403543942947 0.318452508123 -0.0404933097238 -0.179603852058 0.0239902211276
7745796 0.0500492008213 0.0188888015082 0.314887331167 -0.040265969026 0.318542500881 -0.0404930359987 -0.179581439709 0.0239200907046
7778742 0.0500920065684 0.0187496355807 0.314972509048 -0.040749480291 0.31840925874 -0.0406817265229 -0.179507725388 0.0237843990901
7811688 0.0502454597499 0.018674001848 0.314959406113 -0.0407760503815 0.318438580825 -0.0409373143299 -0.179415933982 0.0237746380187
7844634 0.0502355713424 0.018570532267 0.314718886414 -0.0406741415242 0.318392800391 -0.0410221969051 -0.17937997857 0.0236041462019
7877580 0.0502684085398 0.0186159525933 0.314566032956 -0.0407768968232 0.318366699142 -0.0410132396295 -0.179265577404 0.0235683012978
7910526 0.0503762830375 0.0185821228877 0.314795573593 -0.0410447519269 0.318200575796 -0.0411905998015 -0.1791869405 0.0235850700739
7943472 0.0502265526761 0.0186861871624 0.314511051753 -0.0411469561924 0.318072057382 -0.0412582961033 -0.179161775199 0.0235826896355
7976418 0.0504444470493 0.0184510102946 0.314654017288 -0.0412596540583 0.318148502096 -0.041284729311 -0.179135455023 0.0235773255682
8009364 0.0504768382983 0.0184397494534 0.314643086842 -0.0412396802562 0.318267658642 -0.0415490481179 -0.178958335018 0.0234950694736
8042310 0.0505765850288 0.0184178950452 0.314574246111 -0.04134290997 0.318126964664 -0.0416453323299 -0.178992370785 0.0233742943082
8075256 0.0505709632725 0.0184464680027 0.314497756431 -0.0414796121287 0.318029503696 -0.0415238104207 -0.178939153718 0.0235521637523
8108202 0.0506314724107 0.0184626785095 0.314503306114 -0.0416352754286 0.317774336057 -0.0417792485203 -0.178811392929 0.0234495351056
8141148 0.0507158593636 0.0182987556226 0.31444518783 -0.0417841317862 0.318040547668 -0.0419050569967 -0.178875904347 0.0233901971894
8174094 0.0507442586115 0.01836030666 0.314461445689 -0.042001623572 0.317713443218 -0.0421274481817 -0.178712413507 0.0234301050064
8207040 0.0507721509033 0.0182256810956 0.314547299256 -0.0422700707219 0.318005686772 -0.0422784221144 -0.17865777382 0.0233448721966
8239986 0.0508050114762 0.0181775130232 0.314183780461 -0.0422897366283 0.317770806233 -0.0422616079457 -0.178642550987 0.0232642304498
8272932 0.0508529462621 0.0182171966413 0.314078255716 -0.0422624521469 0.317910357453 -0.0426704125836 -0.178600704695 0.0233531303047
8305878 0.0508023456263 0.0182183222722 0.314275183486 -0.0425664719836 0.317774103771 -0.0425907256217 -0.178602263911 0.0232733655682
8338824 0.0508475666242 0.0181015084239 0.314257230134 -0.0426265607922 0.317861979825 -0.0427965028987 -0.178601605662 0.0232738509577
8371770 0.0508764842633 0.0181065012774 0.314174426009 -0.0428548216246 0.317703959462 -0.0429563127418 -0.178528905468 0.0233852654737
8404716 0.0510436765578 0.0180019785484 0.31422630473 -0.042924874858 0.317792716049 -0.0432081384391 -0.178510691372 0.0233333607617
8437662 0.0510609768407 0.0180704416921 0.314175910133 -0.0429004066462 0.317661716945 -0.0431462203035 -0.178407259624 0.0232991664241
8470608 0.0510679700425 0.0179799554737 0.314092148242 -0.0432022690624 0.31750518218 -0.0433314499027 -0.178238353241 0.0232402632279
8503554 0.0511142246045 0.0179886413072 0.314064235525 -0.0434077638388 0.317553247938 -0.0435868812934 -0.178323566988 0.0232362473395
8536500 0.0510683594023 0.0180286111896 0.314040962299 -0.043388597208 0.317660949143 -0.0436053935169 -0.17835355689 0.0232107335477
8569446 0.0511782695366 0.018015195838 0.313951904714 -0.0438998437758 0.317543685077 -0.0439552508103 -0.178197654216 0.0233657713736
8602392 0.0511750679681 0.0178868078032 0.31389711505 -0.043908757115 0.317600096072 -0.0440976454082 -0.178220652687 0.0232366991935
8635338 0.0513111769768 0.01794463629 0.313926590211 -0.0440020755837 0.31738572735 -0.0441386646388 -0.178190840614 0.0234878674415
8668284 0.0512064874853 0.0179009439026 0.313817224301 -0.0440666991657 0.317602580991 -0.0445302993189 -0.178115721125 0.0232535354547
8701230 0.0512544711678 0.0179077880499 0.31372191586 -0.0441731648008 0.317437243633 -0.0443867085213 -0.178065175961 0.0233024438071
8734176 0.051450641626 0.0178096980008 0.313898348755 -0.0444722770698 0.31754921222 -0.0447006568794 -0.178069316881 0.0233379865875
8767122 0.0514196381974 0.0178617952455 0.313820375094 -0.0446897687009 0.317516997114 -0.0448894471977 -0.178039189291 0.0233962509523
8800068 0.0514860297316 0.0177607379477 0.313792001642 -0.044818776876 0.317259765911 -0.0449307232084 -0.177884315209 0.0234128330654
8833014 0.0514546538172 0.0177410604336 0.31391886994 -0.044859949281 0.317332118045 -0.0451862725705 -0.177845944065 0.0233177318412
8865960 0.0515497406105 0.0177350641021 0.313745660798 -0.0451122748071 0.31746320106 -0.04546249595 -0.177772528911 0.0233380405302
8898906 0.0516455823842 0.0177136742272 0.313589568205 -0.0452200720216 0.317418854121 -0.0454833529857 -0.177946894062 0.0234496829984
8931852 0.0515835008859 0.0177857872318 0.313667408748 -0.0455141805663 0.31714535366 -0.0456824353469 -0.17768366167 0.0234359940121
8964798 0.0516150794059 0.0177779439649 0.313569838442 -0.0456205195279 0.317094181504 -0.045788614151 -0.177668098366 0.0234510497598
8997744 0.0516318393157 0.017628448262 0.313783629463 -0.045725529773 0.317409749508 -0.0460662974878 -0.17774106085 0.0234277668046
9030690 0.051759299678 0.0177340827887 0.313706491574 -0.0458298263751 0.31711499367 -0.0461046416285 -0.177647808538 0.0234128231311
9063636 0.0516963378683 0.0177654292409 0.313379101092 -0.0458968052756 0.317243615091 -0.0463496564139 -0.177704750435 0.0234329497411
9096582 0.0517464078928 0.0176211386643 0.313541108205 -0.0460890440864 0.317064691453 -0.0464635322713 -0.177641293956 0.0234768519448
9129528 0.051874941813 0.0176092011283 0.313499647615 -0.0462679693888 0.317075315945 -0.0464793364077 -0.17769135005 0.0235140566103
9162474 0.0518987762539 0.017612051467 0.313625201642 -0.0464538465412 0.317149751733 -0.0468403177641 -0.177439142679 0.0234436625559
9195420 0.0519352591418 0.0176114053284 0.313477000777 -0.0466298772545 0.31715692541 -0.0468658085354 -0.177440226761 0.0234516670867
9228366 0.0519833065942 0.0175394118543 0.313386022206 -0.0468408242933 0.317009814469 -0.0471217558046 -0.177434739969 0.0235481478499
9261312 0.0519597942855 0.0176224467899 0.313408129704 -0.0468759464147 0.317164655675 -0.047278497281 -0.177494092964 0.0235608500218
9294258 0.0519992072268 0.0175194931987 0.313279989395 -0.0470966068424 0.316893876626 -0.0474968394968 -0.177369161002 0.0235989987883
9327204 0.0520371739034 0.017555226904 0.313256791437 -0.0474801383534 0.316764289659 -0.0476198420211 -0.177374989134 0.0235726224386
9360150 0.0521118164772 0.0175036386256 0.313278495026 -0.0474566957591 0.31685860607 -0.0476596902851 -0.177364018305 0.0236678891106
9393096 0.0520272603237 0.0175849003453 0.313214625099 -0.0475560345014 0.316756001829 -0.047890877169 -0.177280152894 0.0236606659361
9426042 0.0521348651569 0.0174304087817 0.313262317165 -0.0478266503332 0.316884369802 -0.0480851330391 -0.177273881458 0.0236684997359
9458988 0.0521471241837 0.0175104225773 0.313226185266 -0.0478823535159 0.316616762085 -0.0481244249783 -0.177169184083 0.0236036081473
9491934 0.052248539968 0.0174953353107 0.313024655117 -0.0480199642212 0.316803901078 -0.0485797714105 -0.177091351245 0.0236697569587
9524880 0.052304475312 0.0175421828361 0.313106136098 -0.0481389936173 0.316652376244 -0.0484150933964 -0.177206761098 0.0237208194643
9557826 0.0522857295959 0.0174519615565 0.313102162218 -0.0484342032379 0.316778392765 -0.0486191421613 -0.177172531095 0.0236981127986
9590772 0.0522629501637 0.0174740654793 0.312996546311 -0.0486689670368 0.31660119994 -0.0489499119044 -0.177089909789 0.0238059603415
9623718 0.052405978575 0.017319814669 0.313029771851 -0.0488872298089 0.316668067258 -0.0491226717508 -0.177067604812 0.0236560670427
9656664 0.0524528961577 0.0173572326101 0.312973277689 -0.0488709305463 0.316673997751 -0.0492463960036 -0.177021426675 0.0238868859331
9689610 0.0525000232901 0.0173501846904 0.312962881894 -0.0488624071923 0.31658801027 -0.049339830467 -0.1770062402 0.023840951443
9722556 0.0525107839817 0.0173326288544 0.313034581367 -0.0491734754047 0.316472785718 -0.0493767212954 -0.176997621236 0.0237765332586
9755502 0.0525803719049 0.0173616927728 0.312898526461 -0.0492832811889 0.316370496 -0.0496720746725 -0.17697990882 0.0239325410039
9788448 0.0524739580802 0.0173694842542 0.312916143347 -0.0495484413514 0.31644134356 -0.0497896120716 -0.176823616284 0.0238279396204
9821394 0.0525804511431 0.0172898214353 0.312695574866 -0.0496163895828 0.316443326391 -0.0500019861123 -0.176832175604 0.0239267905306
9854340 0.0526813028759 0.0172662034491 0.312817224038 -0.0497790588688 0.316465466524 -0.0502407288464 -0.176652244255 0.0238715187365
9887286 0.0527341934851 0.0172312461536 0.312706671224 -0.0498980817882 0.316375073382 -0.0501820184395 -0.176866162102 0.024038839702
9920232 0.0525178126102 0.0173630257894 0.312813434198 -0.0500928244138 0.316345895518 -0.0505037406721 -0.176793454987 0.0240414525019
9953178 0.0525817962291 0.0173300779275 0.312714000509 -0.0504114685913 0.316234999147 -0.0507792457519 -0.176843436859 0.0239462819038
9986124 0.0526493317636 0.0173210871848 0.312753965027 -0.0505633418496 0.316282934013 -0.0508273189236 -0.176645661507 0.0239940815465
10019070 0.0527923014428 0.0173507150887 0.312565451402 -0.0507110144286 0.31614574764 -0.0509634289649 -0.176611466337 0.0240947642294
10052016 0.0528932679976 0.0171837815414 0.312586092019 -0.0506163968639 0.31617025096 -0.0511562469247 -0.176537404522 0.0240535666671
10084962 0.0528327636609 0.0172084064294 0.312566706794 -0.0508266242927 0.316168247522 -0.0513082194714 -0.176763295853 0.0241544505637
10117908 0.0527950710726 0.0172974480869 0.312573450616 -0.0511511528372 0.316096241574 -0.0514620028263 -0.176620160731 0.0240636883476
10150854 0.0529346357013 0.0171743275184 0.312563980516 -0.051320938718 0.31607953362 -0.0516986216662 -0.17658631565 0.0241950235782
10183800 0.0529904540552 0.0171669779835 0.312551617857 -0.0515725041086 0.316018127068 -0.0518577878011 -0.17651617568 0.0241377149916
10216746 0.0529675857781 0.0172817644289 0.312569967732 -0.0516504690562 0.316132452375 -0.051984417896 -0.176401955161 0.0242045436184
10249692 0.0530220812632 0.0172582769687 0.312289887589 -0.051807172073 0.316137280993 -0.052117602762 -0.176402752497 0.0242760487502
10282638 0.0530152111246 0.0171166665328 0.312551735836 -0.0518495371737 0.316000104145 -0.0522338190515 -0.176614291861 0.0242986275581
10315584 0.0530144129201 0.0171725744424 0.312219833375 -0.0521271836428 0.315883962447 -0.0523785885264 -0.176377681412 0.0243353334665
10348530 0.0530671740458 0.0171946537356 0.312231766539 -0.0520678884867 0.316062620849 -0.052570387112 -0.176373604084 0.024285763617
10381476 0.0532465658749 0.0171136385525 0.312398132556 -0.0523276153618 0.315834932271 -0.0528787595824 -0.176324788474 0.024346449604
10414422 0.0531606222468 0.0170790074114 0.312340387776 -0.0525890528958 0.315951503981 -0.0530301962822 -0.176336426564 0.024293874115
10447368 0.0531811662278 0.0171101223008 0.312217451121 -0.0525844542445 0.315789780995 -0.0532066772392 -0.176282448741 0.024334304495
10480314 0.0533069019782 0.0170204560108 0.312145852493 -0.0528843078518 0.315742826962 -0.0531191071416 -0.176234232261 0.0243898365585
10513260 0.0532251168991 0.0171834738688 0.312039901875 -0.0529980641456 0.315646529311 -0.0533596458625 -0.176262547254 0.0243999305762
10546206 0.0534048111736 0.0170791217448 0.312072523246 -0.053228863495 0.315513504551 -0.0537122989361 -0.176122683249 0.0243976302248
10579152 0.0533854359175 0.0171738535276 0.312215128559 -0.0534176341302 0.315717805466 -0.0536935551817 -0.176087208374 0.0245094291476
10612098 0.0532729218461 0.0171117510704 0.312082913831 -0.0536015270555 0.3156897719 -0.0539391831772 -0.176205350658 0.0245952323351
10645044 0.0534187866839 0.017072783437 0.311867200648 -0.0536353487151 0.315529523502 -0.0540812179299 -0.176183361616 0.0245883884253
10677990 0.0534258146151 0.0170518513191 0.311840983977 -0.0538999683796 0.315446353462 -0.0541327282779 -0.176003649112 0.0246980731534
10710936 0.0534575876101 0.0171207424297 0.312171953204 -0.05404129881 0.315557840067 -0.0546165940132 -0.176162411658 0.0246335005442
10743882 0.0534822200815 0.0170621019679 0.311727297038 -0.0542420528356 0.315501628014 -0.0547518881936 -0.175978323516 0.0246308970705
10776828 0.0536129447333 0.0170219412132 0.311774817115 -0.0542074639089 0.315356857418 -0.0548377240674 -0.17589338492 0.0246574956704
10809774 0.0535888784784 0.0170791739607 0.311742037699 -0.0545392068685 0.31542130418 -0.0548679186089 -0.175885695062 0.0247226772008
10842720 0.0535848421779 0.0169894978993 0.3117637719 -0.0546187322874 0.315396123268 -0.0549847529607 -0.175830900314 0.0246905146892
10875666 0.0537366105455 0.016988884966 0.311685133288 -0.0548514459754 0.315215085234 -0.0552868701782 -0.175751433372 0.0246428283416
10908612 0.0535429540529 0.0171038750724 0.311736970559 -0.0548620829028 0.315364193513 -0.0554142599 -0.176083062718 0.0248379726694
10941558 0.0537479080904 0.0169522154293 0.311648347199 -0.0550576430028 0.315200676156 -0.0556241719398 -0.175858374018 0.0248519059889
10974504 0.0537132794026 0.0169501218542 0.311621494017 -0.055134216307 0.315230064467 -0.0558053526438 -0.175926918994 0.0248285180114
11007450 0.0537337880516 0.0169095515568 0.311524270724 -0.055513685087 0.315250866803 -0.0558544166379 -0.175673362234 0.0248243830443
11040396 0.0537695411711 0.0169687829471 0.311574228107 -0.0554963840418 0.315110327371 -0.0559580747606 -0.175879017581 0.0248488800234
11073342 0.0538942291755 0.017013408804 0.311735920862 -0.0558720397422 0.315148297848 -0.0562825058083 -0.175662233983 0.0249288868891
11106288 0.0538725670994 0.0169959463128 0.31139202001 -0.055972775236 0.315042569905 -0.0564735345413 -0.175522175821 0.0249017286807
11139234 0.0539003303134 0.0169744764149 0.311497981939 -0.0561067820837 0.31509563308 -0.0565609619833 -0.175702221106 0.0250477027455
11172180 0.0539949367423 0.0169314144684 0.311399172364 -0.0561175065982 0.315133197054 -0.0566755041995 -0.175608779415 0.0250364906162
11205126 0.054014846255 0.0169033785136 0.311341506477 -0.0562466904278 0.314943701569 -0.0569109395382 -0.17555826071 0.0249696959742
11238072 0.0540901727006 0.0169625427499 0.31132910973 -0.0565555368806 0.314843060022 -0.0570160110522 -0.175654611648 0.0251043535553
11271018 0.0538993578455 0.0169227944742 0.311386350728 -0.056617244135 0.315114276892 -0.0570683881122 -0.17553350281 0.0251040216876
11303964 0.0540450344481 0.0168325279293 0.311378708943 -0.0569398599229 0.314785768272 -0.0573230580104 -0.175563620995 0.0250827060792
11336910 0.0541057419963 0.0169697039617 0.311276657877 -0.0571200587621 0.314660282689 -0.0576168451734 -0.175318799255 0.025121299216
11369856 0.0540497919295 0.0169220486972 0.311162308837 -0.0570886239751 0.314719011834 -0.0577461061631 -0.175324164135 0.0251807232041
11402802 0.054276194977 0.0168647443741 0.311287306297 -0.0573567805237 0.314781648465 -0.0577526157519 -0.175475712388 0.0251629894865
11435748 0.0542502037343 0.016758095541 0.311020186357 -0.0574996938039 0.314861026445 -0.0580933661745 -0.175381060799 0.0251176121662
11468694 0.0542930834429 0.0168278175541 0.3111631873 -0.0575775607382 0.314606893592 -0.0582781313775 -0.17541458728 0.0252217595256
11501640 0.0543513553558 0.01679957518 0.311099866811 -0.0578315584134 0.314523035111 -0.058262081031 -0.175430671668 0.0252596894053
11534586 0.0543045995302 0.016866767793 0.311219193836 -0.0580652448988 0.314613682194 -0.0585519843418 -0.175320093295 0.0253446260901
11567532 0.0544301512995 0.0168474448073 0.311147052825 -0.0580608041828 0.314648079149 -0.0587865041061 -0.17520836101 0.0253175045243
11600478 0.0544341602517 0.0169035498248 0.310816985624 -0.0582815588341 0.314537344137 -0.0588933525088 -0.17521767095 0.0252895186254
11633424 0.0544916939188 0.0167768897738 0.311005276908 -0.058316681576 0.314644702062 -0.0590808063085 -0.175173700063 0.0253209856484
11666370 0.0545343350683 0.0168823825387 0.310939464611 -0.0585791108805 0.314535731654 -0.059256397111 -0.175133351275 0.0254856779768
11699316 0.0543715120752 0.016887498735 0.310690909061 -0.0588506290595 0.314572184617 -0.0593334079227 -0.175150057868 0.0254780454047
11732262 0.0544616115399 0.0168638424393 0.310957007676 -0.0589280516826 0.314346143939 -0.0594802997333 -0.175072838469 0.0254548800035
11765208 0.0546217279296 0.0168311024325 0.310783040985 -0.0590061862424 0.31447981741 -0.0597375050166 -0.175044665943 0.0255275469094
11798154 0.0545716571127 0.0168298070505 0.310734110487 -0.0591269317133 0.314465198198 -0.0597452743854 -0.175105783386 0.02550851742
11831100 0.0548252323126 0.0167347835988 0.310682974271 -0.0594027477067 0.314196036501 -0.0599834176869 -0.175074572923 0.0255829284552
11864046 0.0545697103929 0.0168529980977 0.310442902775 -0.0595417664137 0.314335230201 -0.0600130311606 -0.174938524329 0.025622511028
11896992 0.0545772788855 0.0167308802145 0.310404757407 -0.0596673561315 0.314277719257 -0.0601845993355 -0.175076963807 0.0255501872599
11929938 0.05463831962 0.0168399752884 0.310573010939 -0.0598684049899 0.314038630122 -0.0604876543793 -0.174958730963 0.0257014363821
11962884 0.0547635641526 0.0167789796191 0.31058923053 -0.0598537201715 0.314147558222 -0.0605917413256 -0.174903860107 0.0256390612015
11995830 0.0547981823931 0.0167209506474 0.31040009607 -0.0601457458832 0.314029350103 -0.0607894806786 -0.174963482182 0.0257184474227
12028776 0.0548989363499 0.0166349445115 0.310348813401 -0.0604066423162 0.314024570635 -0.0610382671666 -0.174781631369 0.02565630199
12061722 0.0549241320496 0.0167849986565 0.310328889415 -0.0605740185066 0.313978506756 -0.060930368098 -0.174883133577 0.0258161947658
12094668 0.0550996717602 0.0167290245661 0.310434104811 -0.0606409127141 0.313902140237 -0.0612033973803 -0.174840784309 0.025824291151
12127614 0.0549097175992 0.0168254378676 0.310281600081 -0.0609202680198 0.313921119692 -0.0613766578749 -0.174841782838 0.0259633667686
12160560 0.0548804882646 0.0167682526181 0.310290561976 -0.0609964395358 0.313946735568 -0.0615202765759 -0.17480451821 0.0258695489962
12193506 0.054964015074 0.0167309098533 0.310252339531 -0.061396185317 0.313804790627 -0.0618940101804 -0.174752604002 0.0258272951308
12226452 0.055062135087 0.0167567312792 0.310141402668 -0.0612865838743 0.313884338478 -0.062041518341 -0.174685191727 0.0259312259706
12259398 0.0551271799934 0.0167327412014 0.310089900136 -0.0615032950098 0.313710393322 -0.0619173448192 -0.174726119534 0.0259880146905
12292344 0.0551304012127 0.0168130437205 0.310156271431 -0.0616299801808 0.313709179653 -0.0622248774871 -0.174838766157 0.0261499074547
12325290 0.0551590825016 0.016638891137 0.310015891072 -0.0618608019396 0.313670986203 -0.0623305365364 -0.174480864464 0.0259170603646
12358236 0.0552303391574 0.0166497115062 0.310107958581 -0.061955726399 0.313693163577 -0.0625165264348 -0.174694569688 0.0261392089901
12391182 0.0551544398336 0.0166586729249 0.31015298833 -0.0621157911086 0.313821485463 -0.0628252144293 -0.174482407766 0.0260136595066
12424128 0.0552623244467 0.0166384320863 0.30983848527 -0.0623573454511 0.313412627114 -0.0630012211823 -0.174530030592 0.0260256327674
12457074 0.0551812778602 0.0167212701426 0.30989374232 -0.0624386863134 0.313532169267 -0.0630544098048 -0.17458345652 0.0261313468627
12490020 0.0552835917187 0.0166680475589 0.309947056793 -0.062667853583 0.313371680821 -0.0631121329835 -0.174611901094 0.0262457721957
12522966 0.055321681219 0.0166804954272 0.309827659473 -0.0627430257279 0.313366034711 -0.0632681716863 -0.17457806811 0.0262936474799
12555912 0.0554791767765 0.0168426781265 0.309780334079 -0.063002395942 0.313372097277 -0.0635654287611 -0.174484202704 0.0263516031742
12588858 0.0554057620437 0.016770822267 0.309725492341 -0.0630576973447 0.313295692397 -0.0637700288208 -0.17456489849 0.0262705138061
12621804 0.0555356135939 0.0165830841019 0.309666839547 -0.0631519955293 0.313481787639 -0.0639520431803 -0.174422139356 0.0262787328121
12654750 0.055579389591 0.0166564147718 0.309761043978 -0.0633149234968 0.313246531145 -0.0639400209088 -0.17437087432 0.0263309085935
12687696 0.0554473548856 0.0166088599714 0.309471426042 -0.0634799914259 0.31336965165 -0.0643436650278 -0.174315356347 0.026312992493
12720642 0.0555766744153 0.0166496496489 0.309545240366 -0.0636708423025 0.313224886869 -0.0645307029207 -0.174210956671 0.0264940931358
12753588 0.0554909683067 0.016674503618 0.309508763656 -0.0638776024308 0.313233559865 -0.064452155859 -0.174271785397 0.0264166725536
12786534 0.055594231816 0.0166316106282 0.309508304242 -0.0641229138812 0.31309986987 -0.0646442765421 -0.174283294482 0.0264960687586
12819480 0.0556789258062 0.0166675285393 0.309642075027 -0.0642504767162 0.312976178031 -0.064808467448 -0.17430183162 0.0265677554153
12852426 0.0556556668003 0.0165811658927 0.309360047728 -0.0645006851344 0.313018590535 -0.0650378137001 -0.174098643725 0.0265031927573
12885372 0.0557261709753 0.0165369274153 0.309363710865 -0.0644662105807 0.313120750699 -0.0651874136977 -0.174165347046 0.0266134030696
12918318 0.0558090364948 0.0165753925363 0.309247891202 -0.0645453670174 0.31293587918 -0.0654844772735 -0.174091708565 0.0265815945014
12951264 0.0558404903038 0.016636072766 0.309309155548 -0.064851224018 0.312892430985 -0.0655607028391 -0.174196558942 0.0266504334173
12984210 0.0557407835098 0.0166708140014 0.309266460864 -0.0649154836655 0.312931075113 -0.0655900646511 -0.174068788869 0.0266649994646
13017156 0.0558395545816 0.0165635791193 0.309363555529 -0.0651018193844 0.312775494522 -0.0658398081918 -0.174117679247 0.0266861332224
13050102 0.0558540281378 0.016599368782 0.30911525479 -0.0653510162587 0.312840086068 -0.0660747758858 -0.173855135141 0.0266847607945
13083048 0.0560417387404 0.0164352527456 0.309242228363 -0.0655421198374 0.312789069625 -0.0661320128977 -0.174068750805 0.0268180369483
13115994 0.056005032431 0.0166594467731 0.309070916968 -0.0656157531761 0.312633803372 -0.0664244604093 -0.173965464998 0.0268167784302
13148940 0.0559168247859 0.0166342277315 0.309046814535 -0.0656354405395 0.312718161625 -0.0662705889681 -0.174027752697 0.0267868466449
13181886 0.0559696265782 0.0165896339442 0.309067034118 -0.0660950192739 0.312720401553 -0.0668654858809 -0.173804647701 0.026811630244
13214832 0.0560408814685 0.0164575071831 0.309013813238 -0.066068661147 0.312672022273 -0.0668749622735 -0.173834852175 0.0268077901228
13247778 0.056037141965 0.0166042460604 0.308925268939 -0.0662050019923 0.312671780903 -0.0667157961735 -0.173957401156 0.0269193325243
13280724 0.0560470818112 0.0166110317812 0.308959432686 -0.0664268249186 0.312614713219 -0.0671935780952 -0.173785217045 0.0269387150623
13313670 0.0561949790518 0.0164525555997 0.308841840106 -0.0665460068178 0.312377028076 -0.0672468731009 -0.173848905399 0.0270624719205
13346616 0.056279334397 0.016440892671 0.308638344004 -0.0667378219698 0.312542826989 -0.0675836380089 -0.173772303761 0.0270540016235
13379562 0.0562387632038 0.0165649053505 0.308803291914 -0.0668252240709 0.31231260739 -0.0675171306938 -0.173872062774 0.0271412879591
13412508 0.0561960243174 0.0166162324266 0.308722813904 -0.0670272684755 0.312384040407 -0.0678255378141 -0.173660576637 0.0270854209593
13445454 0.0562733506262 0.0165232651046 0.308796906374 -0.0672424539164 0.312010675822 -0.0678705582845 -0.173705468784 0.0271265322615
13478400 0.0562804111541 0.0164966759822 0.308613047903 -0.0673875656391 0.312319190408 -0.0680588275515 -0.173728755711 0.0271203731834
13511346 0.0562848982935 0.0165977779445 0.308617114776 -0.0677049342358 0.312161364747 -0.0683424579428 -0.173578419149 0.027226089959
13544292 0.0563067704077 0.0165244652185 0.308860632 -0.0676241965072 0.312130647461 -0.0684148287537 -0.17376741198 0.027180709568
13577238 0.0564439729775 0.0164784238546 0.308471723448 -0.0679537623802 0.31223789894 -0.0686927738385 -0.173564108165 0.0272505114302
13610184 0.0564887070366 0.0165117119832 0.308536354552 -0.0680275374039 0.312047696075 -0.0687324281038 -0.173511219426 0.0273053900484
13643130 0.0565855710106 0.0164737083632 0.30827824066 -0.0680492118642 0.312037009516 -0.0690537612106 -0.173452416194 0.0273780099059
13676076 0.0564996612289 0.0164599862281 0.308297909165 -0.0683348490109 0.31212371428 -0.0689950262383 -0.173583195565 0.0273223600886
13709022 0.0566239819662 0.0164116336198 0.308340325292 -0.0685630995272 0.312068255237 -0.0692644178766 -0.173514446116 0.027454733216
13741968 0.0566291044297 0.0165928699225 0.308426337564 -0.0685967704035 0.311925457439 -0.0692235417835 -0.173465354782 0.027446820698
13774914 0.056653852402 0.0164899672885 0.308286896355 -0.068616289104 0.311805657607 -0.0693335425152 -0.173385660429 0.0273776652468
13807860 0.0566510480789 0.0163628120467 0.30838121472 -0.0688329661219 0.31162974641 -0.0696330088664 -0.173296585581 0.0274276293369
13840806 0.056663899765 0.0164033264342 0.308115495949 -0.069033916653 0.312009115008 -0.0700477652828 -0.173508059247 0.0275760055678
13873752 0.0567992471108 0.016448209132 0.308132837299 -0.0692982765614 0.311605765381 -0.0700092571845 -0.173312575327 0.0276476906956
13906698 0.0567284486902 0.0164984832454 0.308011136501 -0.0692704664931 0.311602721103 -0.0700295389965 -0.17327965634 0.0275544409729
13939644 0.0567898320349 0.0164765780124 0.307944167267 -0.069444356418 0.311635138906 -0.0703612709045 -0.173301469442 0.0275638549405
13972590 0.0567470517661 0.0162523168464 0.308041373733 -0.0698602363331 0.311476078594 -0.0705428102431 -0.173216061455 0.0276168780638
14005536 0.0566984272547 0.0165532957419 0.307901750056 -0.0697955772579 0.311589490163 -0.070814207802 -0.173366091005 0.0277491984771
14038482 0.0569679052536 0.0164322202145 0.307921257749 -0.0701897466889 0.311561414619 -0.0708837197564 -0.173127872352 0.0277687303421
14071428 0.0568723619289 0.0164891149369 0.307821697454 -0.0701141753005 0.311740367261 -0.0709224614208 -0.173358000513 0.0278881106079
14104374 0.056881395051 0.0164462284858 0.307936619566 -0.0705805979961 0.311427967724 -0.071006761047 -0.17319973196 0.0276750445266
14137320 0.0568993101705 0.0165198514386 0.307872036696 -0.0706106948088 0.311310132944 -0.0711394124827 -0.173259249166 0.027761522342
14170266 0.0570058725321 0.0164789160937 0.307750044606 -0.0706013466211 0.311451296581 -0.0714371991794 -0.173131794997 0.0279268370587
14203212 0.0570095502661 0.0163424308257 0.307782888739 -0.0707649092317 0.311296008546 -0.0716440248026 -0.173036652988 0.0278224776483
14236158 0.0570810303931 0.0164384919264 0.307597377527 -0.0709343247529 0.311191900569 -0.0720515881266 -0.173077304307 0.0280076443094
14269104 0.057165100518 0.0164004123245 0.307361298384 -0.0710599434608 0.311198267024 -0.0720297725107 -0.172993262775 0.0280489271426
14302050 0.0571591439589 0.0164317497035 0.307441754757 -0.0713291667182 0.311250409581 -0.0720377739677 -0.173090119577 0.0279993856844
14334996 0.0571422155613 0.0165053549196 0.307317799003 -0.0715451442218 0.310970236172 -0.0721101309674 -0.173088727291 0.0280511872962
14367942 0.0572376765967 0.0163575673165 0.307505565006 -0.0715915119839 0.311056621157 -0.072431968579 -0.172838984844 0.0280245031983
14400888 0.0572054183208 0.0164099967341 0.307397193904 -0.0717453848058 0.310798936419 -0.0726390169665 -0.172791504527 0.0280415051092
14433834 0.0573866653887 0.0163528726253 0.307079334037 -0.0719476191595 0.310930251209 -0.072854400816 -0.172901159056 0.0282286614505
14466780 0.0572576291389 0.0163531880807 0.307338283144 -0.0720524972211 0.310966486559 -0.0727328948602 -0.17295172419 0.0281762613159
14499726 0.0573975805414 0.0163169955278 0.307399566365 -0.0723803033857 0.311067039206 -0.0730042379354 -0.172973018164 0.0282560480767
14532672 0.0574595985108 0.0164347545642 0.307272502774 -0.0724264004993 0.311139205256 -0.0732588689001 -0.172896553367 0.0284018369718
14565618 0.0574013700807 0.0164413935286 0.307271320524 -0.0724857778165 0.310732096457 -0.0731724289407 -0.172707909216 0.0282196832945
14598564 0.057403268742 0.0163765115433 0.307042618606 -0.0726407497087 0.31068874183 -0.0735125721622 -0.17287826329 0.0282611156747
14631510 0.0574989289273 0.0163134001191 0.307332872377 -0.0728632395734 0.310626760408 -0.0736988641792 -0.172773589899 0.0283743858205
14664456 0.0576039626222 0.0163704935467 0.306870520784 -0.073041156298 0.31069019519 -0.0740697289228 -0.172713345833 0.0284098386823
14697402 0.0575866312638 0.0163560338948 0.307047208463 -0.0732315370595 0.31073871818 -0.0738817596684 -0.172784735789 0.0286232962792
14730348 0.0575549675581 0.0164323522388 0.306920812684 -0.0732537073739 0.310578410811 -0.0741679122075 -0.172617436031 0.0284281858894
14763294 0.0576816341479 0.0164039767887 0.306906938023 -0.0735059427166 0.310430862946 -0.0742402770659 -0.172566687085 0.0284743093093
14796240 0.057579150427 0.0164712774092 0.306935159076 -0.0736755382438 0.310443372596 -0.074377218 -0.172805407586 0.0285089103219
14829186 0.0577409788158 0.0163199795555 0.30667135043 -0.0736808858063 0.310339884511 -0.0746148974377 -0.172410158779 0.0285716670814
14862132 0.0577330707902 0.01637350234 0.306633492584 -0.0738634817613 0.310248224651 -0.0748747998449 -0.172602499507 0.0286624053372
14895078 0.0578001176737 0.0163828377606 0.306611372446 -0.0739460294078 0.310319537948 -0.0750066620853 -0.1726385727 0.028717485286
14928024 0.0577529809211 0.0163079586999 0.306682005329 -0.0742049946896 0.310201519468 -0.0750136502758 -0.172445781976 0.0285374740911
14960970 0.0578281256524 0.0163865130185 0.30651066761 -0.0744895494408 0.31013828621 -0.075200995726 -0.172578557295 0.0286005942383
14993916 0.0578841939557 0.0163444020074 0.306484181837 -0.0745159223532 0.310195641505 -0.0754821673625 -0.172477038138 0.0286997928308
15026862 0.0578365162267 0.0163066592506 0.306655545768 -0.0748179576079 0.310144049349 -0.0757710277595 -0.172367554958 0.0287441973182
15059808 0.0578888042091 0.0164168597296 0.306477411441 -0.0748028061197 0.310119341543 -0.0758286094011 -0.17263385833 0.0289505239889
15092754 0.0580841250356 0.0163811852922 0.306574818834 -0.0750816386152 0.310338300312 -0.0759920570473 -0.172390846336 0.0289336932281
15125700 0.0580327464377 0.0162646521829 0.306471546655 -0.0752976328118 0.31016506486 -0.0760641973985 -0.172477606475 0.0289552889254
15158646 0.0579910650996 0.0163534037006 0.306355896769 -0.0753881976392 0.309854351299 -0.0761027151211 -0.172331187457 0.0289135455605
15191592 0.0580681901474 0.0163034609385 0.306386020971 -0.0754013121124 0.309954235599 -0.0763599813418 -0.17226590145 0.0288701120538
15224538 0.0580527054199 0.0163093967658 0.306068955508 -0.0756020124734 0.309715800608 -0.0765759610958 -0.172361557959 0.0289077533153
15257484 0.0580926069315 0.016341819236 0.306338801041 -0.0758270098711 0.309690497733 -0.0768337645154 -0.172277991619 0.0291237115995
15290430 0.058146658465 0.0162406132469 0.305918879846 -0.0759734056561 0.309627649214 -0.0768356272668 -0.172308600565 0.028999448455
15323376 0.0582252494845 0.0162869353221 0.305938770565 -0.0761081887938 0.309632167779 -0.0771869014097 -0.172263571502 0.0290897055635
15356322 0.0583069227516 0.0163907598168 0.306066515425 -0.0762448207515 0.309471982532 -0.0770878997513 -0.172156214367 0.0291202845961
15389268 0.0583752424043 0.016263111313 0.306006431457 -0.076489780628 0.309450251963 -0.0772482794395 -0.172153871267 0.0290174093214
15422214 0.058341944844 0.0162741829198 0.305883329372 -0.0764948887895 0.309543102343 -0.0776070977927 -0.172088881482 0.0291241830567
15455160 0.0583154678158 0.0163056293192 0.305956631357 -0.0768365842015 0.309319127363 -0.0777708625621 -0.171935686625 0.0292460696971
15488106 0.0585031722376 0.016350320365 0.305753426771 -0.076865099094 0.309356046835 -0.0777524297266 -0.172034106943 0.029325543242
15521052 0.0583822327313 0.0163246641809 0.305843205199 -0.07693546242 0.309338021428 -0.0778519400152 -0.172157811339 0.0293337387319
15553998 0.0584342527593 0.0162478396777 0.305669518249 -0.0770672858011 0.309351185197 -0.0780533664538 -0.172001403098 0.0292881461533
15586944 0.0584750675829 0.0161702135375 0.30555996861 -0.0773566214705 0.309119040167 -0.0783945276663 -0.171958789996 0.0292363036183
15619890 0.0586154145236 0.0162973598512 0.305527280481 -0.077357623985 0.309180822431 -0.0784846728378 -0.171876898743 0.029499077742
15652836 0.0585425914461 0.0161879691994 0.305616363578 -0.0777302713119 0.309436702454 -0.0786822120909 -0.171908454376 0.0293863851622
15685782 0.0585393366716 0.0162871576044 0.305521313447 -0.0778165829467 0.309204198385 -0.0788509457364 -0.171919418156 0.0294795436163
15718728 0.0587723223821 0.0162374312886 0.305633093778 -0.0779582356335 0.309100888683 -0.0788080601914 -0.171842394225 0.0293357409315
15751674 0.0586047639235 0.0161650963332 0.305225266524 -0.0781306964471 0.308938285282 -0.0791735260768 -0.171877924881 0.0294422098189
15784620 0.0587053789257 0.0162822295002 0.305280881595 -0.0781657338857 0.308798516946 -0.0791573780387 -0.171922244322 0.0295146411854
15817566 0.0589155952624 0.0163342413892 0.30555012627 -0.0783577097602 0.309151545259 -0.0795349741307 -0.171634584142 0.0296786961361
15850512 0.0588322183491 0.0162104097627 0.305606594836 -0.0787148218327 0.308930956998 -0.0794572041131 -0.171813887235 0.0295516510351
15883458 0.058829273262 0.0163248161074 0.305190880352 -0.0786590685631 0.308764421554 -0.0796230029748 -0.171837612994 0.0297532736987
15916404 0.0587710300176 0.0162361992947 0.305111989136 -0.0789973727932 0.30867421786 -0.0801150185336 -0.171729968949 0.02970100702
15949350 0.0588391012362 0.0162864846575 0.305010119938 -0.0789749300082 0.308619965372 -0.0800405038016 -0.171820825497 0.0298210368706
15982296 0.0590343531904 0.0161401806685 0.305183685445 -0.0792881837151 0.308895711404 -0.0802935325895 -0.171504496195 0.0297766584102
16015242 0.0589989107552 0.0162208449546 0.305018720541 -0.0794814951972 0.308594782374 -0.0804332017742 -0.17161049823 0.02980447704
16048188 0.0589218036367 0.0163082006538 0.3051087509 -0.0795361550121 0.308692151319 -0.0805020666152 -0.171597501917 0.0298597947518
16081134 0.0589835736861 0.016179125302 0.304825000773 -0.0796592504484 0.308366238446 -0.0806464065246 -0.171597958105 0.0299324151137
16114080 0.0590947035679 0.0161857926104 0.305104429444 -0.0798789302935 0.308626709396 -0.0809360135056 -0.171370549674 0.0299164243879
16147026 0.0591071993848 0.016222225657 0.304807522882 -0.0799191476117 0.308358416729 -0.0809804047052 -0.171616359549 0.030002491024
16179972 0.0591500868309 0.016275035997 0.304725450232 -0.0800277675931 0.308346985294 -0.0810684027003 -0.171483279505 0.0300389341914
16212918 0.0592084422838 0.0162034482541 0.304645606301 -0.080248856347 0.308173051953 -0.0811841373166 -0.171481379585 0.0299813038793
16245864 0.0592455375063 0.0161407803185 0.304764320406 -0.0805274017853 0.308426546419 -0.08142411746 -0.171263345241 0.0299616048629
16278810 0.059286583617 0.01613986628 0.304878195756 -0.0805851382377 0.308381840645 -0.0817530586022 -0.171306661444 0.0301157210624
16311756 0.0592914342774 0.0162377672197 0.304618969647 -0.0807329272765 0.308098670362 -0.0818965948235 -0.171364622875 0.0301230423441
16344702 0.0593542034019 0.0161178679758 0.304434904126 -0.080716623763 0.308205275266 -0.0818688481432 -0.171375828212 0.0302383748303
16377648 0.0593468984261 0.0161641231362 0.304424706739 -0.080888267516 0.308004569373 -0.0818851363551 -0.171521640524 0.0301252621206
16410594 0.0593222697304 0.0162070760304 0.304373803751 -0.081501238619 0.307902426516 -0.0823900084452 -0.171285029801 0.0302585256211
16443540 0.0593993149981 0.0162156061351 0.304210701629 -0.0812242076745 0.307744299777 -0.0824238857973 -0.171269397159 0.0304172721805
16476486 0.0593686426227 0.0161266483113 0.304137019108 -0.0814366052976 0.307754625952 -0.0825309416459 -0.171332525969 0.0302692146576
16509432 0.0594941089058 0.0161463117424 0.304249261291 -0.0817360712311 0.307931746934 -0.0829714363037 -0.171154946796 0.0302586380375
16542378 0.0595427030883 0.0161429882801 0.304274024107 -0.0816516716142 0.307859767838 -0.0827129141846 -0.171157396215 0.030409384297
16575324 0.0595185441431 0.016160881169 0.304162576699 -0.0819661080374 0.307592132544 -0.082963578053 -0.171127208623 0.0304080541266
16608270 0.0596632966708 0.0160675120342 0.304092756919 -0.0821454458927 0.307704590541 -0.0832364316944 -0.171078311652 0.0305511874116
16641216 0.0597170480108 0.0161614703364 0.304006184594 -0.0823416809545 0.307562170679 -0.0834465828905 -0.171058884576 0.0305871321151
16674162 0.0596961039522 0.0162013168078 0.30390243225 -0.0823719408061 0.307733245485 -0.0834103000055 -0.171031070163 0.0306642234883
16707108 0.0599870127785 0.01624098797 0.303849724023 -0.0825304658221 0.307538308186 -0.0835346035588 -0.170880320143 0.0306896261723
16740054 0.0598495197832 0.0161874812397 0.303958535037 -0.0828117697428 0.307695660549 -0.0838007465484 -0.171064358672 0.0305822052873
16773000 0.0597643732244 0.0161688151031 0.303914020833 -0.0828363580041 0.307484028265 -0.0838589096613 -0.171167723819 0.0306718139091
16805946 0.0599314842592 0.0161247428927 0.303606661659 -0.0829222253719 0.307247438826 -0.084148739242 -0.170727523174 0.0306642875623
16838892 0.0597598512256 0.0159272406219 0.304106193628 -0.0830798719041 0.307645328618 -0.0843208636724 -0.171190910398 0.0305075934434
16871838 0.0597850804439 0.0162655620177 0.303547430694 -0.0832190167196 0.307287986541 -0.0843652283465 -0.171185270755 0.0307614624851
16904784 0.060011744487 0.0161243705006 0.303514688992 -0.0834564658837 0.307085565894 -0.084480011916 -0.170971694048 0.0307081279967
16937730 0.0600065295697 0.0161167893281 0.303586117719 -0.0837031542011 0.307326291053 -0.0848248124347 -0.170803813091 0.0307260211876
16970676 0.0599014904367 0.0161828366752 0.303422971201 -0.0836749179967 0.307178618584 -0.0848111432438 -0.170838969253 0.0307257028499
17003622 0.05990260571 0.016108766966 0.303412194525 -0.0838568589907 0.30691792314 -0.0851944783748 -0.170787151347 0.030849803551
17036568 0.0600414317588 0.0161894266683 0.303371695673 -0.0840853808728 0.307059586491 -0.0853833053506 -0.17080942858 0.0309433190793
17069514 0.0600922272883 0.0161732176399 0.303286336637 -0.0840989255604 0.307092460213 -0.0853821547876 -0.170720057464 0.031032451254
17102460 0.0602235548872 0.0161326707637 0.303284713638 -0.0845727346589 0.306905189151 -0.0855545876062 -0.170557770397 0.0310655232987
17135406 0.0601247717452 0.0160947298497 0.303344648384 -0.0844809845506 0.306809718421 -0.0857513306065 -0.170693913886 0.031087293429
17168352 0.0602390524491 0.0160471999441 0.303309730768 -0.0847436751931 0.306910273097 -0.0858922737091 -0.170608837434 0.0310127237601
17201298 0.0602596580747 0.0160595029639 0.303219129857 -0.084792440436 0.306813044622 -0.085889353018 -0.1706105007 0.0309951943501
17234244 0.0603176021217 0.0161709275936 0.30303941928 -0.0849613984522 0.306608041514 -0.0860437139583 -0.170773703621 0.0311044849125
17267190 0.0603708639297 0.0160263860059 0.30295329713 -0.0852209660524 0.30668782535 -0.0861854577435 -0.170649568875 0.0311681012867
17300136 0.060276740377 0.016095249603 0.302976590525 -0.0851948326889 0.306462874353 -0.0864036743586 -0.170555071071 0.0312336695748
17333082 0.0604327846742 0.0160464506272 0.302838673178 -0.0852947727396 0.306365921167 -0.086501325664 -0.17052403413 0.0313483067573
17366028 0.0604373678365 0.0160590671441 0.302954024258 -0.0856101939353 0.306599351417 -0.0866076234199 -0.170528963094 0.0312482967945
17398974 0.060386376471 0.0163704435198 0.302858071468 -0.0857426026539 0.306521988608 -0.0869975292565 -0.170583704029 0.0316282458058
17431920 0.060483809671 0.0161335962023 0.302745992745 -0.085966491328 0.306241229636 -0.0870948868047 -0.17052282261 0.0313015290142
17464866 0.0608418059817 0.0158904940961 0.302677123183 -0.0860110768089 0.306303411341 -0.0871938996583 -0.17025349517 0.0312266646796
17497812 0.0605083837441 0.0161507794073 0.302747417621 -0.0860727516205 0.30604214384 -0.0873622883361 -0.170317289856 0.0313240105798
17530758 0.0609857060181 0.0157124604625 0.302638352164 -0.0865447939007 0.30611706678 -0.0877819208915 -0.169909462864 0.0312375917804
17563704 0.0605226661291 0.016014842654 0.30234795837 -0.0864183889251 0.306225857206 -0.0878157080781 -0.170739437668 0.0313872420453
17596650 0.0605208032879 0.0161663847636 0.302390945141 -0.0867125648513 0.305958712263 -0.0877778998729 -0.170342445991 0.0315608925958
17629596 0.0607717498752 0.0160367022735 0.302141920042 -0.0866447898138 0.305843520198 -0.0878245651944 -0.170301639346 0.0316173052715
17662542 0.0608591004072 0.0161573706747 0.302436916066 -0.0867577244971 0.30574397646 -0.0879471008521 -0.170172692605 0.0317731558586
17695488 0.0608566090832 0.0160727670927 0.302221024341 -0.0868860722762 0.30562388496 -0.0880832961933 -0.170351200006 0.0316923792818
17728434 0.0608436742749 0.0159676333977 0.302231586418 -0.0870367374225 0.305699189387 -0.0882970672758 -0.170228535469 0.0317634121448
17761380 0.0607870815307 0.0160895477233 0.30233634248 -0.0873718949693 0.305969939844 -0.0887458729095 -0.170323114382 0.0317406295576
17794326 0.0608574693691 0.0160002278643 0.30227585792 -0.0874529243024 0.305872304918 -0.0887775470893 -0.170078934347 0.031762217856
17827272 0.0609544255547 0.0159723319292 0.302119004929 -0.087727561906 0.305669151501 -0.0890010185763 -0.170130818124 0.0318403638788
17860218 0.0609480518534 0.0160229197064 0.302150592675 -0.0877896951261 0.3057322204 -0.0891491516178 -0.170183425154 0.0318442889518
17893164 0.0611391920694 0.0159862636964 0.301808257119 -0.0877654770363 0.305645340975 -0.0889402207568 -0.169960771551 0.0318468311731
17926110 0.0609663167758 0.0159148719791 0.301895106524 -0.0880211344371 0.305317976406 -0.0892780833727 -0.170060566876 0.0318552467074
17959056 0.0611021310728 0.0160410769314 0.30191722333 -0.0883873715966 0.30562898292 -0.0896212824116 -0.170018344024 0.0319618421361
17992002 0.0611106802548 0.0160166655034 0.301579708926 -0.0881624894116 0.305367007483 -0.089559026795 -0.170098947489 0.0320658215019
18024948 0.0612075679112 0.015997683761 0.301666169611 -0.0883856356404 0.305271876542 -0.089595427641 -0.170084507309 0.0319875473538
18057894 0.061218104681 0.0158279235787 0.301670199754 -0.0887322074824 0.305231853656 -0.0900452104748 -0.169785645503 0.0319435874164
18090840 0.061136933443 0.0163441858282 0.301849802823 -0.0890172380537 0.305453120553 -0.0902726991131 -0.170024509601 0.0324067872062
18123786 0.0612320236452 0.0158502146976 0.301445773862 -0.0888614533351 0.305161985376 -0.090315707589 -0.169857355759 0.0320262862735
18156732 0.0613347889676 0.0160408920704 0.301491265604 -0.0893124737125 0.305104031338 -0.090632191351 -0.169884031345 0.0323042537246
18189678 0.0615554148152 0.0159769544412 0.301381318143 -0.0891837389056 0.305062383965 -0.0903635546245 -0.169737868309 0.0321912673584
18222624 0.0614770378411 0.0158281110096 0.301479007571 -0.0895619068518 0.30499982506 -0.0907959821825 -0.169689767216 0.0320211215512
18255570 0.0612335473919 0.0159517731394 0.301171535125 -0.0895806733991 0.30468718152 -0.0908947099678 -0.169933855057 0.0323423081931
18288516 0.0613341265707 0.0157902100495 0.301205216981 -0.0896825402044 0.304558051055 -0.0909322937882 -0.169542733658 0.0322200572721
18321462 0.0614322387773 0.0159978563772 0.301154834762 -0.0899670253775 0.304885571958 -0.0913022807082 -0.169883086076 0.0322957493184
18354408 0.0616045846286 0.015859725732 0.301110195143 -0.090013973424 0.304887981 -0.09138758205 -0.169629110177 0.0323539866914
18387354 0.0615963543068 0.0159997068707 0.301166546577 -0.0900815608502 0.304561573594 -0.0915100735709 -0.1698070586 0.0323866124469
18420300 0.0617757274048 0.0159047453784 0.300991803826 -0.0902845598088 0.304564699208 -0.0913694486245 -0.16964468994 0.0323245359965
18453246 0.0617074169954 0.0159414489404 0.301052520873 -0.0906412014248 0.304754824474 -0.0919310983 -0.16951966451 0.0324888799073
18486192 0.0615883663496 0.0159344988401 0.301036215088 -0.0907429628098 0.304597919285 -0.0920522667805 -0.169682043304 0.0324619002902
18519138 0.0617540251057 0.0159280245171 0.300640097273 -0.0907493849327 0.304347739818 -0.0921204288061 -0.169603654002 0.0326810582874
18552084 0.061761384063 0.015964921153 0.300823959035 -0.090902065344 0.304365814295 -0.0920887649927 -0.169637841382 0.0326176533141
18585030 0.0618453666914 0.0159204506389 0.300732002648 -0.0912211016163 0.304420108173 -0.0925805031815 -0.169470369191 0.0326588760063
18617976 0.0617919791065 0.0159483241803 0.300804997147 -0.0912522808399 0.304179840742 -0.092685687184 -0.169385097995 0.0325505235535
18650922 0.0619381803191 0.0158880910582 0.300648006907 -0.091454015411 0.304222122007 -0.0927226634885 -0.169490509924 0.0327229529792
18683868 0.0618537431995 0.0159753186558 0.300744158424 -0.0915705989884 0.304363601596 -0.0929830986583 -0.169376397332 0.0326881623869
18716814 0.0619565628888 0.0158694362582 0.30040559966 -0.0915806510212 0.304110871485 -0.0929976262181 -0.169461930651 0.0328695438863
18749760 0.0619640779301 0.0158994746425 0.300336344931 -0.0917275833492 0.303899207809 -0.0929831960637 -0.169531991618 0.0329092972544
18782706 0.0620823595016 0.0158676943003 0.300432894216 -0.0919932404563 0.304129051685 -0.0934275121842 -0.169261111088 0.0326854247301
18815652 0.0620603440922 0.0159859500828 0.300447280013 -0.0919706500962 0.303947083149 -0.0932307613969 -0.169448505254 0.0330378485362
18848598 0.0621572142957 0.0158941076102 0.300380301377 -0.0923175180637 0.303903852459 -0.0936624527078 -0.169359384489 0.0328632900546
18881544 0.0621241473005 0.0158806667686 0.300124285851 -0.0924499352311 0.303614258036 -0.0938397439067 -0.169295170682 0.0329709149319
18914490 0.0621943386065 0.0158663125875 0.300382803244 -0.0925523541305 0.303982645976 -0.0940367318747 -0.169025870315 0.0328528632344
18947436 0.0622376903577 0.0157339137942 0.300123408525 -0.0927123020552 0.303773457889 -0.0941407336642 -0.169152159673 0.0330529243683
18980382 0.0623627299244 0.0158720375209 0.300148637099 -0.0927371846485 0.303514957946 -0.0940287384541 -0.169254768711 0.0330762929929
19013328 0.0622701118942 0.0159436329181 0.300165857888 -0.0930100004907 0.303646322772 -0.0944462650654 -0.169086142563 0.0330602042998
19046274 0.0622834356707 0.0159071332852 0.299904269411 -0.0932241050769 0.303400219424 -0.0944404964461 -0.169226732423 0.0331484540777
19079220 0.0623475890208 0.0158543352274 0.300059992764 -0.0934079647 0.303651799747 -0.0947964406942 -0.168895865543 0.0331390874529
19112166 0.0622726553097 0.0158930342332 0.299813496197 -0.0934908528585 0.303361876792 -0.0948510240026 -0.16914597457 0.0332919159422
19145112 0.0624413947585 0.0157790846792 0.299764925669 -0.0937008333661 0.303453994046 -0.0951120453016 -0.168969817479 0.0330720767524
19178058 0.0625246436222 0.0158487453004 0.29985575165 -0.0938966946905 0.303279365554 -0.0952736018927 -0.168981694544 0.0332599365651
19211004 0.0625038269153 0.0158520740151 0.299563939612 -0.0939648134886 0.302977174688 -0.0952131022142 -0.169087921408 0.0333962587688
19243950 0.0625670857494 0.0157522930815 0.299604461707 -0.094053895176 0.303084607674 -0.0954735356618 -0.169012937422 0.0334195487343
19276896 0.0624823003654 0.0158471779467 0.299588113163 -0.0942832912834 0.303230583263 -0.0957757750817 -0.168758994134 0.0334035172707
19309842 0.0626328838269 0.0157363670493 0.299547665393 -0.0944651801068 0.303119453321 -0.0958299443722 -0.16896111157 0.0334261809375
19342788 0.0627579145356 0.0158240144538 0.299471955173 -0.0946156979441 0.303010646399 -0.0958773928134 -0.168868240529 0.0335530901485
19375734 0.0625769544351 0.0158491395939 0.299351874345 -0.0944601002837 0.302832315391 -0.0959470445115 -0.168949799941 0.0334576743384
19408680 0.0627713253143 0.0157931276804 0.299423545026 -0.0948054255926 0.303133134902 -0.0963837933687 -0.16881044898 0.0335642324269
19441626 0.0626383012597 0.0157858862772 0.2992337672 -0.0948853097007 0.302649622347 -0.0963322353359 -0.168909397341 0.0336223257081
19474572 0.0627492540712 0.0157999077885 0.29912605838 -0.0951417183879 0.302862978908 -0.0966671783395 -0.168722775674 0.033608564026
19507518 0.0629630590031 0.0158763431961 0.299227009122 -0.0952864772079 0.302720473704 -0.096609434972 -0.168772868522 0.0337152598461
19540464 0.0627712134341 0.015819024146 0.29890161185 -0.0956018027534 0.302600223732 -0.096959182597 -0.168744139257 0.0336598449149
19573410 0.0629389199791 0.0158138447425 0.299002110702 -0.0957098829084 0.302480425265 -0.0969972028219 -0.168668418299 0.0338327424541
19606356 0.0628208954693 0.0157924727767 0.298797464636 -0.0956642283598 0.302440242515 -0.0970861810509 -0.168823576929 0.033701311037
19639302 0.0629409075628 0.0157418565719 0.298939576334 -0.0958461265389 0.302286543487 -0.0972724586523 -0.168633945993 0.0337028967148
19672248 0.062984971149 0.0157431617962 0.298722498169 -0.0959765247911 0.302333395193 -0.0972452776708 -0.168758189172 0.0338564399412
19705194 0.0631488504039 0.0158277011336 0.298878503752 -0.0960501238205 0.302355441686 -0.0974392311498 -0.168555960531 0.0338568115783
19738140 0.063165822933 0.0158355820552 0.298851885681 -0.0959680621401 0.30230916848 -0.0974991192412 -0.168637852309 0.0339266450611
19771086 0.0631543626646 0.0157199418633 0.298555052426 -0.0964176704983 0.302205324709 -0.0979423429596 -0.168343490724 0.0337727310456
19804032 0.0631669488273 0.0157136006558 0.298591997943 -0.0966551466588 0.30225607999 -0.0980860141799 -0.168563402869 0.0340308407707
19836978 0.0631181079972 0.0156834235782 0.298412808636 -0.096581316271 0.301834857412 -0.0978711399804 -0.168484503714 0.034085193606
19869924 0.0632524711167 0.0158801782111 0.298413907933 -0.0968247170805 0.301999746268 -0.0981982313193 -0.168543544115 0.0341264816601
19902870 0.0632627990275 0.0157874180966 0.298235647037 -0.0970552960103 0.301961283716 -0.0985174635274 -0.168252274002 0.0340123068588
19935816 0.0632959405505 0.0157551881995 0.298314617396 -0.0970650923301 0.301719159608 -0.0986299690241 -0.168344092447 0.0342149729613
19968762 0.0632486437276 0.0157652738497 0.298227963176 -0.097319208013 0.301783139418 -0.0988579486258 -0.168439883957 0.0342021323968
20001708 0.0634168727523 0.0156731405509 0.298279916589 -0.0974352358766 0.301897614812 -0.0990948485159 -0.168370819336 0.034206898381
20034654 0.0634395928538 0.0157627528368 0.298123140361 -0.0976823433082 0.3019405931 -0.0991235876394 -0.168251073301 0.034145032939
20067600 0.0635770521278 0.0158061571981 0.29824136833 -0.0975168235358 0.301695395832 -0.0990246360971 -0.168341502147 0.0342764207326
20100546 0.0634258659206 0.0157697208005 0.297971029751 -0.0978106493506 0.301487223792 -0.0994280360121 -0.168224375579 0.0343509163018
20133492 0.0637322713919 0.0156351673305 0.297985676754 -0.0981513493699 0.301697415244 -0.0995632407851 -0.168254431265 0.0343864073031
20166438 0.063548005347 0.0156368612272 0.297766326661 -0.0981740354152 0.301551337112 -0.0996844659396 -0.168194354346 0.0343438016691
20199384 0.0637147442416 0.0157083451276 0.297796282705 -0.0982306123459 0.301430575327 -0.099835779783 -0.168126452982 0.0343707602624
20232330 0.0636534528146 0.0158134734476 0.298013742156 -0.0985939986371 0.301391445963 -0.0999139177816 -0.16818246166 0.0345363555168
20265276 0.0636807447012 0.0156528060202 0.29769125545 -0.0985689022258 0.30133070836 -0.100221767121 -0.168243025423 0.0344962499956
20298222 0.063687508873 0.0155802708831 0.297669348157 -0.0989215139258 0.301216166817 -0.100297756495 -0.168132483527 0.0344204763114
20331168 0.0638586609506 0.0157028928922 0.297507709824 -0.0988949647603 0.30099354449 -0.100553188589 -0.167984226045 0.0345054268233
20364114 0.0638193585627 0.0155945940156 0.297497127204 -0.099154257568 0.300974570638 -0.100711281335 -0.167902553592 0.0344590295211
20397060 0.0638797693197 0.0156650908005 0.297588623563 -0.0992438149722 0.301239992516 -0.100713344101 -0.168024000794 0.0347867955899
20430006 0.0638263778762 0.0156525613954 0.29757501602 -0.0994526445628 0.301076219755 -0.101047415351 -0.16808338952 0.0347442320952
20462952 0.0639630037053 0.0155638218985 0.29735299488 -0.099586516539 0.300752684669 -0.101087089435 -0.16787174453 0.0345616150655
20495898 0.0640680499293 0.0156999279157 0.297326274766 -0.0997478293275 0.300946202272 -0.101237750675 -0.167903206256 0.034750045213
20528844 0.0640310813248 0.0156461433897 0.297295316039 -0.0999100444277 0.300714581474 -0.101389659481 -0.167654301386 0.0347484202236
20561790 0.0642050980211 0.0157143878224 0.297488009423 -0.100081126023 0.30073626467 -0.101327484716 -0.167849089008 0.0349682694773
20594736 0.0639988012376 0.015537357634 0.297133043889 -0.10009689199 0.300709547384 -0.10170723467 -0.16797387718 0.0348813888761
20627682 0.064179351231 0.0156654149668 0.296958023838 -0.100164895894 0.300591124301 -0.101865030761 -0.167744174015 0.0347904299268
20660628 0.0642831936255 0.0156888449737 0.2970042631 -0.100531500671 0.300540356 -0.102066492219 -0.167721753555 0.0348631430358
20693574 0.0643338668237 0.0156178509544 0.296975008547 -0.100707744325 0.300541082652 -0.102228237838 -0.167591891175 0.0350007931988
20726520 0.0642605344439 0.0155179746241 0.296972828616 -0.10074243715 0.30051858429 -0.102363348068 -0.167637735354 0.034912254586
20759466 0.0642224483593 0.0155022955311 0.296739455338 -0.100778201175 0.30043107271 -0.102478906484 -0.167573570592 0.0349521056023
20792412 0.0643218573682 0.0156987253214 0.297042499904 -0.101012620656 0.300333903454 -0.102435553294 -0.167724029689 0.0351593893114
20825358 0.064383384485 0.0155868736582 0.296650747574 -0.101038748946 0.300122633004 -0.102646960365 -0.167699041996 0.0350113237558
20858304 0.0644164265092 0.0155976331612 0.296520742918 -0.101233884027 0.300095243892 -0.102936283081 -0.167649709464 0.0350689407984
20891250 0.064501883463 0.0156163136734 0.296632823065 -0.101405437179 0.300062076939 -0.103038621518 -0.167542495794 0.0351124655956
20924196 0.0644620340267 0.0154686909252 0.296454408569 -0.10149105014 0.300143127236 -0.103251776969 -0.167460010795 0.0351068527489
20957142 0.0645255491658 0.0157174192588 0.296546490542 -0.101874111097 0.299946616145 -0.103275362719 -0.16753463246 0.0353653573135
20990088 0.0645108083295 0.0155816838375 0.296426342953 -0.102033138014 0.299821916705 -0.103410326747 -0.167606512251 0.0353299653826
21023034 0.0645666166381 0.0154873995847 0.296267846689 -0.102028862033 0.299779349693 -0.103680755909 -0.167515253906 0.0352169502718
21055980 0.0647107748892 0.0155986113795 0.296253468885 -0.102022864902 0.299717755593 -0.103723063458 -0.167394545027 0.0353764890436
21088926 0.0647042273424 0.0154013497176 0.2963029551 -0.102334293139 0.299942258012 -0.104012194861 -0.167224499494 0.0353368608358
21121872 0.0645621022713 0.0156221247897 0.295935054463 -0.102239608967 0.299639896803 -0.104053899788 -0.167394663611 0.0354028948681
21154818 0.0648074546488 0.0156221779036 0.296076659066 -0.102534172577 0.299491883798 -0.104022926046 -0.167336550702 0.0356058112251
21187764 0.0648496318865 0.0155933599892 0.296070635242 -0.102934717933 0.299672716058 -0.104333088619 -0.167274523212 0.0355683472893
21220710 0.0647926580874 0.0155882892385 0.295813024412 -0.102697819445 0.299499564072 -0.104325388111 -0.167243904646 0.0355519095645
21253656 0.0647969561816 0.0154055809234 0.295884462714 -0.102880444578 0.299357133102 -0.104608819986 -0.167428695942 0.0356278817359
21286602 0.0649109052367 0.0154385240731 0.295780788236 -0.103150874721 0.299314559475 -0.104843967632 -0.167244736238 0.0354723295905
21319548 0.0650117898054 0.0154570600772 0.295804281743 -0.103364255951 0.299141300179 -0.10486759551 -0.167133642811 0.0357148828458
21352494 0.0650987863898 0.0155430124965 0.295602464852 -0.103327901619 0.299148249846 -0.10502988058 -0.167127085696 0.0357271849854
21385440 0.0650740221344 0.0155342016944 0.295406521842 -0.103456419855 0.298993239918 -0.105156004669 -0.167132661788 0.0358073972629
21418386 0.065069461059 0.0155712315084 0.295575425405 -0.103732610685 0.299060056096 -0.105307918095 -0.16725875836 0.0358249228121
21451332 0.0651021589513 0.0154713712601 0.295349506164 -0.103715407455 0.299029284173 -0.105440369062 -0.167007393284 0.0357582875623
21484278 0.0650947459384 0.0154020613295 0.295464555033 -0.104008585566 0.29896392299 -0.105627071653 -0.167110655022 0.0358939006802
21517224 0.0651828322333 0.0154052589697 0.295337339547 -0.104322374154 0.298882678187 -0.105895904445 -0.167101813856 0.0358362732386
21550170 0.0651785519442 0.0153714146336 0.295062031689 -0.104380475408 0.298795954208 -0.106064416911 -0.166939496768 0.0359008560441
21583116 0.0653563127851 0.0154563891616 0.295096253991 -0.104398906158 0.298571307565 -0.105929044642 -0.166996492253 0.0359812526045
21616062 0.0652777797321 0.0155117687548 0.295205206184 -0.104686773051 0.298762689004 -0.106424314323 -0.16688491656 0.0360137130573
21649008 0.065348990742 0.0154186669274 0.294968131336 -0.104530408595 0.298573862657 -0.106252884744 -0.166998596521 0.0360885776739
21681954 0.0653598968319 0.0154468306799 0.294938920842 -0.104717216381 0.298518714608 -0.106445985053 -0.166841449866 0.0360626584738
21714900 0.0653491072232 0.0153665759832 0.295008142966 -0.105143261633 0.298532380559 -0.106729176932 -0.166936761332 0.0359329221054
21747846 0.0654745273347 0.0154123000307 0.29480768999 -0.105154918685 0.298514446148 -0.107020406692 -0.166696743846 0.036006739899
21780792 0.0655116886559 0.0155369187073 0.294804547934 -0.105283451374 0.298363955346 -0.106958069925 -0.166800187357 0.0361595084437
21813738 0.0654677519302 0.0153424382889 0.294573069509 -0.10533207033 0.298260915628 -0.106991913367 -0.166761824964 0.0362014582136
21846684 0.065498386355 0.0153856911531 0.29477099817 -0.105440319931 0.298113561297 -0.107246671308 -0.166875095148 0.0362399316825
21879630 0.0656109217827 0.0154448541618 0.294478409479 -0.105781424325 0.297995207086 -0.107428207926 -0.166646570611 0.0362089679619
21912576 0.0656999637315 0.0153951860268 0.294633107875 -0.105961705588 0.298051380264 -0.107563558669 -0.166626059536 0.0361634325351
21945522 0.065686667744 0.0154447735219 0.294508660009 -0.106075828086 0.297824442824 -0.107658898885 -0.16661770426 0.0363007396534
21978468 0.0657179852352 0.0154523180566 0.294485062117 -0.105997840551 0.297885540311 -0.107918292017 -0.166659471181 0.0363531238407
22011414 0.0657299097126 0.0154303952421 0.294409786481 -0.106417862624 0.297968660344 -0.108074831669 -0.166514973579 0.0363280498709
22044360 0.0657513995324 0.0152878909592 0.29422003909 -0.106217945807 0.297776690525 -0.108011207156 -0.166536613477 0.0363707241066
22077306 0.065826634772 0.0153164593298 0.294293040083 -0.106424335723 0.297619096363 -0.108243489106 -0.166699543435 0.0364133457299
22110252 0.0659233178732 0.015242549525 0.294029142318 -0.106758399666 0.297565655256 -0.108490921996 -0.166398940843 0.0364618674218
22143198 0.0660319715532 0.0153544876907 0.294119514658 -0.106917320932 0.297836787094 -0.108844333347 -0.166334683746 0.0366288112128
22176144 0.0660220826878 0.0153596926967 0.293941616979 -0.107111601814 0.297384432888 -0.108781951054 -0.166412781833 0.0366699893035
22209090 0.0659623435116 0.0152658459129 0.294066301207 -0.107136925666 0.297535303376 -0.108898816415 -0.16657555791 0.0366305342929
22242036 0.0660566869433 0.0153329647079 0.293888859346 -0.107347487767 0.297268289969 -0.109157480364 -0.166360479974 0.0366089568531
22274982 0.0660622387215 0.0152909744491 0.293702105362 -0.107527627103 0.297235242185 -0.109264002738 -0.166328725553 0.0366822299665
22307928 0.0660952652916 0.0152858335487 0.293835474397 -0.107540300367 0.297455694115 -0.109557112397 -0.166348363351 0.0367644135043
22340874 0.0661674328555 0.0154624722474 0.293715675897 -0.107747340672 0.29719831979 -0.109316820383 -0.166319900215 0.0367936667212
22373820 0.0662872439058 0.0154350793414 0.293545822475 -0.107951047658 0.297091346607 -0.109523164048 -0.166313581141 0.0368928684203
22406766 0.066157179845 0.01533124379 0.293391767347 -0.107886326304 0.296996838157 -0.10965810409 -0.166229078488 0.0368404469174
22439712 0.0662458226262 0.0152839968655 0.293512288582 -0.108029461113 0.296955029251 -0.109850745979 -0.166220214273 0.0368085630583
22472658 0.0663641087655 0.0153105852457 0.29337128665 -0.108387181494 0.297011541753 -0.110156737173 -0.166168711635 0.0368271919651
22505604 0.0664289132742 0.0152442142017 0.293294439366 -0.108503346285 0.296810114109 -0.11024989276 -0.166100285497 0.0369315740195
22538550 0.0665356748917 0.0150811975691 0.293239347511 -0.108631144404 0.296776549205 -0.110434814392 -0.165980522592 0.0369103049085
22571496 0.0663568599776 0.0153398277819 0.293100765725 -0.108583641118 0.296679503359 -0.110334239578 -0.166085569217 0.0369445498378
22604442 0.0664965183424 0.0154420405084 0.293162831314 -0.108915015572 0.296618371791 -0.110685742051 -0.166020067266 0.0372232147018
22637388 0.0664712561412 0.0152196875871 0.293028538091 -0.108932507851 0.296651177909 -0.110814033204 -0.166075017939 0.037076475181
22670334 0.06651271201 0.0151931637466 0.2930371962 -0.109131326703 0.296547403787 -0.110943176955 -0.166199502021 0.03701322246
22703280 0.0666237530278 0.0151550338539 0.292902685288 -0.109343113881 0.296386707286 -0.111095431581 -0.165936999486 0.0370030291646
22736226 0.0666885728805 0.0151728410859 0.293011452827 -0.1094667369 0.29653676427 -0.111278062411 -0.165916516745 0.0372070643193
22769172 0.0667261369706 0.0152751660179 0.292806375812 -0.109448094376 0.296203132437 -0.111227672428 -0.165795195752 0.0371726886379
22802118 0.0667455794333 0.0152011730886 0.292707036093 -0.109714877083 0.296449493667 -0.111501769949 -0.165855700637 0.037248041427
22835064 0.0667712109455 0.0151050758228 0.292620588589 -0.110010863244 0.296138947673 -0.111735145897 -0.166009324435 0.0372689283068
22868010 0.0667685584404 0.0152105232925 0.292397899735 -0.110026313244 0.295899741947 -0.111777642454 -0.165797412137 0.0373593600901
22900956 0.0669112662651 0.0151916150308 0.292370470159 -0.11019429853 0.296002081475 -0.111928632628 -0.165705280196 0.0373712371613
22933902 0.066902343993 0.0152157345124 0.292403599665 -0.110129269506 0.29584365306 -0.111995952361 -0.165637926461 0.0374121678062
22966848 0.0669633115051 0.0150956186878 0.292557060653 -0.11057760173 0.296142829788 -0.112356136907 -0.165696645125 0.0374391672201
22999794 0.0669198248823 0.0150644891128 0.292362757826 -0.110458471714 0.295911477808 -0.112307363903 -0.165658762677 0.037418775031
23032740 0.0669673598916 0.0149715956958 0.292266364179 -0.110855191594 0.295696509552 -0.112547621069 -0.165760557015 0.0374732391528
23065686 0.0669963204965 0.0151039725554 0.29207960613 -0.11097417611 0.295597160563 -0.112750688743 -0.165636722711 0.0375370123049
23098632 0.0671879046371 0.0151129325771 0.292108178474 -0.111044949321 0.29552915021 -0.112922809508 -0.165569397226 0.037593234839
23131578 0.0671894425574 0.0150275403856 0.292194450041 -0.111063077985 0.295767185513 -0.11311144686 -0.165542772936 0.037585041561
23164524 0.0672320203971 0.0150598947581 0.292063307399 -0.111157441237 0.295537247284 -0.113198653255 -0.16545170471 0.0376261724781
23197470 0.0672540497783 0.0152547692155 0.291910669103 -0.111481047471 0.295325223404 -0.113199646809 -0.16560091547 0.0377456566231
23230416 0.0672718579283 0.0151077467979 0.291642467511 -0.111313232485 0.295322687573 -0.113451713292 -0.165403874291 0.037751999626
23263362 0.0671946721023 0.0151083083277 0.291698842386 -0.111552495352 0.295245279764 -0.113524729468 -0.165451781845 0.0377741745163
23296308 0.0672671402357 0.0151304967426 0.291774334587 -0.11176588781 0.295135688672 -0.113635041189 -0.165498968815 0.0378133917537
23329254 0.0674976873547 0.0150285703324 0.291691563323 -0.112022439752 0.295231235356 -0.113874409205 -0.165289797881 0.0377000670274
23362200 0.0674949114911 0.0149892577013 0.291537182518 -0.1122449482 0.295055992844 -0.114043281778 -0.165248325625 0.037872627706
23395146 0.0675005019995 0.0151686685656 0.291575752821 -0.112145839012 0.294944194991 -0.114102050818 -0.165301088611 0.0378890318285
23428092 0.0675097812684 0.0150982171246 0.291339470046 -0.112275908865 0.29495011714 -0.114296779805 -0.165196254858 0.0378536011448
23461038 0.067516489449 0.0150357418444 0.291354093503 -0.112677422085 0.294739295054 -0.114436798709 -0.165336023597 0.037952027958
23493984 0.067576228015 0.0150028645047 0.291213796776 -0.112690225698 0.294766176721 -0.11460036879 -0.165196980231 0.0380385847697
23526930 0.0677689229639 0.0149547875533 0.291270722088 -0.112797443775 0.29481057868 -0.114855648257 -0.165097365297 0.0380901761423
23559876 0.0676960385146 0.0149780522348 0.291008444724 -0.112841331476 0.294770699719 -0.114877209337 -0.16505879097 0.0379292820207
23592822 0.0677620161543 0.0151211364038 0.291202943581 -0.11317443388 0.294568335245 -0.115012206055 -0.165286360392 0.0381454996924
23625768 0.0676249933556 0.0149902787992 0.290808080884 -0.113383496101 0.294470929933 -0.115367793961 -0.165202229572 0.0380839715396
23658714 0.0678204436456 0.0149203319625 0.290840131986 -0.11341270595 0.294341035838 -0.115331122809 -0.165070111 0.0381137546592
23691660 0.0678870267922 0.014942423311 0.290965281187 -0.113447732063 0.294296995775 -0.115414471412 -0.164957982775 0.0382556120323
23724606 0.0679641284925 0.0149240323372 0.290826346859 -0.113517300988 0.294317832027 -0.115647820344 -0.16488504406 0.0380462245101
23757552 0.0679925105915 0.0150695232493 0.29076659433 -0.11382491201 0.29413959693 -0.115715983177 -0.165044496212 0.0383252344145
23790498 0.0678728187946 0.0150358957178 0.290776241273 -0.11385935732 0.294166413145 -0.115826602553 -0.164962589948 0.0384649699453
23823444 0.0679435016501 0.0149376038471 0.290397300335 -0.114023165351 0.294101032315 -0.11605767046 -0.165112788696 0.0383243510324
23856390 0.0680910046068 0.0149382503614 0.290737994447 -0.114199917196 0.293991421407 -0.116166452219 -0.164834473343 0.0384511793178
23889336 0.0681185778381 0.0150337048424 0.290461886386 -0.114205384356 0.293884036283 -0.116211734385 -0.164751060055 0.0384226762078
23922282 0.0682377505976 0.0149345418083 0.290331593125 -0.114569556849 0.29382445435 -0.11632342022 -0.164887624454 0.0384502114972
23955228 0.0681210234058 0.0148567180371 0.290366381909 -0.1146124076 0.293911852775 -0.116618645768 -0.164906550173 0.0385701523552
23988174 0.0681348685691 0.0148512372556 0.290111376948 -0.11497213781 0.29366991295 -0.116839660572 -0.164855049636 0.0384865658558
24021120 0.0681697571605 0.0149066188998 0.290066393787 -0.114875267994 0.293659578652 -0.116932127596 -0.164773999904 0.0385465606217
24054066 0.0683750719521 0.014875777244 0.290263718672 -0.115037201369 0.293576443404 -0.116935185385 -0.164713520369 0.0386441959274
24087012 0.0684296630751 0.0148851443772 0.289829075571 -0.115241477726 0.293370784904 -0.117068858669 -0.164679937179 0.0386130503986
24119958 0.068323028535 0.0149535060717 0.289835916392 -0.115140101994 0.293432074427 -0.117277660573 -0.164651723674 0.0386864462183
24152904 0.0685425910499 0.01482637688 0.289985160874 -0.115434024919 0.293230887061 -0.117406770626 -0.164671700651 0.0386667266678
24185850 0.0684393032733 0.0147848252322 0.289633411962 -0.115801777049 0.293213706881 -0.117542658527 -0.164709832875 0.0387554989695
24218796 0.0685376727095 0.0148716573169 0.289638515113 -0.115634296935 0.293142329316 -0.117786711915 -0.164509370077 0.0387955795417
24251742 0.0685774124251 0.0149428383824 0.289632124784 -0.116013637055 0.293153225007 -0.11774086297 -0.164508545654 0.0387392080855
24284688 0.0686888847736 0.0148681103287 0.289713652287 -0.116008501713 0.293263426275 -0.118012990395 -0.164477935867 0.0389211843056
24317634 0.0685894320762 0.0147832924752 0.289676819451 -0.116059265138 0.292925670328 -0.118097821767 -0.164595661615 0.0387868231188
24350580 0.0685751805559 0.0147586707625 0.289182035997 -0.116302441797 0.292899751157 -0.118350625502 -0.164564735608 0.0389974776112
24383526 0.0687435751346 0.0147492001128 0.289369159441 -0.116362503671 0.292829205907 -0.118431336571 -0.16444656046 0.0389535107835
24416472 0.0688136647963 0.0149368977467 0.28936991098 -0.116653354834 0.292720929417 -0.118512322843 -0.164413381794 0.0390117881603
24449418 0.0687910905134 0.0147551628184 0.289193207614 -0.116671256434 0.292775324301 -0.118758668289 -0.164410763642 0.0388820611257
24482364 0.06884567393 0.0148258656036 0.289031734247 -0.116616456236 0.292729790687 -0.118880257531 -0.164310188455 0.0390525949454
24515310 0.0687990615788 0.0146095849819 0.289092354564 -0.117268300629 0.292609528676 -0.119101824621 -0.164424299947 0.0389688955052
24548256 0.0688515853572 0.014752366782 0.288796052591 -0.11705995379 0.292460443041 -0.119234899794 -0.164321401606 0.0390708260318
24581202 0.0689998235643 0.0146153477689 0.289094109836 -0.117373164219 0.292360191345 -0.119355565697 -0.164143431253 0.0391019357925
24614148 0.0689942239199 0.0147626326359 0.288880183505 -0.117231940402 0.292269827726 -0.119388355926 -0.164117261431 0.0391961524658
24647094 0.0690966182182 0.0147994119724 0.288876631037 -0.117767754782 0.292303917751 -0.119668739464 -0.164157805801 0.0392505738771
24680040 0.0692360739631 0.0147990918935 0.288710813052 -0.117732809327 0.292159599397 -0.119699530061 -0.164057607807 0.039354440652
24712986 0.0692862329685 0.0147802505525 0.288735869203 -0.117813409524 0.292175820786 -0.119827477804 -0.163964294186 0.0393553875085
24745932 0.069195560656 0.0146886266768 0.288491657946 -0.117845673078 0.292029451232 -0.120044832737 -0.164029101914 0.0392241857652
24778878 0.0691161202436 0.0146545432014 0.288594875233 -0.118190748218 0.291852080697 -0.120047919043 -0.164175040579 0.0393130832627
24811824 0.0691003145611 0.0146562349378 0.288269854847 -0.118208130599 0.291891212706 -0.120305419867 -0.164137126241 0.0392880090527
24844770 0.0694021018995 0.0146536505053 0.288421289982 -0.1184214796 0.291889365036 -0.120537385601 -0.164001714813 0.0395227804792
24877716 0.0694491802247 0.0147296030979 0.288196061409 -0.118532010192 0.291728509351 -0.120446925055 -0.163917265767 0.0394703244661
24910662 0.0694339613598 0.0147124696262 0.288041187128 -0.118462422753 0.291691857515 -0.12064260274 -0.16385077006 0.0395123303975
24943608 0.0694468979206 0.0146656665471 0.288275943563 -0.118858568409 0.291420987641 -0.120867892999 -0.16400188806 0.0396445231578
24976554 0.0694164102601 0.0145075948366 0.288007764483 -0.118971957409 0.291489324604 -0.120834507352 -0.163892998763 0.0395889361165
25009500 0.0695172902112 0.0145300198095 0.287974931417 -0.119172000039 0.291310851035 -0.121076315618 -0.163818586946 0.0395595347294
25042446 0.0695590845281 0.0145995328523 0.287805559394 -0.119126882895 0.291405852651 -0.121332200785 -0.163888071761 0.0397368468733
25075392 0.0696101814844 0.014629270729 0.287893347364 -0.119398525906 0.291325368985 -0.121570745783 -0.163748440239 0.0396559734541
25108338 0.0697005846833 0.0146600815405 0.287720536463 -0.119482598626 0.29120171348 -0.121458397588 -0.163760574683 0.0396233409129
25141284 0.0696554789317 0.0146182190141 0.287827827199 -0.11941645228 0.291061568149 -0.121643652346 -0.163742497529 0.039762814742
25174230 0.0696302427052 0.014567684095 0.28759201409 -0.119843890104 0.291020091696 -0.121816320535 -0.163785437831 0.0397449294729
25207176 0.0698126609224 0.014517407117 0.287414847756 -0.11972106405 0.29092749541 -0.121840030099 -0.163691517422 0.0397389849017
25240122 0.0698471719303 0.0145840579157 0.287600598685 -0.12007385989 0.290878049368 -0.122247844779 -0.163564412584 0.0399168549307
25273068 0.0699676288342 0.0146872860628 0.287435963872 -0.120233952167 0.290847631847 -0.122318612405 -0.163521986095 0.0398886788052
25306014 0.0699842415769 0.0144911510084 0.287387564076 -0.120344952084 0.29061084984 -0.122431316373 -0.163575158407 0.0398679545396
25338960 0.0699526404751 0.0145019144867 0.28732767503 -0.120443796606 0.290859139554 -0.1226120626 -0.163539046639 0.0398853251692
25371906 0.0699131992834 0.0143417816053 0.287212556953 -0.120558582044 0.290576478987 -0.122568793523 -0.163698587866 0.0399176538188
25404852 0.0699240661165 0.0144373136657 0.286812185165 -0.120602157107 0.290482874429 -0.122908771521 -0.163501192278 0.0400544949453
25437798 0.0702040250316 0.0145677048169 0.287115941497 -0.120820480468 0.290522494964 -0.123035115754 -0.163339017299 0.0400098526997
25470744 0.0701302758763 0.0145366404821 0.286896066802 -0.120963089423 0.290302178799 -0.123079862781 -0.163415884624 0.0399769831526
25503690 0.0700497803275 0.0143962129819 0.286718760763 -0.120990511334 0.29031645799 -0.123256698144 -0.163424538726 0.0401368185375
25536636 0.0701023304204 0.0144143404815 0.286897643294 -0.121292780371 0.290256558956 -0.12330777633 -0.163506287751 0.0401217943211
25569582 0.0701492585532 0.0143150400428 0.286714172347 -0.121471044021 0.290116508892 -0.123489816537 -0.163465556591 0.0401289543188
25602528 0.0702083511885 0.0143514313461 0.286507827383 -0.121487033774 0.290169771698 -0.123777903631 -0.163395089808 0.0402285210886
25635474 0.0703647072125 0.014345461899 0.286777752871 -0.121704893296 0.290024098959 -0.123888680559 -0.163241486211 0.040258159485
25668420 0.0704580920679 0.0144028582528 0.286865428256 -0.121712162963 0.289925711653 -0.123771868903 -0.163108225952 0.0402526883679
25701366 0.0704320678012 0.0144363069787 0.286559120418 -0.122012401043 0.289847652298 -0.124001057047 -0.163153088691 0.0402092635726
25734312 0.070437715678 0.0143150355601 0.286454895973 -0.121841776153 0.289692895704 -0.12424544228 -0.163212703184 0.0402673570675
25767258 0.0704031554843 0.0143358854228 0.286370855951 -0.122366231577 0.289834537488 -0.124358837143 -0.163195457264 0.0403526610949
25800204 0.0705663556345 0.0143585936906 0.286375709631 -0.122348379909 0.289572854916 -0.124665954894 -0.16297152818 0.0404526401814
25833150 0.0706855029923 0.0145200692912 0.286013449376 -0.122346634988 0.289478562781 -0.124629034281 -0.163013579557 0.0405379832417
25866096 0.0705782212007 0.0144771218567 0.285945304354 -0.122592453223 0.289410181537 -0.124753391037 -0.163074441616 0.0404227954557
25899042 0.0706758710873 0.0143220658383 0.286012996585 -0.122499158112 0.289354906485 -0.124846172766 -0.163012948623 0.0405698071664
25931988 0.0706897633664 0.0142686302002 0.285730763799 -0.122659436552 0.289261138771 -0.12512569806 -0.163086029396 0.0406321597623
25964934 0.0707463722997 0.0144199829963 0.285739596975 -0.123069147466 0.289268030756 -0.125307668204 -0.162940713925 0.0406310387464
25997880 0.0707391884365 0.014357641429 0.285821246314 -0.123142967722 0.28930727288 -0.125468394608 -0.162889937 0.0406389332241
26030826 0.0708220337406 0.0141524652629 0.28580012798 -0.123222095323 0.289102617754 -0.125333904092 -0.162930188509 0.0406687800932
26063772 0.0708474913398 0.0142830020893 0.285513323253 -0.123209957239 0.288935634718 -0.125602417275 -0.162875529193 0.040714913722
26096718 0.0709647663391 0.0141873028444 0.285659684292 -0.123498788785 0.288986438797 -0.125817723628 -0.162837898904 0.040681746367
26129664 0.0710274291878 0.0142727022364 0.28561766624 -0.123791670577 0.288826171006 -0.125849694844 -0.162612399454 0.0407788606835
26162610 0.0710340825171 0.0143691678012 0.285329388474 -0.123701557803 0.288803400251 -0.125957412292 -0.162588315633 0.0408269230047
26195556 0.0711439831117 0.0143921426416 0.285173130708 -0.123783562159 0.288612485807 -0.126132620098 -0.162700709265 0.0409201389771
26228502 0.0710226411047 0.0142509748711 0.285225349507 -0.123813619789 0.288470633734 -0.126297659567 -0.162742074344 0.0409075595361
26261448 0.0711600799188 0.0142115609205 0.285217234808 -0.124062949345 0.288513046387 -0.126365055824 -0.16266741011 0.0408976355252
26294394 0.0710715464009 0.0140860476028 0.285183468421 -0.124482996787 0.288497288839 -0.126473344273 -0.16271657756 0.0409070788094
26327340 0.0710919076443 0.0141367296413 0.284890726701 -0.124615733087 0.288344515255 -0.126805799447 -0.162660107449 0.0409787817741
26360286 0.0712962621539 0.0141397111863 0.285073246987 -0.12472116582 0.288302299678 -0.126888046515 -0.162546342763 0.0409365467422
26393232 0.071376058677 0.0142845290802 0.284961991176 -0.124874436145 0.288306220334 -0.127068170056 -0.162517364143 0.0410174181234
26426178 0.0713317365964 0.0141708054473 0.284844052212 -0.125001833692 0.288322158163 -0.127178134932 -0.162462640883 0.0410643507878
26459124 0.0715391321099 0.0141844757571 0.284488638572 -0.124864490552 0.288053821517 -0.127273651626 -0.162402783817 0.0411192541234
26492070 0.0715186254211 0.0142624462918 0.284574201581 -0.125140405954 0.288041593895 -0.127269809482 -0.162390264385 0.0412445004523
26525016 0.0714252153828 0.0140697322827 0.284525592474 -0.125176512402 0.287924923885 -0.127751610627 -0.162397929817 0.0410610371241
26557962 0.071439920891 0.0140449843561 0.28438566209 -0.125500810929 0.287809160139 -0.127599744131 -0.162302343388 0.0412031545822
26590908 0.0715395274016 0.0140563183138 0.284291175594 -0.125553944238 0.287749709019 -0.128048556607 -0.162479046217 0.0412422531155
26623854 0.0715823544842 0.0141215376356 0.284574639336 -0.125785100447 0.287736213643 -0.128073945044 -0.162286915278 0.0411932717341
26656800 0.0716413928876 0.0141379323226 0.28417446 -0.125913150703 0.287690320363 -0.128196273627 -0.16227908888 0.0413155046418
26689746 0.0717922149797 0.0141098656618 0.284254920347 -0.125905022594 0.287572980101 -0.128179000653 -0.162118260917 0.0413184366179
26722692 0.0717670944151 0.0140460359323 0.284114745577 -0.125902156595 0.287356450681 -0.128448778799 -0.1622241404 0.041387621926
26755638 0.0717417087584 0.0139859681456 0.284042751151 -0.126298227448 0.287328116621 -0.128374165365 -0.162181183618 0.0414412748114
26788584 0.07190227307 0.0140941104988 0.284030998453 -0.126355718762 0.287419969832 -0.1287853209 -0.162199356876 0.0414719866352
26821530 0.0718743685337 0.0139199310216 0.283991708391 -0.12658680737 0.287284956495 -0.12888829071 -0.16204983001 0.0414050223338
26854476 0.0718814752723 0.0139999230656 0.283806478241 -0.126486019849 0.287202380184 -0.128826334141 -0.162008007253 0.0414918161452
26887422 0.0719564523227 0.0138742175432 0.283615518471 -0.126876544165 0.286885155674 -0.129272314624 -0.161987585343 0.0413545918394
26920368 0.0719987068832 0.0138191758948 0.283549022667 -0.126887663887 0.286819758513 -0.129392726498 -0.161964863017 0.0414822792622
26953314 0.0721095672045 0.0139844729024 0.283524396788 -0.126852670305 0.286778532298 -0.1291902735 -0.161986550852 0.0417769074997
26986260 0.0721963824076 0.0140155165019 0.283595690416 -0.127089725163 0.286932006978 -0.12960525088 -0.161929346967 0.0415777659113
27019206 0.0720597137669 0.013950477509 0.283411211458 -0.127299750148 0.286628239425 -0.129536172209 -0.162045765376 0.0418024924902
27052152 0.0721444196952 0.0140109985238 0.283318015984 -0.127379353253 0.286535051574 -0.129695493338 -0.162028421951 0.0417479066568
27085098 0.072104233809 0.013919823249 0.283264205074 -0.127479373965 0.286497864004 -0.129910181197 -0.161794001985 0.0416152842668
27118044 0.0721104692607 0.0139262586487 0.283239921015 -0.127601190808 0.286509423355 -0.12995241237 -0.161907090321 0.0417046689179
27150990 0.0722870748238 0.0137634520046 0.283098200493 -0.127856090151 0.286361225399 -0.130225271158 -0.161814428277 0.0416054224516
27183936 0.0722527192246 0.0137781684785 0.282952505867 -0.128008364595 0.28642042928 -0.130368198662 -0.161857875691 0.0418499131026
27216882 0.072498437537 0.0139154115159 0.282867361666 -0.127959748735 0.286263545059 -0.130441368127 -0.16163204016 0.0419629929526
27249828 0.072451337871 0.0139090999999 0.282921405013 -0.128199709674 0.286206716013 -0.13057354837 -0.161663567298 0.0418376266553
27282774 0.0724898328606 0.0138387378425 0.282680218197 -0.12823849367 0.286016940253 -0.130566258214 -0.161782872911 0.0419650997588
27315720 0.0724038378907 0.0137423575565 0.282699035233 -0.128363965388 0.285917701756 -0.130765708395 -0.161592396992 0.0418215858224
27348666 0.0725155471378 0.013796874739 0.282759820025 -0.128451011571 0.286019116182 -0.130931322731 -0.161464584055 0.0419022906952
27381612 0.0724500217579 0.0137653813805 0.282538142217 -0.128882346603 0.285903411716 -0.131347629951 -0.16176621279 0.0419259512657
27414558 0.0727258308266 0.0138298978075 0.282384644506 -0.128833465448 0.285735376989 -0.131181015065 -0.16153476141 0.0421991754573
27447504 0.072818796959 0.0138298930065 0.282556412278 -0.129027811182 0.285829463947 -0.131405423936 -0.161406431014 0.0420392576833
27480450 0.072633060178 0.0137473919518 0.282240803583 -0.128977015165 0.285415211016 -0.131303860493 -0.161632356785 0.0422638832603
27513396 0.0727321877268 0.0137062807238 0.282207093825 -0.129317221353 0.285665902049 -0.13177973289 -0.161373689713 0.0422257906817
27546342 0.0727859771685 0.0137275718585 0.282310239273 -0.129352518044 0.285634558624 -0.131708125518 -0.161497616462 0.0422220538154
27579288 0.0728979113184 0.0136907920938 0.282021584935 -0.129523171839 0.285375270131 -0.131917198432 -0.161446219051 0.0423351805777
27612234 0.0729346549844 0.0137305702335 0.282015684078 -0.129793486222 0.285269189419 -0.132134075735 -0.161337816483 0.0422789080928
27645180 0.0729304007934 0.0136758564707 0.282032418572 -0.129837091892 0.285363358046 -0.132235231853 -0.161342581308 0.0423168990088
27678126 0.0729198899362 0.0137033509589 0.281873995986 -0.129869533385 0.285099319076 -0.132281958102 -0.161463055998 0.0423638710374
27711072 0.073038255509 0.0135522283201 0.281698914439 -0.130157414845 0.285018811878 -0.132550056828 -0.161283311433 0.0421684581124
27744018 0.0731027745589 0.0137202444336 0.281782807044 -0.130237300704 0.285092094263 -0.13276495273 -0.161114033119 0.042448395078
27776964 0.0731317229012 0.013620227252 0.281540886045 -0.130268121518 0.2846461141 -0.132622952331 -0.161368976888 0.0425439437219
27809910 0.0731408765036 0.0136086763878 0.28145776248 -0.13034849115 0.284798670569 -0.132756825357 -0.161249877712 0.0424099408255
27842856 0.073077103349 0.0135051473775 0.281563087404 -0.130571783593 0.284614291635 -0.133149180225 -0.161151265759 0.0423367865141
27875802 0.073320203336 0.0136667221004 0.281459786081 -0.13082428451 0.284714303293 -0.133315089582 -0.160987947608 0.0424801362727
27908748 0.0733793880587 0.0136303677519 0.281299737054 -0.130789932822 0.284690710599 -0.13349336581 -0.161090504511 0.0425166428896
27941694 0.0733249291007 0.0135816610903 0.28113244196 -0.130891642177 0.284247046884 -0.133335617985 -0.161106285527 0.0427880326198
27974640 0.0733209289655 0.0135903721264 0.281141930812 -0.131130078955 0.284405930661 -0.133508394534 -0.161112097688 0.0426960319857
28007586 0.0733005637127 0.0134498147491 0.280936641745 -0.131192722158 0.284213137177 -0.133787347549 -0.160987545558 0.0424729308704
28040532 0.0734750998978 0.0135507084174 0.280941139438 -0.131289439014 0.284250035426 -0.133754879604 -0.160931698437 0.0428179415538
28073478 0.0736698150534 0.0135900596136 0.280930622059 -0.131421963037 0.284193933789 -0.134060834758 -0.160777340051 0.0426636968127
28106424 0.0734742272768 0.0136529233528 0.280911930637 -0.131644957455 0.284229469572 -0.134099913906 -0.160871322993 0.0427805159172
28139370 0.07359602837 0.01347639915 0.280784702231 -0.131805747966 0.284054063357 -0.134297421156 -0.160821373134 0.0427207087203
28172316 0.0734876615034 0.0134829375236 0.280623569823 -0.131780964574 0.283912835434 -0.134457421449 -0.160863724187 0.0427237661745
28205262 0.0736452676896 0.0133924724324 0.280638171494 -0.132063483618 0.283855534613 -0.134538583298 -0.160838153486 0.0429558670834
28238208 0.0736842349879 0.0133829058702 0.280547459451 -0.132167736523 0.283841834832 -0.134725309869 -0.160847421769 0.043075172658
28271154 0.0737774886468 0.0135008090524 0.280411981627 -0.132217667599 0.28372315401 -0.134802180556 -0.16068652127 0.0430101247804
28304100 0.0738214355053 0.0134761063516 0.280338852096 -0.132512725408 0.283556580323 -0.134899001744 -0.160851116624 0.0431036371701
28337046 0.0737599465731 0.0134205881294 0.280185874488 -0.132599099591 0.283583103191 -0.135093607174 -0.160676896929 0.0429418718733
28369992 0.0738029851489 0.0133195839333 0.280144432986 -0.132737195257 0.283416993807 -0.135289641971 -0.160813165849 0.0429685551379
28402938 0.0738980339422 0.0134373201175 0.28012895147 -0.132833423262 0.283357262954 -0.135404610834 -0.160565603972 0.0429956430026
28435884 0.0738975609128 0.0132505497492 0.27989166211 -0.132980540783 0.283200363929 -0.135537578049 -0.160656016951 0.0429062439576
28468830 0.0739653525461 0.0132257675086 0.280111649014 -0.133026793883 0.283302156496 -0.135548976437 -0.160610867755 0.0431363320814
28501776 0.0741997282661 0.0132900694006 0.279724247051 -0.133153241299 0.282996504458 -0.13577137664 -0.160377102126 0.0430368388658
28534722 0.0740060549855 0.0133692131959 0.279729265558 -0.133268947287 0.283035914709 -0.13583396123 -0.160552787368 0.0431905199592
28567668 0.0740886431907 0.0133532963473 0.279669548464 -0.133615662815 0.282916456619 -0.136098153059 -0.160658788003 0.0432540645276
28600614 0.0741377628357 0.0133135413624 0.279817085892 -0.1336794052 0.282890709028 -0.136217676629 -0.160365753073 0.0433863518157
28633560 0.0743124390405 0.0132160624425 0.279433556775 -0.133632666746 0.282687494948 -0.136196783452 -0.160431489937 0.0431805343746
28666506 0.0742193200222 0.013284916855 0.279604008402 -0.133887680204 0.282813354732 -0.136460630128 -0.160218206741 0.043200058178
28699452 0.0743072206265 0.0133306429399 0.27940465298 -0.13388745879 0.282562921092 -0.13651516454 -0.160415717809 0.0433248649836
28732398 0.0744507514752 0.0132529677876 0.279402108128 -0.134281645699 0.282583468868 -0.136749881733 -0.160204227879 0.0434707569715
28765344 0.0745514563218 0.013203264938 0.279222738333 -0.134150905071 0.282448750522 -0.137029312312 -0.160125074695 0.0433885128575
28798290 0.0744868393956 0.0132668296799 0.279361322871 -0.134504879172 0.282271907991 -0.136954583633 -0.160294307984 0.0435982365479
28831236 0.0743733110606 0.0131183546631 0.279114960695 -0.134507637026 0.282210874595 -0.137001321357 -0.16022366999 0.0433170117664
28864182 0.0745722188723 0.012988878292 0.278943982701 -0.134699897804 0.282098878492 -0.137180378372 -0.160155664757 0.0434007573371
28897128 0.0747395618457 0.0132630556501 0.278773207313 -0.134656228277 0.282141231902 -0.137431628978 -0.159932251761 0.04354085775
28930074 0.0745247258852 0.0133303197086 0.278890369642 -0.134793832541 0.282112819503 -0.137522154849 -0.160147849513 0.0436567994234
28963020 0.0745557375825 0.0130685913655 0.278764458666 -0.135158709345 0.281999441481 -0.137631375339 -0.16003958891 0.0434988780418
28995966 0.0746940773463 0.0131626645137 0.278656439118 -0.134937570493 0.281798469363 -0.137692651762 -0.160095960346 0.0435470684887
29028912 0.0747496543999 0.012994681126 0.278696502819 -0.135374793477 0.281876422309 -0.137918045048 -0.160029659522 0.0435749985847
29061858 0.0748746563278 0.0130190949008 0.278197494381 -0.135402666629 0.281705220097 -0.138124052504 -0.159952791195 0.0436548026831
29094804 0.0746789386605 0.0132185413459 0.278324136806 -0.135484456841 0.281743699607 -0.138218614198 -0.160037998414 0.0438688969075
29127750 0.074902059452 0.0129886938615 0.278539753462 -0.135682209295 0.281776583494 -0.138295173684 -0.159814079394 0.0437029280242
29160696 0.0747890892679 0.0130151081953 0.278198011317 -0.135738488189 0.281386803441 -0.138354076004 -0.159938588373 0.0437188740591
29193642 0.0749649558107 0.0130677716016 0.278294710108 -0.136015673249 0.281371839858 -0.138613516199 -0.159890946355 0.0439314486732
29226588 0.0750138903427 0.0130787980877 0.278310715333 -0.136149320246 0.28123606468 -0.138765824649 -0.159827691814 0.0439978456521
29259534 0.0750483205259 0.0131008878395 0.27807898544 -0.136386176322 0.281268635514 -0.138936819526 -0.15973651238 0.0439881568589
29292480 0.0751085065539 0.0129710961623 0.277896070281 -0.136220709806 0.281133515614 -0.138812644841 -0.159772165517 0.043849288209
29325426 0.0751267625196 0.0128276043256 0.277877197541 -0.136456603859 0.28105049935 -0.139167093212 -0.159744208844 0.0437950831465
29358372 0.0751739095801 0.0130647931733 0.277704084358 -0.136637217651 0.280866064717 -0.13925320201 -0.159620145905 0.0440029130903
29391318 0.0754021373043 0.0129774720552 0.277633273505 -0.13664330788 0.2809327936 -0.139521306985 -0.159555093205 0.0439033950668
29424264 0.0753563888645 0.0128680499102 0.277447779615 -0.136830895679 0.280718315465 -0.139439148061 -0.159590776513 0.0440269859395
29457210 0.075313809941 0.0129713726565 0.277640020879 -0.137158449695 0.280767731352 -0.139704932739 -0.159633074975 0.0440914707497
29490156 0.0754264207041 0.0128640551991 0.277573894764 -0.137144952113 0.280707059608 -0.139699628722 -0.159347904917 0.0441511609444
29523102 0.0754242184273 0.0128803456481 0.277152925629 -0.137176138636 0.280423468353 -0.139871915068 -0.159483004852 0.0440610354593
29556048 0.0752544581965 0.0129261970646 0.277161189357 -0.137380341304 0.280394526275 -0.140146486117 -0.159695780452 0.0440788243691
29588994 0.0755343977419 0.0127520480624 0.277127223441 -0.137495285952 0.280291163525 -0.139984562075 -0.159443805473 0.0442423744154
29621940 0.0756634059221 0.0130047690842 0.277034837557 -0.137448771406 0.280361513276 -0.140449178636 -0.15934671356 0.0442284766112
29654886 0.0755598200408 0.0128616749194 0.277107355572 -0.137735496276 0.280312882513 -0.140358075493 -0.159431997038 0.044385437868
29687832 0.0755151404006 0.0127977139603 0.276851505781 -0.137751431812 0.280065748123 -0.140457456391 -0.159376237493 0.0442949768499
29720778 0.0757631393262 0.0127576353187 0.276819021765 -0.137891294723 0.280037734462 -0.140629091956 -0.159310827278 0.0444088096251
29753724 0.0759069380446 0.0129348234676 0.27684764046 -0.138250304157 0.280004808268 -0.140956075731 -0.159073597185 0.0445197417467
29786670 0.0756925458447 0.0128655493352 0.276740765191 -0.138401676371 0.279923554296 -0.141067416857 -0.159190746409 0.0444531372661
29819616 0.0758223907082 0.0127009999667 0.276429176243 -0.138240541989 0.279646557717 -0.141038602033 -0.159299527603 0.0443586335793
29852562 0.0758944985016 0.0125568003806 0.276644391627 -0.138498270998 0.279745965575 -0.141099099495 -0.159208622935 0.0442772303828
29885508 0.0761283919051 0.0126561209673 0.276197276914 -0.138637118966 0.279518419656 -0.141580605483 -0.159048453067 0.0444576262976
29918454 0.0761305936147 0.0126779573079 0.276267593405 -0.138694295967 0.279465821423 -0.141591854973 -0.159020861431 0.0444903427889
29951400 0.075893623485 0.0127643212366 0.276449254802 -0.139011774795 0.279491805412 -0.141662627666 -0.159066365724 0.0446611277166
29984346 0.0760313468981 0.0126161323708 0.275917898261 -0.13894535237 0.279297857531 -0.141703593486 -0.15907535964 0.044623728847
30017292 0.0760633547725 0.0125653475095 0.276136200986 -0.139122084636 0.279280095276 -0.141819330487 -0.159023128629 0.0444088630472
30050238 0.0762251849776 0.0126418178662 0.276068295577 -0.139369092794 0.279117197045 -0.142109809141 -0.158854629653 0.0445988009451
30083184 0.0763143425972 0.0126278248915 0.275602395989 -0.139259696876 0.279027424093 -0.142058532462 -0.158871472018 0.0446167470216
30116130 0.076207201085 0.0125759930365 0.275702685757 -0.139298002829 0.27884961628 -0.142051534696 -0.15898370689 0.0448159160434
30149076 0.0762693079698 0.0125653754643 0.275753443537 -0.139581638524 0.278943119442 -0.142382547828 -0.158881952808 0.0448183372039
30182022 0.0762290516102 0.0126065076309 0.275499123181 -0.139625492186 0.278949095796 -0.142514226871 -0.159043603137 0.0448134527437
30214968 0.0763556618183 0.0124850778149 0.275626937376 -0.139832138737 0.278694028546 -0.142484037473 -0.158886013077 0.0447470300483
30247914 0.0765750453678 0.0126723812189 0.275556297563 -0.140062667414 0.278748968401 -0.142889812509 -0.158631989193 0.0448967586543
30280860 0.0764366600864 0.0126247144537 0.275132604737 -0.139978450434 0.278477405373 -0.142784729714 -0.158854992291 0.0450472776251
30313806 0.0764084131352 0.0126252728376 0.275549069704 -0.140298375594 0.278508586419 -0.143128328579 -0.15877656352 0.0449492420194
30346752 0.0765597463799 0.0124597790389 0.275367000915 -0.140497848614 0.278459719118 -0.143214816528 -0.158538035287 0.0448474501411
30379698 0.0765389307453 0.0124324282186 0.275118896721 -0.140378729495 0.278210368901 -0.143211738335 -0.158789253331 0.0449211332788
30412644 0.0765626412645 0.0123298744971 0.275181719823 -0.140902046714 0.27829797076 -0.143552970035 -0.158724655423 0.0448612333864
30445590 0.0767572162622 0.0125587550142 0.275129555285 -0.140945679787 0.278182175606 -0.143738542943 -0.158539248845 0.0451247732361
30478536 0.0768905880198 0.0124061618163 0.275017688264 -0.14098822588 0.278303289652 -0.143856580232 -0.158401181352 0.0450141695053
30511482 0.076673982042 0.0124517630573 0.274650257917 -0.14094197476 0.277941325863 -0.143800598036 -0.158556780383 0.0452021817584
30544428 0.0767392204265 0.0124950940513 0.274976689277 -0.141336936441 0.27793720027 -0.144061735371 -0.158403668812 0.0451077072087
30577374 0.0768233532934 0.0122891001989 0.274572320257 -0.141009162156 0.277863807965 -0.143974539176 -0.15831962739 0.0450620385269
30610320 0.0766734730246 0.0123475214863 0.274571635912 -0.141464861349 0.27766696275 -0.144253361611 -0.158608659106 0.0452328288977
30643266 0.076919914699 0.012208450448 0.274559685425 -0.141455452391 0.27768694796 -0.144249923394 -0.158473644487 0.0451355339373
30676212 0.0770516065259 0.0122556132635 0.274539588228 -0.141793285947 0.27756206377 -0.144488323143 -0.158388717433 0.0451722597564
30709158 0.076986344183 0.0123520463553 0.274390374265 -0.141627869984 0.277459834857 -0.144595253488 -0.158302320242 0.0452494440138
30742104 0.077180214308 0.0121718445698 0.274193736489 -0.141838604925 0.277420360918 -0.144789669636 -0.158315134679 0.0452510909848
30775050 0.0770961933216 0.0123030988967 0.274082893913 -0.141977178785 0.277204598658 -0.144742193097 -0.158321032617 0.0453484118447
30807996 0.0769864523626 0.0123940541424 0.274283072274 -0.142127858865 0.277358905858 -0.145041115204 -0.158276921817 0.0454793950231
30840942 0.0772831621468 0.0121266422639 0.274161176208 -0.142406938867 0.27718856254 -0.145083660742 -0.158120312471 0.0454368888437
30873888 0.0772775004918 0.0121484440655 0.273931053327 -0.142350511045 0.277161744918 -0.145288758093 -0.157979043235 0.0453613524672
30906834 0.0773097088791 0.0122028385029 0.273765695866 -0.142365664495 0.276882173534 -0.14528027674 -0.158091613151 0.045396744962
30939780 0.0774438146777 0.012077056794 0.273674719877 -0.142705839928 0.276813744988 -0.145548236153 -0.158106884786 0.045487291835
30972726 0.0772607118924 0.0122770440392 0.273642089338 -0.142749824219 0.276839213612 -0.145528499737 -0.157999280759 0.0456484623647
31005672 0.0774538426105 0.0120516752625 0.273814073582 -0.143056719775 0.276859992585 -0.145868252327 -0.15786363925 0.045454620838
31038618 0.0773388540534 0.0120837991412 0.273479899559 -0.14298005019 0.276547375291 -0.145876157957 -0.158222982679 0.0455871255635
31071564 0.0775555400486 0.0123041401113 0.27344041908 -0.143047971383 0.276473245162 -0.14601015353 -0.157913948821 0.0456351923691
31104510 0.0777470878948 0.0119787968108 0.273352093464 -0.143368254534 0.276519703055 -0.146284177088 -0.157870431968 0.0456498048416
31137456 0.0774657014136 0.012171549083 0.27344601159 -0.143565919343 0.276424006722 -0.146335173672 -0.157906508498 0.0458324219453
31170402 0.077556858738 0.0121422798753 0.273042399807 -0.143355642801 0.276242578054 -0.146398335946 -0.157877747412 0.0456583602201
31203348 0.0776964309061 0.0119817052486 0.273063160701 -0.143448379024 0.276043047682 -0.146372528281 -0.157944839346 0.0456911332206
31236294 0.0778461052231 0.0119510271549 0.272885732666 -0.143782497462 0.276152206124 -0.146783298644 -0.157812565415 0.0458348727678
31269240 0.07769852167 0.0121314716494 0.273029287865 -0.143994533717 0.276000288623 -0.146865818854 -0.157710665382 0.0458108158395
31302186 0.077738631052 0.0120070079239 0.272539745595 -0.143775010531 0.275813250577 -0.146838522384 -0.157646698418 0.0457562696898
31335132 0.0778938202786 0.0119791687865 0.272802328175 -0.144038833235 0.275706814837 -0.147013973256 -0.157639220294 0.045943971706
31368078 0.0780039655069 0.0118377163354 0.27247388853 -0.144281375786 0.275638436791 -0.147217702086 -0.157720885856 0.045859872284
31401024 0.0778985671126 0.0119284844413 0.272365581723 -0.144227394553 0.275528363203 -0.147116307917 -0.157722353377 0.0459732557803
31433970 0.0779476616972 0.0119234253624 0.272231616286 -0.14430742753 0.275530956873 -0.147472301826 -0.157621079863 0.0459104910989
31466916 0.0781986727082 0.011883286568 0.272335739916 -0.144764168957 0.275467633996 -0.147379220859 -0.157506253737 0.0458879822145
31499862 0.0782145884616 0.0118472495453 0.272324528863 -0.144909510356 0.275311246127 -0.147646649236 -0.157481421145 0.0459738239672
31532808 0.0780514162131 0.0118677462448 0.272126483373 -0.144786947355 0.275202432468 -0.147818870969 -0.157552714182 0.0461395089303
31565754 0.0781575047841 0.0118756793605 0.271857164151 -0.144761404755 0.275169009478 -0.147800423313 -0.157427230057 0.0459916143058
31598700 0.0781667740976 0.0118650830907 0.272125739694 -0.145361747812 0.275008183581 -0.148007590844 -0.157497152227 0.0460892883869
31631646 0.0783437713989 0.0119096893657 0.271900061678 -0.145315149083 0.274944879754 -0.148392797474 -0.157331417799 0.0462268826882
31664592 0.0784165580262 0.0117444291235 0.271773970449 -0.145475025993 0.274729827621 -0.148291475269 -0.157337619903 0.0461579835545
31697538 0.0782807070687 0.0118069841448 0.272028487696 -0.145671773859 0.274845098826 -0.148519979674 -0.157292911823 0.0461600303369
31730484 0.0783272116452 0.0117611475123 0.271474583831 -0.145359924385 0.274739032735 -0.148592883077 -0.157261440712 0.0463105167699
31763430 0.0784349586703 0.0115984656133 0.271579240795 -0.14581954087 0.274595304217 -0.148490863649 -0.15732211783 0.0460822287409
31796376 0.0785964487662 0.0118612205408 0.271656613767 -0.145841161223 0.274574284133 -0.148978421067 -0.157164760334 0.0464102126031
31829322 0.0784534560329 0.0118644953015 0.27120428889 -0.145734908985 0.274319543759 -0.148899881062 -0.157182209304 0.0463594951674
31862268 0.0786418558123 0.0115413157849 0.27146285308 -0.146141872452 0.274294884038 -0.14903409478 -0.157074570466 0.0462264706873
31895214 0.0785627455662 0.0116696818784 0.271223092979 -0.146484639861 0.274349747373 -0.14930085675 -0.157188065041 0.0463672318561
31928160 0.078630030276 0.0115874561256 0.271189495688 -0.146733896873 0.2741708928 -0.149414323671 -0.157259023613 0.0462601839343
31961106 0.078865158596 0.0115205336368 0.271153204376 -0.146328736128 0.274154173184 -0.149349406723 -0.156931750405 0.0464366445154
31994052 0.0788957160819 0.0115052063087 0.271071153443 -0.146557227917 0.273989334419 -0.149459316967 -0.15695633492 0.0463915521299
32026998 0.07881176861 0.0116930121722 0.270903877149 -0.146723880126 0.273904384011 -0.149889358583 -0.157036879221 0.0464745133326
32059944 0.0790055130121 0.0114810799393 0.270766930908 -0.147019950696 0.273805546715 -0.149855346867 -0.156889248044 0.0465408300815
32092890 0.0788378991177 0.0116117732149 0.270906909624 -0.14709840089 0.273905724904 -0.150162280388 -0.156884610428 0.0465830227984
32125836 0.0788588477195 0.0115910435675 0.27052369396 -0.146958544839 0.273677028158 -0.1501498557 -0.157083109914 0.0466185572
32158782 0.078994895335 0.0115184531525 0.270581502864 -0.147125568246 0.273476976974 -0.150261703185 -0.156898929136 0.0466367417295
32191728 0.0790722722943 0.0115498650351 0.270565624173 -0.147423534781 0.273416867245 -0.150398418902 -0.15671436009 0.0467136643965
32224674 0.0792075447653 0.011440577473 0.270418663875 -0.147650976914 0.273446713583 -0.150577547687 -0.156669666115 0.046714674576
32257620 0.0791521222207 0.0114923269227 0.270563842591 -0.147736526074 0.273267143637 -0.150509444781 -0.156613195777 0.0466761791726
32290566 0.0790607523861 0.0114476268352 0.270257531845 -0.147921344171 0.273101357525 -0.150616521423 -0.156785691802 0.0466644037654
32323512 0.0793581063073 0.0113559240973 0.270172280623 -0.147713904336 0.273020778883 -0.150848919004 -0.15654215641 0.0467055734277
32356458 0.0792249147986 0.0114695219629 0.269794003984 -0.147934142809 0.272988141041 -0.150913943024 -0.156655601203 0.0469129370816
32389404 0.0793049224077 0.0114060414323 0.269691944956 -0.147849562474 0.273003032168 -0.151091713854 -0.156608244958 0.0468636078545
32422350 0.0793036470851 0.0112972635028 0.269817228179 -0.148074047996 0.272787416732 -0.151230440728 -0.156716962334 0.0468143586454
32455296 0.0792756149184 0.0112778378162 0.269808524884 -0.14865552236 0.272856970183 -0.151387474123 -0.156669779166 0.0467478232557
32488242 0.0793609577912 0.0113445769343 0.269777363337 -0.148287485039 0.272680263467 -0.151590785295 -0.156603358435 0.0469713267955
32521188 0.0795692045305 0.0113516181643 0.269706505341 -0.148609722062 0.272649729873 -0.15161073687 -0.156391628966 0.0469745981237
32554134 0.0795953256019 0.0112836034134 0.269166339503 -0.148526035105 0.27240751968 -0.151564580647 -0.156478877983 0.0470520592857
32587080 0.0794704996924 0.0113477915222 0.26935781419 -0.14871997444 0.272519977981 -0.151934573941 -0.15652217278 0.047021250435
32620026 0.079600290909 0.011165766479 0.269488960388 -0.149054003288 0.272461247967 -0.152038213578 -0.156285107943 0.0470106352891
32652972 0.079595500049 0.0112427993283 0.26910982462 -0.148718941163 0.272141932996 -0.152075037797 -0.156453339621 0.047056255987
32685918 0.0796582582308 0.0111145602757 0.269267781796 -0.149382322669 0.272144770024 -0.152217036059 -0.156386281715 0.0469911552519
32718864 0.0797753649219 0.0111895569927 0.269044584385 -0.149132010786 0.271919365674 -0.152334029848 -0.156293130785 0.0469958889487
32751810 0.0799539372069 0.0111258865398 0.268920267571 -0.149583067096 0.271870950842 -0.152450682393 -0.156131915295 0.0471658587544
32784756 0.0797176283996 0.0112394779928 0.26896334761 -0.149527518113 0.271955598451 -0.152704041302 -0.156265516717 0.0472711562153
32817702 0.0798821577676 0.0110073877718 0.268625403056 -0.149448752106 0.271741963822 -0.152678561607 -0.15611432376 0.0470762180423
32850648 0.0800102203264 0.0110292356796 0.268841488957 -0.150090918059 0.271667612417 -0.152828912546 -0.15616820772 0.0471541746999
32883594 0.0799346987312 0.011091718587 0.268620779832 -0.14972181256 0.271583086944 -0.153119464988 -0.156057471103 0.0472960551807
32916540 0.0800322223358 0.0111029507794 0.268620414356 -0.149816950399 0.271480839975 -0.153218126093 -0.156079924463 0.0473157847433
32949486 0.0801260423686 0.0110217671081 0.268403001051 -0.15026218382 0.271315208156 -0.153204735008 -0.156097355393 0.0473767166391
32982432 0.0800866455485 0.0110150328027 0.268303546464 -0.150162714087 0.271376039445 -0.153455850024 -0.155934154115 0.047371515563
33015378 0.0801445901844 0.0109798408441 0.268425201193 -0.150554524787 0.271226308535 -0.153452403857 -0.155908521663 0.0473100022107
33048324 0.0801751395224 0.0109467158037 0.268247293739 -0.150652907688 0.271138630497 -0.153495909323 -0.15606377256 0.0473531425856
33081270 0.0802969075859 0.0109566528469 0.268088807906 -0.150500351038 0.270999115142 -0.153863194783 -0.155924163315 0.0474826651223
33114216 0.0803816817186 0.0108735339366 0.26805278554 -0.150775496906 0.271062455944 -0.153924636682 -0.155789808037 0.0475274919935
33147162 0.0804149766611 0.0109436455504 0.267680080125 -0.150677432885 0.270865776098 -0.153782592039 -0.15577378796 0.0475168549291
33180108 0.0804659446374 0.010826519123 0.267844714139 -0.150997319932 0.270632422469 -0.15394333507 -0.155801403263 0.0474540690426
33213054 0.080403171111 0.0108488630068 0.267905755064 -0.151112092442 0.270689489557 -0.154119347108 -0.155919570876 0.0475879007568
33246000 0.0803923192125 0.0108845782845 0.267704220356 -0.151188590063 0.270546730693 -0.15444446801 -0.155858684927 0.0476182433033
33278946 0.0805297294169 0.0109412209968 0.267516022826 -0.151260012591 0.270339029549 -0.154537741881 -0.155718901261 0.0475655159566
33311892 0.0805977272381 0.0107975358433 0.267426715266 -0.151276453039 0.270246179505 -0.154541132813 -0.155725830522 0.0477040049959
33344838 0.080713232895 0.0107278061323 0.267312196275 -0.151298073557 0.27017221317 -0.154714132511 -0.155574901424 0.0477020701895
33377784 0.080719617198 0.0108081120988 0.267255953758 -0.151590370752 0.270204556188 -0.154950283563 -0.155623566561 0.0477607185891
33410730 0.080733627018 0.0107623710723 0.267302160238 -0.151873769439 0.270170429911 -0.155115664022 -0.155565823154 0.0476668405468
33443676 0.0806519103692 0.0107592655885 0.267096907178 -0.151865365987 0.27005955173 -0.154983229397 -0.155511011678 0.0477564065559
33476622 0.080789548218 0.010676418918 0.266930446851 -0.15181484384 0.269936650362 -0.155276642904 -0.155397742757 0.0478622725565
33509568 0.0808529606233 0.0108057891134 0.267056311135 -0.152384433376 0.269777563021 -0.155291326803 -0.155499112003 0.0479473112109
33542514 0.0811344707243 0.0106867035956 0.26701186124 -0.152205981279 0.26976192848 -0.155244293184 -0.155298467617 0.0478864215388
33575460 0.0808868017178 0.0107195462813 0.266667294575 -0.152454306969 0.269615300035 -0.155538946383 -0.155425642446 0.0479030458325
33608406 0.0809818782295 0.0105573299837 0.266665095327 -0.152406453379 0.269535437764 -0.15586861253 -0.1555257842 0.0477865821487
33641352 0.0810544730532 0.0105751253304 0.266615617247 -0.152710887286 0.269672392519 -0.155795466853 -0.155238181633 0.0479684742516
33674298 0.0810949459073 0.0105131213859 0.266624375814 -0.152882812591 0.269234412015 -0.155834319012 -0.155267646204 0.0479904348374
33707244 0.0811361384194 0.0106718168397 0.266348425613 -0.15258790993 0.269320140879 -0.155964979439 -0.155174826229 0.0480537059911
33740190 0.0811077993951 0.0106056049491 0.266141830729 -0.153021226546 0.269168588776 -0.156139622231 -0.155122210971 0.0480512934736
33773136 0.0812080034404 0.0106018569326 0.266256244764 -0.152893716265 0.269038733276 -0.156460014322 -0.155264120027 0.0480179461077
33806082 0.0812524203332 0.0104580868111 0.266132578687 -0.153297696793 0.269187735658 -0.156427614476 -0.155016336523 0.0479957027673
33839028 0.0813652265113 0.0103419715427 0.266209945134 -0.153607845216 0.268942498977 -0.156688468135 -0.155120016324 0.0481819977659
33871974 0.0813154038025 0.010482851786 0.2659062939 -0.153246297537 0.268882550933 -0.156622696064 -0.155156514434 0.0481822943442
33904920 0.0813440011206 0.010448681552 0.26594176463 -0.153755039088 0.268773969002 -0.156733442013 -0.15506316667 0.0481719382512
33937866 0.0813642247566 0.0104316257854 0.265743507045 -0.153709958367 0.268651843799 -0.157102670105 -0.1550744633 0.0481124987761
33970812 0.081514578512 0.0104691504418 0.265592527396 -0.153493737743 0.268556218256 -0.156860593471 -0.154858230723 0.0481239226856
34003758 0.0813764353407 0.0103099771187 0.265707340486 -0.154041731318 0.26840281641 -0.157212125372 -0.15502637862 0.0483292220435
34036704 0.0813741924206 0.0103724785931 0.265543355144 -0.153815322039 0.268364840005 -0.157255650694 -0.15495032458 0.0483218764669
34069650 0.0816629803701 0.0103304162718 0.265516340904 -0.154146212541 0.268258857477 -0.157234878399 -0.154865305524 0.0482422300132
34102596 0.0818378191756 0.0102340026394 0.265374943354 -0.154415014232 0.268148355324 -0.15737170373 -0.154848059666 0.0484057849777
34135542 0.0816999126437 0.0104360799898 0.265300192371 -0.154483550192 0.267977567951 -0.157642368069 -0.154780167279 0.0483452876361
34168488 0.0818201684473 0.0101806746854 0.265273121854 -0.154661225278 0.267986676229 -0.157895283615 -0.154844937401 0.0484243400137
34201434 0.0816799990079 0.0102285977963 0.26517105697 -0.154683660448 0.268017174735 -0.157929530187 -0.154720420529 0.0483774414673
34234380 0.0817904121098 0.0101877624238 0.265082227678 -0.154655985243 0.267698396115 -0.157943458787 -0.154826393429 0.0484661625208
34267326 0.0819260749027 0.010219820217 0.264984657659 -0.154869560842 0.267754876155 -0.158043434191 -0.154694166805 0.0485653298616
34300272 0.0819524350606 0.0100966187021 0.264923146309 -0.15505137265 0.26779299352 -0.158376903448 -0.154754770617 0.0485570732919
34333218 0.0820438545421 0.0100746120786 0.264927600901 -0.155242598732 0.267524416967 -0.158358114845 -0.15459372151 0.0485355217102
34366164 0.0820338003934 0.010212441505 0.264672613923 -0.155177842458 0.267436258084 -0.15843052834 -0.154601943022 0.0487651686576
34399110 0.0819868675674 0.0101316946148 0.264754546503 -0.155164326029 0.267354952389 -0.158728589049 -0.154552391899 0.0487291412859
34432056 0.0822672701873 0.0100760271921 0.264601988489 -0.155507533067 0.267305378714 -0.15851641052 -0.154473298029 0.0486424850376
34465002 0.0819949403568 0.0100766223432 0.264365777495 -0.155345812071 0.267252396003 -0.158981260445 -0.154587270506 0.0485908766966
34497948 0.0821629783079 0.0100679305703 0.264245889361 -0.155564604677 0.267160078289 -0.158867727047 -0.154315282852 0.048623774742
34530894 0.0823261608113 0.00990873223384 0.264185146435 -0.155853171667 0.267024404194 -0.159222837498 -0.154383300092 0.0485408767396
34563840 0.0824078380547 0.0098498675517 0.264139398568 -0.156014778325 0.26670570663 -0.159147760986 -0.154350385871 0.0487402759974
34596786 0.0824055802921 0.00983649351149 0.264122830007 -0.156005661662 0.266789265492 -0.159461240127 -0.154225492788 0.0485975928181
34629732 0.0822102922481 0.0100285062636 0.263796504674 -0.155978868691 0.266608748089 -0.159373329002 -0.154269023962 0.0489006872155
34662678 0.0824547250662 0.00982419844046 0.263915899468 -0.156274753427 0.266611276347 -0.159525379933 -0.1543161856 0.0488144612677
34695624 0.0824253648308 0.00989481079261 0.263773554737 -0.156230323378 0.26644235207 -0.159889560834 -0.154321879723 0.0486930905508
34728570 0.0824626490602 0.0098730350991 0.263685731044 -0.156401727183 0.266506248711 -0.159818439278 -0.154203751922 0.0489000291811
34761516 0.0825901200951 0.00984762137462 0.263633515176 -0.15637024704 0.266404642866 -0.15982306236 -0.154065688068 0.0488005638007
34794462 0.0824857894122 0.00994527680852 0.263595894808 -0.156770098095 0.2662503471 -0.160083957982 -0.154208898419 0.0490516551444
34827408 0.0826666644198 0.00987710087192 0.263444408963 -0.156711128812 0.266224577781 -0.160013433938 -0.154090567804 0.0489660109532
34860354 0.0827219973173 0.00985672573529 0.263269412145 -0.157070939141 0.26608478456 -0.160249294922 -0.154148791845 0.0490988006779
34893300 0.0827997125179 0.00985463695313 0.263212808573 -0.157135119853 0.265924374219 -0.160355920842 -0.154090894799 0.0491168569765
34926246 0.0827101800478 0.00990500461506 0.263025110482 -0.157029071727 0.265740740699 -0.160692716553 -0.154035102386 0.0490297633356
34959192 0.0828831716672 0.00946718666173 0.263120185394 -0.157431668692 0.265883149236 -0.160745729415 -0.153959071055 0.0488787813261
34992138 0.0829364791368 0.00966812371864 0.262911654897 -0.157397046595 0.265638178509 -0.1608263263 -0.15384880796 0.0490651833646
35025084 0.082960853636 0.00961075666452 0.262905135756 -0.157441568181 0.265624833779 -0.160779689401 -0.153892518025 0.0490728676445
35058030 0.082885938992 0.00995559410286 0.262747726049 -0.157468388021 0.265482224389 -0.160904477112 -0.153805233203 0.0492229300198
35090976 0.0830643711997 0.00951408965931 0.262701000843 -0.157628252368 0.265441020062 -0.161257745706 -0.153793135575 0.0490047077758
35123922 0.0831183974786 0.00968954306762 0.262645551017 -0.157691400084 0.265321349332 -0.161177714271 -0.153663483611 0.0492905941814
35156868 0.0830260613448 0.00959577425955 0.262566579567 -0.157967397722 0.265128924284 -0.161188079809 -0.153783862268 0.0494838336493
35189814 0.082977662219 0.00973539920051 0.262228744358 -0.15805753063 0.264996076758 -0.161394280934 -0.153677478057 0.0493365760557
35222760 0.0833270727731 0.00955511283526 0.262389884467 -0.158489136811 0.265028707893 -0.161725832372 -0.15383327465 0.0494183943023
35255706 0.0832855771666 0.00968538535582 0.262246957362 -0.158421289182 0.26476526562 -0.161689096114 -0.153570263753 0.0492886590148
35288652 0.0832869273625 0.00960792401312 0.262222911355 -0.158121121972 0.264905917207 -0.161433362154 -0.153693275406 0.0493985098508
35321598 0.0832048260004 0.00948304533671 0.262294115507 -0.158567587101 0.26485299075 -0.161895171771 -0.153669885275 0.0495046597744
35354544 0.0833351603325 0.00958934731534 0.262039600757 -0.158912091863 0.264600199336 -0.162089954994 -0.15356618693 0.0495963218827
35387490 0.0832767273788 0.00937662704268 0.261901427761 -0.158799921415 0.264642680088 -0.162271660637 -0.153583080628 0.0494222179763
35420436 0.0834142967525 0.00947529503121 0.261786147345 -0.158678470064 0.264378686071 -0.1620448282 -0.153432166932 0.0494572496323
35453382 0.083439284836 0.00929876249914 0.261870764786 -0.159073806478 0.264392911815 -0.162399385128 -0.15348556144 0.0497248033506
35486328 0.0836153916404 0.00932867134821 0.261611359018 -0.159317042199 0.264284383886 -0.162557030354 -0.153573186894 0.0495502910867
35519274 0.0835998183646 0.00925727948103 0.261608051346 -0.159377461216 0.264338220128 -0.162601850811 -0.153412266918 0.0494834193161
35552220 0.083531290629 0.00934499600302 0.26148829671 -0.159359343798 0.264247030686 -0.162563675409 -0.15340404181 0.0496584935821
35585166 0.0836939530088 0.00942434369729 0.261167876887 -0.159131490585 0.263791428364 -0.162682770115 -0.153216988912 0.0497024420288
35618112 0.0836930906511 0.009368335051 0.26118105593 -0.159508479723 0.263710228221 -0.162970835117 -0.153407545535 0.0496673171806
35651058 0.0836943684352 0.00918712995419 0.261289777996 -0.159963069664 0.263902060309 -0.163075470237 -0.153466960305 0.0496826511101
35684004 0.0837708181483 0.00919637488447 0.261255450387 -0.15964535177 0.263833953101 -0.16304344952 -0.153260266128 0.0496167745144
35716950 0.0837620891308 0.00923863362915 0.260949126675 -0.15980695625 0.263516896415 -0.163141163421 -0.153106395302 0.0495437485447
35749896 0.083805910478 0.00920645587406 0.260785977638 -0.159896682092 0.263417817484 -0.163317397871 -0.153096504867 0.0498788627056
35782842 0.0839797442686 0.00914402991041 0.260865229212 -0.160484280794 0.263309922763 -0.163705928153 -0.153170501529 0.0497784534876
35815788 0.0839603379926 0.00919450816864 0.260603802072 -0.159993810433 0.26318795484 -0.163573931617 -0.153128069854 0.0497134158687
35848734 0.0839493982321 0.0090905522296 0.260796132983 -0.160594686839 0.263387841739 -0.163888411309 -0.153133242149 0.0498580466726
35881680 0.0840918922096 0.00909448708588 0.260529098772 -0.160200733139 0.26317290844 -0.16373956601 -0.153000345451 0.0498412136395
35914626 0.084146707394 0.00905572486335 0.260654215495 -0.160688242996 0.26302788261 -0.164125328745 -0.152994302011 0.0500833699051
35947572 0.0841785200501 0.00914253764941 0.260379534092 -0.160579803588 0.262841253241 -0.163999849967 -0.15291281346 0.0500535426627
35980518 0.0842722659763 0.00914287351853 0.260261174648 -0.160910477703 0.262853020947 -0.164228980953 -0.152895722434 0.0499981338449
36013464 0.0842634431122 0.00907445791676 0.260190772361 -0.161139440223 0.262624437609 -0.16441541473 -0.152936698223 0.0499887726598
36046410 0.084203984333 0.00890071545659 0.260100905393 -0.160949796962 0.262734546877 -0.164673458635 -0.152854343796 0.0497885307377
36079356 0.0844004916203 0.00897441693218 0.260234393891 -0.1613428385 0.262695339646 -0.164552395265 -0.152842333698 0.0502065155211
36112302 0.0844722890965 0.00891877953741 0.259993840256 -0.161273494193 0.262563055663 -0.164695153699 -0.152582403945 0.0499241077035
36145248 0.084499923301 0.00891482672853 0.259958182837 -0.161489920471 0.26244130837 -0.164951980034 -0.152526159465 0.0500465050769
36178194 0.0844949438972 0.00899653335716 0.259716310732 -0.161441042261 0.262332738009 -0.164828146016 -0.152647793882 0.050105039639
36211140 0.0844424843452 0.00891710504714 0.259431484428 -0.16156028775 0.262069964998 -0.16502833565 -0.152842816491 0.0501600689614
36244086 0.084519702061 0.00881231676538 0.2595183836 -0.161694316897 0.26222567283 -0.165120572376 -0.152648685168 0.0500227436373
36277032 0.0845076380376 0.00877324487633 0.259600557831 -0.161945731397 0.262033902169 -0.165219452645 -0.152766400403 0.0501306845839
36309978 0.084623347799 0.00877508001825 0.259450156247 -0.162135809132 0.261986596604 -0.165535432092 -0.15260858709 0.0504864785248
36342924 0.0847119689662 0.00879085215226 0.259415684013 -0.162335491161 0.261803903026 -0.165577681079 -0.152759004051 0.0502714583464
36375870 0.0846941418269 0.00898920599129 0.259034285753 -0.162168286345 0.261627890748 -0.165681228169 -0.152668903654 0.0504342336534
36408816 0.0846746039277 0.00865176252711 0.259304401887 -0.162571057988 0.261851118679 -0.165847444826 -0.152656476314 0.0503638251126
36441762 0.0850649543918 0.00870526794778 0.258966992988 -0.162345695458 0.261487545676 -0.165821499617 -0.152090355202 0.0500915160474
36474708 0.0847227435442 0.00869573603667 0.259008455332 -0.162625749755 0.261486178729 -0.166016130253 -0.152450071998 0.0504992802513
36507654 0.0849878244149 0.00861763699515 0.258845911713 -0.162641462246 0.261404476201 -0.166078162287 -0.15231812623 0.0503130966775
36540600 0.0851854652335 0.00862259267242 0.258876737434 -0.162967831355 0.261312934838 -0.166321998239 -0.152181522045 0.0504330141218
36573546 0.0850501888319 0.00861984471693 0.25870648767 -0.163209990923 0.261266249027 -0.166613384783 -0.152296011701 0.0505173882437
36606492 0.0850277332141 0.00870012082426 0.258483252834 -0.162883307673 0.261130797648 -0.16670234411 -0.15220836335 0.0502899405971
36639438 0.0851708393126 0.00850773012372 0.258652847622 -0.163235978212 0.261193946238 -0.166533542296 -0.152244784255 0.0504383008766
36672384 0.0851206947681 0.00857516583317 0.258432785731 -0.163256523224 0.260966250538 -0.166747872239 -0.152038998128 0.0503880574512
36705330 0.0851280768754 0.0084744026321 0.258377814188 -0.163311916784 0.260813207662 -0.166879710749 -0.152068810544 0.0506783609639
36738276 0.0855358212178 0.00866537568798 0.25817706749 -0.163477588053 0.260712273067 -0.167059440851 -0.152010472803 0.0506330488242
36771222 0.0852836741411 0.00852937058835 0.257905794534 -0.163328089381 0.26056835803 -0.166966649533 -0.152204448368 0.0506731616491
36804168 0.0853268193991 0.00839435281181 0.258058567038 -0.163987887401 0.260504348705 -0.16722957797 -0.152159888071 0.0505765616041
36837114 0.0854450603979 0.00836595670332 0.257979720477 -0.163980583189 0.260547505428 -0.167338204266 -0.152081624794 0.050889701024
36870060 0.0855597872034 0.00838010223755 0.257925881386 -0.164211526715 0.260395077454 -0.167644544396 -0.152026576723 0.0507639678822
36903006 0.0853894843796 0.00839568697988 0.257689920951 -0.164000364682 0.260365067965 -0.167680503875 -0.151963674958 0.050614051455
36935952 0.0854639763056 0.0083563476688 0.257671997464 -0.164084451575 0.260126536837 -0.16768107037 -0.151874880183 0.0506913373656
36968898 0.0854798573506 0.00816859427371 0.25765904888 -0.164310176647 0.260092913759 -0.16785392402 -0.152009737498 0.0508675563781
37001844 0.0856402399832 0.0083435265808 0.257464465171 -0.164409876157 0.259857894965 -0.167858426234 -0.151702154158 0.050927404048
37034790 0.0856912932581 0.00837236982696 0.257248875143 -0.164373009974 0.259933028267 -0.167946730427 -0.151812447314 0.0508730296559
37067736 0.0856457370744 0.00830366932859 0.257127779436 -0.164550584393 0.259777720913 -0.168272365049 -0.151715267117 0.0507374795563
37100682 0.0856694771502 0.00834857674044 0.257191487017 -0.164702132511 0.259679438073 -0.16820296456 -0.151894676887 0.050852143459
37133628 0.0858397040171 0.0081091142006 0.257118635071 -0.164763634967 0.259579390421 -0.168374730873 -0.151661280559 0.0510405233065
37166574 0.0858953009494 0.00825104523064 0.256923381711 -0.164862341203 0.259548204589 -0.168508862532 -0.151658094823 0.0509487487147
37199520 0.0858626185497 0.00834216593857 0.256674430847 -0.165016242655 0.259328257215 -0.168693839574 -0.151702985166 0.0510258831424
37232466 0.0859486023448 0.00820548062962 0.256948387925 -0.165232748103 0.259306503572 -0.16861109502 -0.151682808082 0.0508087705791
37265412 0.0859903881579 0.00801332436521 0.25663930928 -0.165201909667 0.259173924453 -0.168806396353 -0.151547296439 0.0511890965325
37298358 0.0860162325656 0.00813132437001 0.256473573414 -0.165414618947 0.258920132198 -0.168775677552 -0.151527699301 0.0511648758396
37331304 0.0859641269534 0.00822817144652 0.256361682277 -0.165501617049 0.258805360353 -0.168998785326 -0.151531031431 0.0511826637388
37364250 0.0860501233369 0.00818457937869 0.256370189802 -0.165420125659 0.258896838416 -0.169147921845 -0.151488048391 0.0511682579683
37397196 0.0861482609935 0.0080409678775 0.256449454783 -0.165737774337 0.258819599628 -0.169224287788 -0.151476438687 0.0510323492242
37430142 0.0862528262469 0.0078303031014 0.256162800764 -0.16570160089 0.258669467225 -0.169391365161 -0.151234086973 0.0512178613614
37463088 0.0862106322364 0.00783871883373 0.256204758755 -0.165983304604 0.258536665558 -0.169445066258 -0.151346706862 0.0512365301193
37496034 0.0862866808705 0.00801566529864 0.255914504081 -0.165998250292 0.258204075977 -0.169373162349 -0.151349783029 0.0511812846936
37528980 0.0863521367145 0.00800375530384 0.255900781115 -0.166064794301 0.258325545422 -0.169735581271 -0.151318430856 0.051288697683
37561926 0.0863273240631 0.0079311856007 0.255810298862 -0.166466232154 0.258106513799 -0.169894528907 -0.151298172075 0.0512000862261
37594872 0.086373495327 0.00784958883318 0.255702980396 -0.166457325831 0.258273785043 -0.170075895239 -0.151312157502 0.0513143707179
37627818 0.0864302092233 0.00783139941525 0.255814655455 -0.16651969966 0.258208196408 -0.170019370458 -0.151235008083 0.0512632203964
37660764 0.0865560460998 0.00765010247716 0.25562004597 -0.166782817848 0.258002716906 -0.1702666831 -0.151075988298 0.0514055298145
37693710 0.0866206929891 0.0079096517489 0.255470270633 -0.166545080207 0.257868828463 -0.170294130267 -0.151065994782 0.0513504890081
37726656 0.0866377691416 0.00783348839295 0.255438166616 -0.167071389921 0.257719684156 -0.170371494124 -0.151111564889 0.0514105643979
37759602 0.0866107615687 0.00780676470485 0.255207460046 -0.166982374489 0.257826364682 -0.170664058965 -0.151032431836 0.0514254565449
37792548 0.0866966142413 0.00767816362475 0.255167000301 -0.167110299037 0.257684314895 -0.170690787432 -0.151056234904 0.0513743446327
37825494 0.0867746511457 0.00774493136941 0.255161525319 -0.167070325233 0.257562777532 -0.170696585127 -0.150943677631 0.051439573317
37858440 0.0868554641697 0.00773743851873 0.254987288719 -0.167170177096 0.257429900124 -0.170895310041 -0.150860765514 0.0514928261575
37891386 0.086787272624 0.0077533544792 0.254972630688 -0.16748121093 0.257177183347 -0.170839700115 -0.150870284242 0.0516229743869
37924332 0.0869349871499 0.0076547930843 0.254921293734 -0.167731616244 0.25717702052 -0.170994065529 -0.150853031256 0.0515882492278
37957278 0.0868562842237 0.00766760375771 0.254660385358 -0.167381099659 0.257166539921 -0.17113156033 -0.150883061933 0.0514862861096
37990224 0.0870444200953 0.00747681774371 0.254703665783 -0.167807031672 0.256968800468 -0.171319990924 -0.15090490188 0.0515879901467
38023170 0.0871002490967 0.00761561513826 0.25464171111 -0.16786393936 0.256965739745 -0.171425892063 -0.150796936479 0.0514866483048
38056116 0.0871474272901 0.00757707192549 0.254489127844 -0.168086394933 0.25684096368 -0.171694969154 -0.150624184606 0.0517061502281
38089062 0.0870741034828 0.00754130118984 0.254250313104 -0.168068070254 0.256650301118 -0.17175006044 -0.150661291764 0.0517348991932
38122008 0.0871834502461 0.00747758112254 0.25411163638 -0.168332798738 0.256353975923 -0.171757617545 -0.150632649131 0.0518620131211
38154954 0.0873587758285 0.00743049962866 0.254197371797 -0.168524274396 0.256564821383 -0.171984291997 -0.150572004531 0.0518264309419
38187900 0.087235467186 0.00761812727264 0.253889426595 -0.168295282895 0.25643539449 -0.172073936107 -0.150727461986 0.051854629733
38220846 0.0873768842481 0.00741107071729 0.254019335147 -0.168687063017 0.256189446144 -0.172252021046 -0.150563215155 0.0518499537743
38253792 0.0874312887667 0.00739673371848 0.254054627331 -0.168928956154 0.256242760099 -0.172264320279 -0.150567200219 0.0517795204987
38286738 0.0874283557761 0.00731538864609 0.253679241059 -0.168780497612 0.255998285155 -0.172276233697 -0.150490572348 0.0518218325071
38319684 0.087417509102 0.00728084675419 0.253476727971 -0.168957769766 0.255811353149 -0.172421369707 -0.150435140134 0.0518419908749
38352630 0.0874122439442 0.00733051792623 0.253469872131 -0.168963794147 0.255902570882 -0.172692253392 -0.150428148317 0.0519110654519
38385576 0.087536179511 0.00727357387716 0.253390531667 -0.16907037995 0.255877591483 -0.172971480385 -0.150402034193 0.0517689337622
38418522 0.0875426430397 0.00715280576364 0.253572323389 -0.169375732091 0.255862248252 -0.172923030249 -0.150428222063 0.0518645883266
38451468 0.0876494423593 0.00729157373912 0.253360633485 -0.169226326705 0.255594147438 -0.172799980907 -0.150196946216 0.0518838346849
38484414 0.0876430501421 0.00709950631643 0.253185221573 -0.169511925865 0.255375474168 -0.17296995409 -0.150233893537 0.0519979780021
38517360 0.0877132920364 0.0070959855635 0.252954873486 -0.169587643087 0.255351466828 -0.173053319295 -0.150198004713 0.0520356463225
38550306 0.087751243753 0.00710587815033 0.253001627493 -0.169726866547 0.255380781949 -0.173332693598 -0.15028217911 0.0519962438079
38583252 0.0878296940989 0.00702891140092 0.252864026558 -0.169809692611 0.25531562068 -0.173461813625 -0.150033375181 0.0522429871963
38616198 0.0878683406506 0.00721520099484 0.252812441365 -0.169756566252 0.25494562579 -0.173274512618 -0.150095991423 0.0521836902788
38649144 0.0879081686444 0.00711061646982 0.25267228623 -0.170128989584 0.25508907001 -0.173700331665 -0.150154288639 0.0521173595492
38682090 0.0879023688643 0.00703088242531 0.25252401162 -0.170036963387 0.254970384015 -0.173735639346 -0.15010357875 0.0520531129494
38715036 0.0879663136286 0.00699346910338 0.252602345502 -0.170209646635 0.254717557306 -0.173815304847 -0.15005474838 0.0521740629695
38747982 0.088109316146 0.00685838191492 0.252414493769 -0.17025976602 0.25479253481 -0.174073839295 -0.149896605816 0.0522138531969
38780928 0.0880779586841 0.00702453250521 0.252425321461 -0.170194739791 0.254450643249 -0.173842647776 -0.149909411474 0.0523426362821
38813874 0.0881910576668 0.00705890777421 0.252174589104 -0.170436151385 0.254475923243 -0.174054531255 -0.149978440101 0.0523718162056
38846820 0.0881485710297 0.00693861064443 0.252117630445 -0.170637069231 0.254349306312 -0.174343016721 -0.149940390763 0.0523498405338
38879766 0.0881982417388 0.00683712417194 0.25195060653 -0.170778297105 0.254389886287 -0.174381744944 -0.149803908823 0.0522708252004
38912712 0.0882039888321 0.0068858164503 0.252023488053 -0.170841272074 0.254250146194 -0.174515220646 -0.149883690098 0.0523053260952
38945658 0.0883566882365 0.00674059055213 0.251690699261 -0.171002885922 0.254232146943 -0.174775084099 -0.149711353303 0.0524737311025
38978604 0.088421782975 0.00682068627559 0.251739056293 -0.171249793202 0.254196643247 -0.174865465027 -0.149699814921 0.0524336623748
39011550 0.0884336472523 0.00663950374068 0.251609787464 -0.1713645509 0.254073285152 -0.175027227245 -0.149673737102 0.0522659769484
39044496 0.0884662578779 0.00672978691666 0.251609006606 -0.17131648827 0.253832351347 -0.174963719139 -0.149722200761 0.0524508002654
39077442 0.0884998357797 0.00679779688213 0.251310170968 -0.171412185254 0.253454980987 -0.174944232676 -0.149601859411 0.0526045652782
39110388 0.0888066153118 0.00673548216689 0.251420505093 -0.171715467361 0.253769512776 -0.175339431053 -0.149512094891 0.0524657323098
39143334 0.0886444138331 0.00653803429948 0.251167100113 -0.171706807599 0.253550909746 -0.175454102988 -0.149583947196 0.0524563484456
39176280 0.0886644367582 0.00660062730668 0.251389412872 -0.171839353593 0.253526523806 -0.175489018606 -0.149527399449 0.0524832041809
39209226 0.0887186399927 0.00658656054566 0.250891611466 -0.171908205782 0.253157296731 -0.175476783023 -0.149419068412 0.0526036099974
39242172 0.0888132067056 0.00662459271194 0.250993310074 -0.172090896346 0.253332686072 -0.17575961155 -0.149413069966 0.0526303666659
39275118 0.0887060699522 0.00654268843285 0.250763088164 -0.172130993987 0.253247478694 -0.175847252884 -0.149508148991 0.0526035391993
39308064 0.0888748431585 0.00642934503264 0.250848275491 -0.172237066834 0.253166359398 -0.176003181328 -0.149354036657 0.0525063347974
39341010 0.0888229601965 0.00646382376543 0.250720435834 -0.172266189096 0.253047973247 -0.176146768218 -0.149354683475 0.0525988653184
39373956 0.0888493450366 0.00648128695285 0.250662505197 -0.172382059425 0.252712295884 -0.176139216431 -0.149358487964 0.0527552580013
39406902 0.0889436469618 0.00646661294592 0.250581138381 -0.172471578714 0.252648264759 -0.176151394382 -0.149344083593 0.052804049761
39439848 0.0890999195486 0.00640661784837 0.250404529171 -0.172634387333 0.252677729253 -0.176229947215 -0.149281229366 0.0528670809043
39472794 0.0891355704683 0.00645806312165 0.250265185554 -0.172767818904 0.252566014314 -0.176571934132 -0.149162073473 0.0527609300815
39505740 0.0891355146172 0.00620656492696 0.250075791447 -0.17288399068 0.252476470671 -0.176611222834 -0.149227515745 0.0526439093957
39538686 0.089088693098 0.00634800574976 0.250264634878 -0.172827409905 0.252232170146 -0.176515685444 -0.149186593222 0.0529521157694
39571632 0.0892871235971 0.00623972953692 0.25005392139 -0.172993203884 0.252408017965 -0.176945512032 -0.148962515197 0.0529119614131
39604578 0.0892728459805 0.00622363927428 0.249784055643 -0.173073164335 0.251863177705 -0.17667427677 -0.14911656233 0.0529801289466
39637524 0.0894441235741 0.00633474255123 0.24986796415 -0.173378147673 0.252086786068 -0.177194112347 -0.148851424175 0.0529449167671
39670470 0.0894428091819 0.00616936265619 0.249649431313 -0.173442138963 0.25196068266 -0.177089299657 -0.148981278969 0.0528460804961
39703416 0.0893689773486 0.00614748598483 0.249706841819 -0.173463053009 0.25176341049 -0.177278098089 -0.14899436147 0.0529736876884
39736362 0.0894248632681 0.0061416509879 0.249490895374 -0.173602668006 0.251916236453 -0.177435464783 -0.14879103705 0.0530448013172
39769308 0.0895578202996 0.00611651385205 0.249223889844 -0.173656171958 0.25147694563 -0.177232239741 -0.148827277999 0.0530188623802
39802254 0.0896251523988 0.00612349812037 0.249282597403 -0.173972333952 0.251602850594 -0.177672218493 -0.148894786994 0.0531112766416
39835200 0.0895305474388 0.00614407021869 0.249151447939 -0.17385183111 0.251559606033 -0.177702438431 -0.148876726564 0.0529578707073
39868146 0.0896142331055 0.00606968541704 0.249253731583 -0.174097917697 0.251357816339 -0.177726929656 -0.148921402512 0.0532220493427
39901092 0.0896686792245 0.00601945206962 0.249017124515 -0.174062325051 0.251365107249 -0.177948879766 -0.148568340152 0.0531919731112
39934038 0.0897785493838 0.00599392526087 0.248833274601 -0.174280551201 0.251041062009 -0.177879419257 -0.148722532232 0.0531325309603
39966984 0.0897515192814 0.00592468956939 0.24874841451 -0.174478346888 0.251045939166 -0.178108722432 -0.148657787805 0.0531206553464
39999930 0.0898598349792 0.00585422150574 0.248618408317 -0.17461691169 0.250905303123 -0.178214642264 -0.148606446499 0.0530992007288
