! Differential S-parameters generated from single-ended measurements
# Hz S RI R 100
500000 0.00878300230549 -0.0399156551003 0.0017284975149 0.00122688277222 0.00174121349487 0.00101958143919 -0.256800773715 0.338233282183
532780 0.00158500896434 -0.0305938555515 0.00179110751603 0.00118263139613 0.00180284307212 0.000945336537357 -0.238658316927 0.340320046378
565560 -0.00296445891107 -0.0239627610393 0.00184089856296 0.00113714670417 0.00187077585079 0.000924903799858 -0.221468361797 0.338027657656
598340 -0.00525379892518 -0.0197939934084 0.00188245257279 0.00110554915456 0.00191091594652 0.000898805635892 -0.205363358149 0.331881197117
631120 -0.00619776903318 -0.0176750626171 0.00192791780169 0.00111152534049 0.00195827456885 0.000837796207822 -0.190219321476 0.322624449395
663900 -0.00607374427728 -0.0176232113884 0.00196228062467 0.00108887949166 0.00199219189752 0.000814254442388 -0.177353020917 0.310580055643
696680 -0.00520422626771 -0.019174451698 0.00198675080032 0.00106841270219 0.0020062692937 0.000793724958597 -0.165554182001 0.296787233375
729460 -0.00580523812724 -0.0145337344516 0.00202889025868 0.00105089383486 0.00204044885134 0.000763317599301 -0.153438476885 0.291534374444
762240 -0.00614946986741 -0.010978677127 0.00204045414985 0.00102488859154 0.00205292677729 0.000714483778506 -0.142569426365 0.285271139176
795020 -0.00591670596327 -0.00849806201682 0.00204972999573 0.00101950803771 0.00213119078536 0.000695191705984 -0.132893949909 0.278167138717
827800 -0.00610095468961 -0.00701367784595 0.00208286692913 0.000992861377279 0.00209425842053 0.000681252371284 -0.124155320649 0.270130052949
860580 -0.00608857938528 -0.00641981024662 0.00211501320903 0.000986029977069 0.0021157787538 0.000645105997658 -0.116615304244 0.261863137137
893360 -0.00606556665606 -0.00640753950194 0.00213947595109 0.000965019142009 0.00215146062282 0.000624963878454 -0.110051248919 0.25318818751
926140 -0.00586664408705 -0.00415834767734 0.00213255199533 0.00095203499498 0.00214891590019 0.000596126440972 -0.103051275493 0.24714390533
958920 -0.00568960079698 -0.00229891507067 0.00215664392161 0.000941217870393 0.00217337455976 0.000551922835576 -0.0967140134372 0.241044479806
991700 -0.00547963204585 -0.000937712740156 0.00216136808347 0.000930211813475 0.00218356120909 0.000536300280634 -0.0911113883118 0.234792102208
1024480 -0.00531155246794 3.64293399144e-05 0.00217397256818 0.000926050368787 0.0021980734149 0.000514669977924 -0.0860571654633 0.228525549957
1057260 -0.00524449969461 0.000699903726058 0.00218266173606 0.000929965304408 0.00218410916334 0.000511544412557 -0.0815535204657 0.222183902355
1090040 -0.00524524140355 0.00105550789674 0.00218308206189 0.000909188219042 0.00219927478602 0.000477211601999 -0.0781180520162 0.21526923379
1122820 -0.0051105424299 0.00232217308086 0.00220110594636 0.000915042585865 0.00222323467863 0.000475289219295 -0.074610279186 0.209606531228
1155600 -0.0050720224401 0.00342978374675 0.00222304365469 0.000899359095165 0.00221941630882 0.000422421606324 -0.0709047743091 0.204616845298
1188380 -0.00500609949056 0.00438903768139 0.00223477852462 0.000904281760482 0.00221846096897 0.000429172150468 -0.0675719834371 0.199690293297
1221160 -0.00494917475401 0.00514658262454 0.00221357041627 0.000891615648 0.00224445067749 0.000406031945698 -0.0644999647146 0.194672166614
1253940 -0.00498856333898 0.00568694582395 0.00224003659786 0.000873809549104 0.00224553050436 0.000382054575781 -0.0616033339212 0.189751484462
1286720 -0.00498117579689 0.0060911511711 0.00226722926653 0.000906833232561 0.00223962392611 0.000376465710543 -0.0590726504405 0.184884212334
1319500 -0.00497779453385 0.00707467551458 0.00224338399843 0.000886467298442 0.00225938413337 0.000372073669965 -0.0565447681822 0.18075396814
1352280 -0.00500739635112 0.00794032034909 0.00226589054276 0.000894631144658 0.00226211683896 0.000346959732458 -0.0541821355998 0.176720369796
1385060 -0.00502363644941 0.00876188946299 0.00224754205394 0.000874367058916 0.0022662699218 0.000337851187033 -0.0520617306839 0.17270806035
1417840 -0.0050959616434 0.00942446249222 0.0022628427062 0.000895691543561 0.00224786350414 0.000329776749105 -0.0500227660362 0.168813590766
1450620 -0.00513434956534 0.010021406727 0.0022903834803 0.000890668078311 0.00228256778185 0.000284202074314 -0.0482266412703 0.164881800454
1483400 -0.00524226382769 0.0105560627798 0.0022784290664 0.000880653565416 0.00228137343354 0.000294350995939 -0.0465346506733 0.161181329984
1516180 -0.00527611642008 0.0113831166563 0.00228011571554 0.000891677087533 0.00228040964842 0.000273931301714 -0.0448288959343 0.157790149808
1548960 -0.00527471615336 0.0121572035814 0.00230025473628 0.000902367702026 0.00226061564823 0.000286488279116 -0.0432181148695 0.154469120102
1581740 -0.00527833658993 0.0128650618872 0.00231482503718 0.000892167853339 0.00228849305008 0.000272812386567 -0.0417752046999 0.151237664463
1614520 -0.00527526258506 0.0135065127227 0.00230742449829 0.00087546380553 0.00230147968537 0.000238505812319 -0.0404453293971 0.148072334376
1647300 -0.00533695741137 0.0140886646945 0.00228358860325 0.000896589538388 0.00230317078594 0.000223614631814 -0.0391776086188 0.144961279433
1680080 -0.00546420078774 0.0146205649367 0.00230061880716 0.000888431760413 0.00227371028148 0.000228123520521 -0.0377949004445 0.14191762541
1712860 -0.00547929050291 0.0153624162903 0.00232471171275 0.00089063987253 0.00228076195826 0.000197958473883 -0.0368691512296 0.139113950416
1745640 -0.00561005383629 0.0161377222269 0.00233615433099 0.000870269977531 0.00229149472265 0.000211103333828 -0.0357888132673 0.136457688257
1778420 -0.00567317811509 0.0168419498349 0.00231853199691 0.000911461626539 0.00229816375578 0.000183559829149 -0.0348535378444 0.13379346459
1811200 -0.00583850223157 0.0175469578583 0.00233772459687 0.000901746975489 0.0022971629441 0.000177115953014 -0.0339969270678 0.131275304981
1843980 -0.00589454162646 0.0181245637414 0.00233339774738 0.000888510453342 0.00229856388751 0.000170758470388 -0.0331375738103 0.128720068357
1876760 -0.00600461908103 0.0186743526442 0.00234565311777 0.000899488110426 0.00231376671683 0.000132190918832 -0.0323480268272 0.126214229318
1909540 -0.00607401477136 0.019451798948 0.00234992713551 0.000897657397173 0.0023002739935 0.000101082306195 -0.0315686001496 0.123951426013
1942320 -0.00612892212326 0.0202078940985 0.00235260666823 0.000885416393549 0.00229916505354 0.000120016485976 -0.0307189478239 0.121767494805
1975100 -0.00617357671732 0.020927636052 0.00235428831421 0.000916666093509 0.00230623459614 0.000109830436711 -0.0299700463949 0.119563730883
2007880 -0.00620413747795 0.0215637268205 0.00237176948869 0.000912639198633 0.00229789548777 0.000112768878953 -0.0292800312384 0.117348366638
2040660 -0.00628669480339 0.0222488398198 0.00238236931005 0.000900928239934 0.00230435371274 9.52567797515e-05 -0.0285830023261 0.115286013863
2073440 -0.00635469893992 0.0228964113977 0.00236021112476 0.000917152127014 0.00232794345203 9.05009923934e-05 -0.0280230432081 0.113205966989
2106220 -0.00634723947041 0.0235639491729 0.00236627642522 0.000926216752062 0.00230357177978 7.96812204543e-05 -0.0274240403969 0.111277887286
2139000 -0.00637248309179 0.0242967282944 0.0023867638287 0.000934945670391 0.00228000581266 7.08264953481e-05 -0.0268080505184 0.109428036871
2171780 -0.00636859169309 0.0250087832937 0.00237818213463 0.000940681277646 0.00232562092712 5.67493197406e-05 -0.0262904046535 0.107568361919
2204560 -0.00644918598634 0.0256486653568 0.00237413168873 0.000926642795748 0.0023015697059 7.23254043588e-05 -0.0257748041509 0.105746300229
2237340 -0.00650473728827 0.0263014103746 0.00236821093974 0.000931716304316 0.00229909585525 4.47692044731e-05 -0.025261822698 0.103912567471
2270120 -0.00649536812768 0.026933145573 0.00237594618618 0.000940061036463 0.00230387030144 1.38256133832e-05 -0.024805208338 0.10209901295
2302900 -0.00646885900233 0.0276106479324 0.00238785290356 0.000950262969471 0.00228655245019 1.42688959421e-05 -0.0243469245693 0.100492095603
2335680 -0.00647956830779 0.02837558671 0.00240042729334 0.000945535902112 0.00230516957955 -2.59842688694e-06 -0.0238503925882 0.0989007036
2368460 -0.00653523364843 0.029126680677 0.00239673851888 0.000953939525841 0.00229419689231 4.89197571246e-06 -0.023475515235 0.0974523352646
2401240 -0.00650928129801 0.0297910781258 0.00239193559732 0.00096789846348 0.00228252503549 1.78924805344e-06 -0.0230416907077 0.0958861780116
2434020 -0.00651148944301 0.0304488516022 0.00238812231431 0.000963187183021 0.00230071977086 -3.08665631813e-05 -0.0226941594234 0.0943456229304
2466800 -0.00654260256915 0.0310670570912 0.00238864971762 0.000984796425609 0.0023018059551 -3.60916821172e-05 -0.0223417749974 0.0928309320114
2499580 -0.00656408638904 0.0317611688722 0.00242357352146 0.000988342289621 0.00229862432076 -3.82710787201e-05 -0.0220389811258 0.0914135687562
2532360 -0.00662961955396 0.0324983478167 0.00241623605093 0.000972619739748 0.00228040316051 -4.78109905196e-05 -0.021706957864 0.0900563710411
2565140 -0.00656607696003 0.0332132198281 0.00240901413319 0.000973737833764 0.00227580698403 -7.0994254683e-05 -0.0214010978385 0.0887445525211
2597920 -0.0065918967042 0.033830024746 0.00241709285694 0.000979648260345 0.00228346032401 -3.89377674045e-05 -0.0211005067513 0.0873872432553
2630700 -0.0065551832633 0.034487319519 0.00241936675806 0.000987212190766 0.00228764906269 -6.30890887557e-05 -0.0207570862444 0.0859863638418
2663480 -0.00654805891918 0.0350849813238 0.00241054010098 0.00100897025001 0.00226993703722 -5.76481500464e-05 -0.0205164502308 0.0846331041024
2696260 -0.00654010362211 0.0357833477498 0.00241941653192 0.00100216865203 0.0023034817768 -8.12174160239e-05 -0.0202526509759 0.0834411002873
2729040 -0.006465282 0.0365458800727 0.00241129326281 0.00100248576941 0.00232334310561 -9.48147335318e-05 -0.0199318509953 0.0823152381683
2761820 -0.00637762325114 0.037298644918 0.002427897377 0.00100947449673 0.00227848174024 -9.62416938225e-05 -0.0195895318124 0.0811376197804
2794600 -0.0063046999921 0.0380002487371 0.00245257614519 0.00101218194592 0.00228061409879 -0.000101791625824 -0.0193145842131 0.080047261013
2827380 -0.00621771947444 0.0386750413816 0.00245027202646 0.00103153203832 0.0022942941447 -0.00010449578388 -0.0190543916564 0.0788965726601
2860160 -0.00614108938736 0.0392842081846 0.00244055059832 0.00102839314283 0.00226925236631 -0.000108164641752 -0.0188101253622 0.0777202776876
2892940 -0.00611152104248 0.0399672320203 0.00244144344774 0.00103308163937 0.0022823762616 -0.000114451186159 -0.0185835685434 0.0766082479668
2925720 -0.00606895105771 0.0406415297058 0.00244088243274 0.00103711496722 0.00227742069993 -0.000111357633457 -0.0183054068884 0.0755538182952
2958500 -0.00599630996419 0.0413115017133 0.00244805827683 0.00103254486222 0.00229782069771 -0.000122077876431 -0.0180550466512 0.0744472872027
2991280 -0.00600403412129 0.0419695555781 0.00244604885142 0.00104930971117 0.0022802796505 -0.000139445353411 -0.0178558277108 0.073440655905
3024060 -0.00595688612535 0.0425943708281 0.00245384096358 0.0010412025873 0.00227988643545 -0.000148955194969 -0.01764810209 0.0724303887075
3056840 -0.00590120362524 0.0432240680297 0.0024454247772 0.00104174125779 0.00227126971107 -0.000167517858851 -0.0174865507154 0.0714303744629
3089620 -0.00577307597444 0.0439076794077 0.00246667022576 0.0010646291393 0.00226668434479 -0.000160523689887 -0.0172509968514 0.0704071327636
3122400 -0.00569051636804 0.0446520523178 0.00243026239915 0.00107858150213 0.0022755592667 -0.000157668900741 -0.016995160496 0.0694938358214
3155180 -0.00557839909818 0.0452685682982 0.00245578665199 0.00106768142062 0.00228175212933 -0.000173687811149 -0.0168584071449 0.0685522216874
3187960 -0.00546244835865 0.04590216878 0.00246721330804 0.00107546314274 0.00227601518602 -0.000157494208102 -0.0166381088926 0.0675523066742
3220740 -0.00538987284773 0.0466001799857 0.00247247229698 0.0010976444774 0.00227002447514 -0.000166802669505 -0.0164168655347 0.0666391397153
3253520 -0.00524513781461 0.047254009993 0.00248455218334 0.00110645730944 0.00227053990428 -0.000180155281001 -0.0162461494232 0.0657513083543
3286300 -0.00513075046358 0.0478807007354 0.00247927039337 0.00110024565342 0.00224110990396 -0.000193722064576 -0.0160519314258 0.0648413809771
3319080 -0.0050150195242 0.0485408010194 0.00246807106353 0.00110030880247 0.00225977896738 -0.000190714580748 -0.0158269523411 0.0639768506211
3351860 -0.00483506962319 0.0492195881013 0.00248752292364 0.00111643011216 0.00224510113323 -0.000193083060815 -0.0156414145906 0.0631471288031
3384640 -0.00471377610713 0.0498133631471 0.00246130025689 0.00110319479633 0.00225350729565 -0.000217946053387 -0.015485545485 0.0622664124269
3417420 -0.00458943769849 0.0504071923244 0.00249586924526 0.00111390434158 0.00227197152581 -0.000225472852824 -0.0153158915292 0.0614045101007
3450200 -0.00450092707359 0.0509887549598 0.00251432725263 0.00111127531733 0.00223387250715 -0.000221080512633 -0.0151865937111 0.060575165458
3482980 -0.00436384017739 0.0516002790561 0.00250267669332 0.00111033184886 0.00225135347901 -0.000216276974847 -0.014987738603 0.0597296544132
3515760 -0.00423900986506 0.052289735268 0.0025015140226 0.00113126955051 0.00225075851618 -0.000225560480873 -0.0148516430853 0.0589778579984
3548540 -0.00412967570967 0.0529078823918 0.00249911179768 0.00113889969305 0.00223579784201 -0.000239327323304 -0.0146754422495 0.05818564017
3581320 -0.0040301870449 0.0535186970265 0.00249251682253 0.00113718951858 0.00226527494192 -0.000258443107884 -0.0145747199812 0.0573711558912
3614100 -0.00389280046525 0.0541337374948 0.0025278135597 0.00116238128231 0.00224038118684 -0.000244767464239 -0.014404847239 0.0565922426942
3646880 -0.00371540464182 0.0547232983257 0.00249097390608 0.00117437495077 0.00222265803585 -0.000230003789527 -0.0142519542765 0.0557768569134
3679660 -0.00354914112238 0.0553419552545 0.00250495874515 0.00117129298403 0.00223858524646 -0.00027224949913 -0.0141165346639 0.0550576906191
3712440 -0.00336618129064 0.0559733258116 0.00252621129896 0.00114472775857 0.00222827506506 -0.000276023279074 -0.013945611682 0.0543763910188
3745220 -0.00317968431904 0.056586328965 0.00251333039562 0.00117842606489 0.00222519066691 -0.000261331739011 -0.0137921691284 0.0536392752058
3778000 -0.0029873105306 0.0572338613889 0.00251611466336 0.00118622344661 0.00222517226186 -0.000266060450997 -0.0136198979877 0.0529594570245
3810780 -0.00285177939611 0.0578839761714 0.00251361615186 0.00117155461182 0.00222855410144 -0.0002597651572 -0.0135063486782 0.0522532484185
3843560 -0.00271349864629 0.0584486353626 0.00252007687764 0.00117602954961 0.0022006872643 -0.000274861406927 -0.0133814090404 0.0515552883494
3876340 -0.00260799189727 0.0591153739316 0.00251783997775 0.00118074709126 0.00221947832256 -0.000294938402838 -0.0132468091622 0.0509073854842
3909120 -0.00241265227831 0.0597338036796 0.00253383851741 0.00120463260487 0.00220044825174 -0.000307680187651 -0.0132045859267 0.0502379719024
3941900 -0.00226541158351 0.0603326605848 0.00254785642022 0.00119623286019 0.0022069071074 -0.000296710450807 -0.0130409401306 0.0495514808075
3974680 -0.00208512290285 0.0609281707466 0.00254925527512 0.00123011129028 0.00219975041623 -0.000291054126827 -0.012932782802 0.0489064064036
4007460 -0.00199254315933 0.0615236666006 0.00255120323069 0.00122786783498 0.00219095130618 -0.000312652628009 -0.0128268815952 0.0482338012832
4040240 -0.00184765479147 0.0621183627844 0.00256116279933 0.00121552175617 0.00220139319777 -0.000312845149678 -0.0126885398972 0.0475414777552
4073020 -0.00161097684333 0.0626886659991 0.00255601505024 0.00122965803952 0.00218437606185 -0.000318212838673 -0.0125920732343 0.0469293064101
4105800 -0.00145444640267 0.063320177989 0.00256112199216 0.00124848743203 0.00219649351846 -0.000318386804319 -0.0124780213657 0.0462933835396
4138580 -0.00126138344309 0.0638575545734 0.0025726009994 0.00122846224411 0.00218924296186 -0.00031090132601 -0.0123205375091 0.0456468048993
4171360 -0.00109530757528 0.0644290350978 0.0025591661226 0.00123380306177 0.00220164493858 -0.000307770370744 -0.012198730527 0.0450442934057
4204140 -0.000896492545665 0.0650050617452 0.00258760096189 0.00125386499508 0.00219628831436 -0.000318295248734 -0.0120808789665 0.044429308057
4236920 -0.00073042067491 0.0655700317865 0.00255383752335 0.00127930208569 0.0022065084776 -0.000314911720585 -0.0119943581914 0.0437934817231
4269700 -0.000544489217762 0.0662130251959 0.00256344505335 0.00125468320493 0.00219528648706 -0.000340687440278 -0.0118835822183 0.0431594543643
4302480 -0.000328433635737 0.0667478488055 0.00255137669923 0.00127490017668 0.00220263091491 -0.000343815798187 -0.0117798049702 0.042574004878
4335260 -0.000163780636729 0.06732430709 0.00257623054769 0.00123770870656 0.00219026955532 -0.000345350514379 -0.0116783461227 0.0419907392461
4368040 3.14535619123e-06 0.0679179144415 0.00256754670915 0.0012958906811 0.00217494326569 -0.000335542644157 -0.0115857649344 0.0414171387803
4400820 0.000185865776428 0.0684614991784 0.00258046044975 0.00127126357318 0.00218790053151 -0.000350950410716 -0.0115070026238 0.0408324431732
4433600 0.000374445056661 0.0690077771684 0.00260871666751 0.0012762583622 0.0022057382882 -0.00035618221386 -0.0114521378558 0.0402295185191
4466380 0.000558911319306 0.0696382061648 0.00257999026211 0.00127504427514 0.00218843766909 -0.000359368696781 -0.0113728658828 0.0396482588266
4499160 0.000776436590655 0.0701917354422 0.0025973923495 0.00127973943527 0.00216762974576 -0.000369118583505 -0.0111759003744 0.0390981052719
4531940 0.00100232954922 0.0707864038907 0.00257514661109 0.00129522223727 0.00218197286927 -0.000359344499121 -0.0110985724086 0.0385984517791
4564720 0.00117981456207 0.0713011925628 0.00258273723752 0.0012952632362 0.00217486710207 -0.000369726799315 -0.0109881919818 0.0380241002982
4597500 0.00139767207809 0.0718814247578 0.00258743398106 0.00131791261756 0.00216543520573 -0.000391337625717 -0.0108929202794 0.0374590650384
4630280 0.00157301293088 0.0724491073787 0.00258009319379 0.00131437112344 0.00215121209737 -0.000409610164461 -0.0108046562291 0.0369214164984
4663060 0.0017971795697 0.0730070059447 0.00259747674741 0.00130440145877 0.00216153701943 -0.000405349546641 -0.0107530581275 0.0363408144074
4695840 0.00201275077754 0.0735374984676 0.00259911190797 0.00133023262043 0.00215655539869 -0.000381384973493 -0.0106777314313 0.035826420141
4728620 0.00218710562984 0.07408800248 0.00262015740558 0.00132185636866 0.00215833003742 -0.000389595259376 -0.0105835240345 0.035343038234
4761400 0.00241136183198 0.07464409694 0.00261699175847 0.00135382138283 0.00214546804823 -0.000403615869409 -0.0105083596276 0.0348152310977
4794180 0.00260888297449 0.0751861397817 0.00261588910462 0.0013442898101 0.00213521387939 -0.00042372016223 -0.0104470107801 0.0342620848387
4826960 0.00280494497725 0.0757408408267 0.00261377009932 0.0013487425453 0.00214545423041 -0.000401385649027 -0.0103771195122 0.0337531228921
4859740 0.00299273080056 0.07626422865 0.00261685626919 0.00134728058636 0.00214596311786 -0.000399311217685 -0.0102983422034 0.0332564292259
4892520 0.00321430535717 0.0768579410566 0.00263494879916 0.00136422981978 0.0021556433029 -0.000436461473048 -0.0102125201416 0.0327548796972
4925300 0.00345125814318 0.0773927397642 0.00263178695383 0.00135893466751 0.00209831138882 -0.000431301856521 -0.0101884156397 0.0322442235801
4958080 0.00361415788359 0.0778859384897 0.00263587548809 0.00137039724606 0.0021469280153 -0.000429838467102 -0.010073034168 0.0317219212355
4990860 0.00383102049686 0.078474283127 0.00264550316422 0.00139137248123 0.00213481434614 -0.000428851872883 -0.0100309468428 0.0312359230788
5023640 0.00410163578449 0.0790206437339 0.00262558282303 0.00140482322083 0.00212255474881 -0.00042267485021 -0.0099364373951 0.0307547452376
5056420 0.00428389618453 0.0795228959163 0.00264654051395 0.00138774799977 0.00212768974707 -0.000439031513304 -0.00989119962644 0.0302566192884
5089200 0.00451949706446 0.0801302871102 0.00264945818456 0.00139417638277 0.00211472113279 -0.00045087747674 -0.00979052154828 0.0297970769518
5121980 0.00477169105043 0.0806574105437 0.00264134463106 0.0014232176586 0.00211918494794 -0.00044900837853 -0.00967638537834 0.0293148481702
5154760 0.0050159516359 0.0812056727921 0.00264785272383 0.00140002484924 0.00209023617364 -0.000444399309871 -0.00957001539584 0.0289121065323
5187540 0.00525915544635 0.0817543974432 0.00266051526763 0.00141896820042 0.00211197270445 -0.000442706271086 -0.00952265141886 0.0284114575988
5220320 0.00551173526867 0.082291412117 0.00264517595155 0.00143378689959 0.00211874091082 -0.000436350515758 -0.0094269145413 0.0279880753076
5253100 0.00572269903904 0.0828227513054 0.00268658752172 0.00141714261288 0.00211773821252 -0.000427016297841 -0.00936385560076 0.0274806391264
5285880 0.00595508307689 0.0833082262823 0.0027067862101 0.00143652715202 0.00206416234146 -0.000432534729794 -0.00932240832757 0.0269974956717
5318660 0.00613553019778 0.0838180324598 0.00265558301609 0.0014497153956 0.00211341355141 -0.00045337841033 -0.00924290993459 0.0265423921376
5351440 0.00637106623176 0.0842765132116 0.00264711192479 0.00144594801926 0.0021020774358 -0.000454676515137 -0.00920448991744 0.0260982268933
5384220 0.00657161113894 0.0847946433604 0.00269120558487 0.00147017313232 0.0021087589266 -0.000452971364192 -0.00915900331722 0.0255803645822
5417000 0.0067877586735 0.0853147439067 0.00268964005884 0.00144974212026 0.00211539417206 -0.000448687735758 -0.00912408021739 0.0251641364957
5449780 0.00700295177508 0.0858284395054 0.00266414633963 0.00145011392237 0.00210730539212 -0.000459400855569 -0.00904277709411 0.0246767671729
5482560 0.00719733511102 0.0863271882361 0.00268798082533 0.00145407597341 0.0020769626824 -0.000460579983363 -0.00900810970442 0.0242473891048
5515340 0.0074217278092 0.0868578776665 0.00266233199991 0.0014618152994 0.0020955510132 -0.000462995651516 -0.00895194156458 0.0238224318263
5548120 0.00765575785809 0.0873985437378 0.00268178693223 0.00148846124685 0.00208116701 -0.000457524396561 -0.00890312748848 0.0234005291674
5580900 0.00788523359887 0.0878674019696 0.00268848997852 0.00148192567131 0.00207991958766 -0.000464530045773 -0.00890447700018 0.0229690024726
5613680 0.00811609968431 0.0884301872246 0.0026954694098 0.00150748366716 0.00209607269093 -0.000466737289213 -0.00882985263314 0.0225322831175
5646460 0.0083146641208 0.0889372222419 0.00268184117741 0.00149889032682 0.00207073473208 -0.000482484686103 -0.00875976136765 0.0220789715461
5679240 0.00861295432757 0.0894267314066 0.00268937450004 0.00151305306981 0.0020805862133 -0.000484864503886 -0.008702219867 0.0216453094327
5712020 0.00884592746788 0.0899295859813 0.00268552925199 0.00151050569936 0.00206744032871 -0.000487060497364 -0.00861813768383 0.0212519040348
5744800 0.00910705697457 0.0904437867458 0.00270116196196 0.00151615656108 0.00208157660479 -0.000501854420153 -0.00850264863844 0.0208208355725
5777580 0.00941871760553 0.0909464532269 0.00268089456897 0.00152479230909 0.00206014650567 -0.000498357359351 -0.00844687224458 0.0203786957782
5810360 0.00969593036528 0.0914174030533 0.00269643012085 0.00149270022822 0.00212156192596 -0.000491644118497 -0.00839911211234 0.0199642760048
5843140 0.00988384802634 0.0918818953987 0.00272580735302 0.00155140526648 0.00209823490207 -0.000542832449226 -0.00831403173217 0.0195688134983
5875920 0.0101199356204 0.0924103122006 0.00272443514106 0.00155491100699 0.0020401694695 -0.00050041747334 -0.00833291625994 0.0191258716927
5908700 0.0103293576469 0.0929137992191 0.00272542727005 0.00156851995021 0.00204530109115 -0.000520238445903 -0.00830265609624 0.0187475829587
5941480 0.0105173406114 0.0934115232974 0.00272403369007 0.00156282527702 0.00205741693286 -0.000499931468367 -0.00828681924512 0.0183056858453
5974260 0.0107508409216 0.093931037885 0.00271826927304 0.00158123917717 0.00205706483474 -0.000511281077775 -0.00827004285001 0.017945697995
6007040 0.0109390919723 0.0944648325499 0.00271822365555 0.00156910184606 0.00204358660912 -0.000511756507568 -0.00823366159401 0.0175393462752
6039820 0.0111783208153 0.094935868321 0.00271318513096 0.00157421277414 0.00204490590537 -0.000528817670159 -0.00821632299992 0.0171429108602
6072600 0.011465590393 0.0953955666176 0.00271919945992 0.00158902575727 0.0020520124142 -0.000509751015687 -0.00811313590078 0.0166924180968
6105380 0.0116340895608 0.0958925914713 0.00273046590776 0.00160030152589 0.00204224967616 -0.000517956057829 -0.00807563397367 0.016353579419
6138160 0.0119044370404 0.0963347646242 0.00272963342476 0.00156901814932 0.00205190843671 -0.00053249146141 -0.00804041671177 0.0158713593511
6170940 0.0122337730925 0.0968010435102 0.00274157343434 0.00160567185883 0.00204018582988 -0.00052508376031 -0.00793768894187 0.0154942837413
6203720 0.0124812643154 0.0972931683723 0.00274482699931 0.00159518473277 0.00200687068972 -0.000538887704201 -0.00788780807972 0.0151122959053
6236500 0.0127694348062 0.0977586895698 0.00276262422151 0.00161532285511 0.00203857611363 -0.000530712378754 -0.00785674543682 0.0146935955719
6269280 0.0129809046916 0.0982343021353 0.00275672123262 0.00163705455669 0.00201465737662 -0.000512627698491 -0.00783011324362 0.0143074824812
6302060 0.0131802949664 0.0987295759451 0.00275311561158 0.00161995253229 0.00199021969417 -0.000524143255574 -0.00783184730603 0.0139773650198
6334840 0.0133891291393 0.0992484452757 0.00274988555245 0.00163551491182 0.00202620683501 -0.000533488022863 -0.00781058817534 0.0135536440145
6367620 0.0135983805947 0.0997004652044 0.00275966982837 0.00161853774878 0.00201285042052 -0.000559205095084 -0.00785062775518 0.0132072333524
6400400 0.013810014785 0.100224670837 0.00274875232224 0.00165095714147 0.00200933689988 -0.000514678537926 -0.00783326684612 0.0128268172839
6433180 0.0140029922825 0.100709161192 0.00276491840938 0.00164889323611 0.00201208664458 -0.000557389043924 -0.00783815914769 0.0124475216628
6465960 0.0143294985924 0.101152179435 0.00276060525612 0.00165361338895 0.00197098020085 -0.000562341105922 -0.00779653504845 0.0120584416326
6498740 0.0146053017853 0.101590690011 0.00279154264908 0.0016632593259 0.0020111399906 -0.000547083777544 -0.00771166903749 0.0116822398327
6531520 0.0148406574794 0.102053316998 0.00275879915501 0.001691911895 0.00202716935996 -0.000552550981067 -0.00766628852826 0.0112710359482
6564300 0.0151617233603 0.102530513348 0.00277362136984 0.00166267120833 0.00199662739229 -0.000552177003644 -0.00764332663576 0.0109020922972
6597080 0.0154015977909 0.102981200396 0.00278410862456 0.00171242078792 0.00199508857301 -0.000540618756007 -0.00759083203333 0.0105402741025
6629860 0.0157416561849 0.103515406232 0.00278240592645 0.00168811000999 0.00201237695362 -0.000545226050503 -0.00750437420525 0.010164520513
6662640 0.0159832046729 0.103953069351 0.00277418450066 0.00169338127241 0.00197031397798 -0.000527015807625 -0.00750953789179 0.00983803914569
6695420 0.0162319523465 0.104411505582 0.00279526666453 0.00171450064219 0.0019856400466 -0.000567867729159 -0.00746531931799 0.00945955116233
6728200 0.016547120409 0.104899772977 0.00279150438595 0.0017059358835 0.0019829218322 -0.000561688637065 -0.00742457962854 0.00912861413928
6760980 0.0167581245839 0.105382609111 0.0027788249733 0.00171793723469 0.00197273438577 -0.000543046342128 -0.00742980125398 0.00878483745282
6793760 0.0169606951295 0.105862189116 0.00282828618595 0.00172846905455 0.00197214405533 -0.000553924042568 -0.00741154301712 0.00841583178837
6826540 0.0173124233762 0.106332329719 0.00280363103985 0.00174083022415 0.00195956070518 -0.000587736642726 -0.00740220492202 0.00807058671684
6859320 0.0175144457755 0.106824992989 0.00281092014315 0.00175236123313 0.00195669073725 -0.000571544639589 -0.0074073159064 0.00774454354313
6892100 0.0178060029131 0.107295266487 0.00281827775453 0.00176501640413 0.00194535931707 -0.000579387064346 -0.0074047810124 0.00737420125792
6924880 0.0181070436519 0.107718990128 0.00281569347533 0.00177318024841 0.0019402058041 -0.000593375867454 -0.00740743607149 0.00699369469846
6957660 0.0183388225848 0.108151288832 0.0028124318148 0.00178415910522 0.00192728619701 -0.000580896113006 -0.00742407174474 0.00665168188767
6990440 0.0186366742898 0.108571590249 0.00281782723046 0.00179643181369 0.00197672169162 -0.000586162629652 -0.00744455755837 0.00632634826899
7023220 0.0188748173993 0.108991757765 0.00283105083233 0.00179764439766 0.00192871699791 -0.000581850224767 -0.0074650222494 0.00604148607873
7056000 0.019135531006 0.10949802664 0.00284510423028 0.00181194221549 0.00194383985918 -0.00058186249877 -0.00744789516095 0.00582544835797
7088780 0.0193140680008 0.110096591456 0.0028906710725 0.00184239409734 0.00195836115616 -0.000547326956849 -0.00753661177133 0.00558174558309
7121560 0.0196662740706 0.110352557692 0.00286100057107 0.00182901455139 0.00192970988577 -0.000557647621423 -0.00729725010049 0.00539847957131
7154340 0.0199033017759 0.110817149879 0.0029118197308 0.00185197145292 0.00192746295849 -0.000554358561844 -0.00705871605393 0.00510854974984
7187120 0.0201353843759 0.111273763119 0.00292374254262 0.00186225645326 0.00192158811662 -0.000551024782891 -0.00681272750785 0.00468990644695
7219900 0.0204168536448 0.111726250991 0.00292887684719 0.00185106878314 0.00193598618513 -0.000557026160412 -0.00660590169689 0.00421505860739
7252680 0.0206279172212 0.112105028178 0.00293331928398 0.00185372974124 0.00191584784351 -0.000574039769733 -0.00651891815864 0.00367186337586
7285460 0.0209184109025 0.112617366663 0.00292314901451 0.00182203427429 0.00194604876304 -0.000561907108476 -0.00654881147208 0.00313958611417
7318240 0.0211437252137 0.113082599746 0.00293643578608 0.0018610367072 0.00191933525798 -0.000544035472898 -0.00667463527837 0.00268987665012
7351020 0.0214395847494 0.113502511886 0.00293292906119 0.00184018597415 0.00195303860652 -0.000571926255815 -0.00676333359799 0.00233069471127
7383800 0.0216680793303 0.113988920326 0.00295259506464 0.00184189177901 0.00192670711621 -0.000574145953937 -0.00688161920694 0.00199469810974
7416580 0.0219380166961 0.114449661671 0.00294038235856 0.00184444856893 0.0019433585545 -0.000582801382065 -0.00694307138771 0.00167744139395
7449360 0.0221772534125 0.114885267729 0.00295025626441 0.00185246845352 0.00193280565547 -0.000574766957715 -0.0070496345067 0.0014029110448
7482140 0.0224771267605 0.115325951649 0.00293729640069 0.00184484043868 0.00193912917932 -0.00059324845685 -0.0070387050537 0.00109333364424
7514920 0.0227411165699 0.115791730915 0.00294163866679 0.00187897435944 0.00193194833474 -0.000575782778366 -0.00707631890827 0.00081553321264
7547700 0.0229904315775 0.116232620318 0.00297227829558 0.00185442151633 0.00192829265036 -0.000601582350409 -0.00706277599458 0.000478152924878
7580480 0.0233026158631 0.116701539787 0.00295469322718 0.00186148564745 0.00193478516225 -0.000603109360858 -0.00703299500472 0.000227739851062
7613260 0.0235482595134 0.117091674551 0.00294101447422 0.00187857389523 0.00190843473986 -0.000575936523935 -0.00704838944399 -0.000110202498705
7646040 0.023877889533 0.117515011603 0.00296071369035 0.00187624282994 0.00192211889038 -0.000573126522452 -0.00705375305969 -0.000438252516633
7678820 0.0241387370184 0.117849839792 0.00297439346403 0.00186370831189 0.00190587260314 -0.000582268822497 -0.00703621140052 -0.000810183522765
7711600 0.0244586640744 0.11828827362 0.00297573949204 0.00190505452469 0.00192793952729 -0.00057467852392 -0.00701326378947 -0.00109380794358
7744380 0.0247052671561 0.118681340376 0.00297326663125 0.0018842663623 0.00191749164358 -0.000571903319794 -0.0069923646918 -0.00147323702922
7777160 0.0250311778659 0.119096575976 0.00298192677925 0.0018921977883 0.00188464121338 -0.000608235264827 -0.00699202812631 -0.00180798037732
7809940 0.0252920663947 0.119442100431 0.00299097339394 0.00192118443513 0.00188366969263 -0.000607852870877 -0.00696432835645 -0.00210938314729
7842720 0.0255703553185 0.119946269314 0.00300240179111 0.00190348609963 0.00189647972958 -0.000587463857376 -0.00696295419151 -0.00242810917488
7875500 0.0258120605995 0.120353806476 0.00299393669135 0.00188790092335 0.00188674165331 -0.000590546825922 -0.00696319373259 -0.00271374908181
7908280 0.0261205645774 0.120777735601 0.00300192886391 0.00189162572545 0.00188994630101 -0.000588979274094 -0.00697268346277 -0.00301582367456
7941060 0.0263541789728 0.121245338278 0.00300801609047 0.001926871679 0.00189372397182 -0.000610570942015 -0.00701395592038 -0.00329329658905
7973840 0.0266394124684 0.121670197069 0.00299559034455 0.00193771200859 0.00188507564434 -0.000607911817592 -0.00700502674324 -0.0035807808256
8006620 0.0268962553674 0.122102518223 0.00302190247901 0.00194720963578 0.00187715693698 -0.000616847336317 -0.00699330439941 -0.00389069606399
8039400 0.0272659384148 0.122578731246 0.00300408174555 0.00194275291848 0.0018764233954 -0.000626160175145 -0.00698434104997 -0.00419713536267
8072180 0.0275821496143 0.122991267606 0.00300495621286 0.00193244367915 0.00185614819114 -0.000605684094987 -0.00694156046595 -0.00450491661323
8104960 0.0278380491013 0.1233617357 0.0030283467973 0.00192932041636 0.00187390723658 -0.000633518859894 -0.00695562866661 -0.0047945568941
8137740 0.028109808365 0.123800012838 0.00301773881229 0.00193534962863 0.00185856365015 -0.000629386222068 -0.00692391683058 -0.00510037300361
8170520 0.028462845705 0.12423475742 0.00302023126517 0.00196774996644 0.00184870969357 -0.000611805795271 -0.00691897182622 -0.00538261978357
8203300 0.0287238823792 0.124635907021 0.00300485988067 0.00195158357859 0.00184876285518 -0.000599264822509 -0.00685273789476 -0.0057374040001
8236080 0.029048401661 0.125065220361 0.00303203310708 0.00197154327288 0.00186126234747 -0.000631591058221 -0.00686057323449 -0.00599538888888
8268860 0.0292933940036 0.125493671999 0.0030247066031 0.00196618733126 0.00185266072857 -0.000613690660031 -0.00686169474735 -0.0063189013767
8301640 0.0295698332034 0.125865814365 0.00304400123546 0.00197246016984 0.00187308585473 -0.000629567585882 -0.00686469455608 -0.00666085798096
8334420 0.0298695193351 0.126252484585 0.00303983433195 0.00198552748547 0.00186346903976 -0.000631630038754 -0.00686827652582 -0.00697563328735
8367200 0.0301312973954 0.126678540592 0.00303353663627 0.00198329662689 0.00184619841312 -0.000617304415289 -0.00688068130339 -0.00724501742377
8399980 0.0304149669485 0.127114626093 0.00304307042316 0.00199601077273 0.00181704140476 -0.0006385589967 -0.00686751006419 -0.00755423737343
8432760 0.0306969009789 0.127500848414 0.00305516169645 0.00198753484327 0.00183994285802 -0.000642500570208 -0.00689368538278 -0.00786603474695
8465540 0.0310004510736 0.127960673617 0.00307494228312 0.00202021909321 0.00183858178663 -0.000626183248122 -0.00688189796228 -0.00813755988213
8498320 0.0312931306228 0.128363142057 0.003066490932 0.00200731957269 0.00183507823136 -0.000627486525455 -0.00691033305442 -0.00844022703631
8531100 0.0315111408305 0.128796703474 0.00307475219715 0.00202463272639 0.00185134814802 -0.000641701601555 -0.00695680606 -0.00872210043869
8563880 0.0317714492554 0.129144034439 0.00305539118257 0.00199668920508 0.00182335757987 -0.000665453441537 -0.0069809848674 -0.00901236784127
8596660 0.0320667472236 0.129584307346 0.00307890743087 0.0020166882673 0.00181732160213 -0.000657107784566 -0.00700277504915 -0.00927029253522
8629440 0.0323180682256 0.130040308747 0.00308913317273 0.00203959512963 0.00180451306438 -0.000639034122916 -0.00701056103481 -0.00957939868343
8662220 0.0326495031785 0.130431589883 0.00306073284985 0.00201380162877 0.00182621916782 -0.000672606866825 -0.00695961044049 -0.00989028064303
8695000 0.0329573012773 0.130818816994 0.00308915018562 0.00206131266223 0.00178434746063 -0.000663219588989 -0.00697340435077 -0.0101532201803
8727780 0.0332405163468 0.131225972351 0.00308045430746 0.00205210809699 0.00180345300991 -0.000647687127997 -0.00698515527927 -0.0104905649245
8760560 0.0335070355627 0.131593579405 0.00308404813903 0.00203947942119 0.0018132761816 -0.000648868569252 -0.00695859884935 -0.0107532790826
8793340 0.033849404493 0.131998784411 0.00307632038206 0.00205432275834 0.00179361153771 -0.000652019628299 -0.00696957468362 -0.0110643806745
8826120 0.0341509077478 0.132431745658 0.00312181070747 0.00204122242517 0.00178768696527 -0.000644466152821 -0.00695098997077 -0.01133587061
8858900 0.0344276601012 0.132802629181 0.00311196252445 0.0020587273654 0.00181826872936 -0.000649946292087 -0.00694590351599 -0.0116031002885
8891680 0.0347422432457 0.133227357786 0.00312429028408 0.00206733607205 0.00179614071445 -0.000639621004592 -0.00696903138565 -0.0118801466664
8924460 0.0350379528702 0.133663766437 0.00312164920311 0.00205863296565 0.00179605404122 -0.000646981561448 -0.00694717656386 -0.0121843232618
8957240 0.0353598363383 0.134065190422 0.00314750104613 0.00209000393592 0.0018028508033 -0.00065722221889 -0.00696434937753 -0.0124626887644
8990020 0.0356541887452 0.134480117841 0.00313815483374 0.00208912026679 0.00176854416821 -0.000654722184842 -0.00698342707113 -0.0127368924327
9022800 0.0359735671359 0.134897476245 0.00314202350522 0.00209504495352 0.00180014489139 -0.000665614817327 -0.00693491821087 -0.0130554580535
9055580 0.0363112239556 0.135258462753 0.00314183347965 0.00210849831879 0.00178453204078 -0.000656739421189 -0.00697193192088 -0.0133491537646
9088360 0.036617518415 0.135656237311 0.00315149435907 0.00209995463252 0.00179136687274 -0.00068699545659 -0.00694867636068 -0.0136340099883
9121140 0.0369155185677 0.135954737949 0.0031552617599 0.00212307821685 0.00178699665396 -0.000676265222737 -0.00696261329347 -0.0139415565935
9153920 0.0372010912439 0.136289088087 0.00316638283931 0.00210148462292 0.00177810796237 -0.000655402270912 -0.00693677218376 -0.0142469042412
9186700 0.037515742131 0.13671031223 0.00318114865253 0.00211693545069 0.00175635983594 -0.000668745830507 -0.00698590610077 -0.0145381276392
9219480 0.0378285934187 0.137126016821 0.00317079956747 0.00213303801231 0.00175763156687 -0.000667411289896 -0.00699544878684 -0.0148108856569
9252260 0.0381114088311 0.137523807669 0.00315377583673 0.00213193399981 0.00175864692436 -0.000674176740185 -0.00704624774257 -0.0150990952923
9285040 0.0384131734711 0.137904001096 0.00317831992719 0.00212385973738 0.0017783323821 -0.000655255220652 -0.00707318870185 -0.0153871043844
9317820 0.0386808761699 0.138266990648 0.00318382726852 0.00213626113944 0.00177068423435 -0.000661432547036 -0.00710389094353 -0.0156483746932
9350600 0.0389272200524 0.13865134755 0.0031823514162 0.00214929619662 0.00174878034274 -0.000674979180029 -0.00714585630501 -0.0158894055994
9383380 0.0392157041645 0.139096055193 0.00317889337963 0.00217062195097 0.00174471172515 -0.000663895189908 -0.00715974863055 -0.016142675676
9416160 0.0395034368599 0.139408449013 0.00317737574875 0.00218049321057 0.00175151587266 -0.000669026582094 -0.00717562042426 -0.0164518561728
9448940 0.0398884888444 0.139805431271 0.00319288575004 0.00217367848244 0.00175071905027 -0.000669624308306 -0.00717093760442 -0.0167462745601
9481720 0.0401797006465 0.140223275194 0.00321330128198 0.00218614269747 0.00174865586569 -0.000691291325588 -0.0071791249008 -0.0170227350994
9514500 0.0404483828038 0.140538952165 0.0032168366677 0.00217394334046 0.00175850302574 -0.000693665893626 -0.00714698776499 -0.0173059209027
9547280 0.0407362379561 0.140947330286 0.00320108049537 0.00217015006013 0.00174806374234 -0.000684552681954 -0.00718815179892 -0.0176184628983
9580060 0.0411048631524 0.141318376681 0.00322213108488 0.0021870478785 0.00175378924777 -0.000701896407117 -0.00719142893596 -0.0178873521109
9612840 0.0413686782369 0.141689901563 0.0032267921187 0.00219332180011 0.00175720345748 -0.000688512105528 -0.00723948107155 -0.0182038358873
9645620 0.0416749975725 0.142122881996 0.00321731846807 0.00220626326746 0.00174313922457 -0.000692310357775 -0.00723934560243 -0.0184792935127
9678400 0.0419847770814 0.142451701355 0.00323137044021 0.00221055521179 0.00174836872089 -0.000671703061932 -0.00726589875288 -0.0187627731281
9711180 0.0422445841835 0.142763352672 0.00324055654181 0.00220421326217 0.00174637280117 -0.00070082766051 -0.00727997894099 -0.0190305166629
9743960 0.0425889284914 0.14312758357 0.00324243626886 0.00220284884821 0.00175268985221 -0.000653949296518 -0.00732567750472 -0.0193223425713
9776740 0.0428333071692 0.14346580212 0.00324726832103 0.00223783551176 0.00173183257957 -0.00069077938282 -0.00739241777866 -0.0196233389944
9809520 0.0431275709034 0.143889714149 0.00324460683552 0.00221234729559 0.0017323145426 -0.000691886810757 -0.00741303355846 -0.0198575027101
9842300 0.0434582175424 0.14427981696 0.00325166079278 0.0022467552918 0.0017338205215 -0.000670242186274 -0.00741599287366 -0.0200849703445
9875080 0.0437505166501 0.144683169738 0.00326141223317 0.00223075269131 0.00170684038051 -0.000688094071519 -0.00743476853974 -0.020358381925
9907860 0.0440925898643 0.145060208779 0.00325270814777 0.00222594476506 0.00171767323512 -0.000679063998219 -0.00745485221525 -0.0206426719604
9940640 0.044418139983 0.145444469242 0.00326911446699 0.00225651737251 0.0017078382205 -0.000695452928622 -0.00748228325678 -0.020895041108
9973420 0.0446463402462 0.145785223328 0.00328659321683 0.0022510302044 0.00170520303348 -0.000693009310761 -0.00748057663428 -0.021101492801
10006200 0.0449641193606 0.14615618711 0.00328026594479 0.00226250757574 0.00169786672059 -0.000715868767383 -0.00747150199262 -0.0213747936642
10038980 0.0452621872403 0.146534799013 0.00327108327126 0.00226842462567 0.00169686644294 -0.000687958055436 -0.00752427154441 -0.0216331915198
10071760 0.0456096764987 0.146897827434 0.00328171466747 0.00226845757712 0.00171920463193 -0.000696778788144 -0.00754716751422 -0.0219213731489
10104540 0.0458990949895 0.147283124512 0.00329694846118 0.00228355625097 0.00169930503039 -0.000686126744702 -0.00759667218058 -0.0221820519874
10137320 0.0462154227996 0.147635040054 0.00329214757081 0.00226841925387 0.00170751716376 -0.000710691761922 -0.00758052426284 -0.0224306293694
10170100 0.0465791154138 0.148042909556 0.00328493489013 0.00229292873479 0.00168178001035 -0.000685681068119 -0.00763467682646 -0.0226859702689
10202880 0.0468692167527 0.148341355877 0.00329822315774 0.00226241264779 0.00167440186043 -0.000690337289308 -0.00763325029751 -0.0230002482487
10235660 0.0471617253346 0.148760446742 0.00330221876283 0.00229423476484 0.00169062778809 -0.000718791847339 -0.00766049424922 -0.0233007802329
10268440 0.0474646830255 0.149113723893 0.00329739522921 0.0022877430307 0.00168235583828 -0.000699428738024 -0.00766274860667 -0.023538826868
10301220 0.0477961503774 0.149457956753 0.00331149407277 0.00231958906562 0.00168074879663 -0.000709519219372 -0.00771781289847 -0.0237883744223
10334000 0.0481020812834 0.149821337044 0.00330515834163 0.00230158695909 0.00170271992289 -0.000697963638858 -0.00772346647299 -0.0240721569222
10366780 0.0484185588688 0.150183805449 0.00330346582041 0.00232501667386 0.00167251485874 -0.000693324725328 -0.007731791758 -0.0243292786273
10399560 0.0487057936579 0.150509035489 0.00332746990646 0.00232075633727 0.0016614640515 -0.00068860347369 -0.0077820178208 -0.0245861459696
10432340 0.0490325167275 0.1508607071 0.00335233509799 0.00229793183136 0.00166668739242 -0.000705096500198 -0.00785244286375 -0.0248492939045
10465120 0.0493588161847 0.151292646802 0.00332708242117 0.00228783481886 0.00170120960573 -0.00070353943225 -0.00788392296051 -0.0251548990666
10497900 0.0496589939628 0.151585878088 0.00337220855034 0.00232682698035 0.00165444672863 -0.000702997672561 -0.00792803747507 -0.025376464665
10530680 0.049949988683 0.152005202059 0.00334597863639 0.00233060327792 0.0016518808813 -0.000708620708611 -0.00797513255161 -0.0256943117926
10563460 0.0502543127644 0.152331387055 0.00337249943694 0.0023422470444 0.00165559579585 -0.000705182548089 -0.00797861016231 -0.0258912839932
10596240 0.0505714903329 0.152633306132 0.00334412414387 0.00234440929459 0.00167418736472 -0.000674075505654 -0.00802976926237 -0.0261594712422
10629020 0.0509261586791 0.153016084318 0.00338364855895 0.00234985085697 0.00167256197153 -0.000714215206528 -0.00803764768759 -0.0264022278536
10661800 0.0512487268448 0.153401879796 0.00337100554026 0.00236359872256 0.00164440228546 -0.000694133885831 -0.00804620383193 -0.0267221917006
10694580 0.0515974577885 0.153742805219 0.00338915806816 0.00236928564851 0.00166832942437 -0.000713920491419 -0.00806675342892 -0.0269482901708
10727360 0.0519469729878 0.154081200427 0.00337822265234 0.00237125417843 0.00163933005509 -0.000726677300619 -0.00804985181047 -0.0271724269158
10760140 0.0522689943022 0.154408456148 0.0033728767868 0.00237263991147 0.00163268503121 -0.000719982755996 -0.0080290765775 -0.0274207041301
10792920 0.0525712120539 0.154779125553 0.00340284823119 0.00237435299458 0.00164241901489 -0.000695900578276 -0.00806425859216 -0.0276805501738
10825700 0.0529292020106 0.155128065786 0.00337141534361 0.00236953913545 0.00162548029944 -0.000704897107973 -0.00812962987275 -0.0279431253062
10858480 0.0532391126973 0.155509527216 0.00339656240855 0.00237456579889 0.00162490211655 -0.000724234640291 -0.00815514914117 -0.0281843648374
10891260 0.0535644711631 0.155865727567 0.00339773145843 0.00237166442188 0.001615033007 -0.000718902216157 -0.00821051372283 -0.0284000615437
10924040 0.0539276148605 0.156220521723 0.00341905648608 0.00240299110456 0.00163227376649 -0.000723428021626 -0.00827640047823 -0.028674185311
10956820 0.0542502028113 0.156616764386 0.00343618457298 0.00237164393035 0.00161714077717 -0.000714542958068 -0.00825258274938 -0.0289193207878
10989600 0.0545731011608 0.156978721628 0.00339744537976 0.00238019143295 0.00161460846294 -0.000723745531208 -0.00831466668706 -0.0291957122791
11022380 0.0548699980581 0.157273534049 0.00342870785353 0.00240699032195 0.00161546433302 -0.000730296142868 -0.00833980816734 -0.0294447029262
11055160 0.055164766889 0.157563539764 0.00341380127116 0.00243469804571 0.0016325676234 -0.0007129895071 -0.00836431542016 -0.0297081665969
11087940 0.0555333112097 0.157907720178 0.00341325021663 0.00240731690464 0.00161897110478 -0.000720429250518 -0.00840361224696 -0.0299809408084
11120720 0.0558232927175 0.158224160517 0.0034365482872 0.00242857761477 0.00161280596537 -0.000711542632659 -0.00839985860641 -0.0302410208346
11153500 0.0561341055285 0.158543828236 0.00343130306271 0.00243096141399 0.00161400599664 -0.000732457719087 -0.00843731655129 -0.0304668409672
11186280 0.0564688269652 0.158872600268 0.00346027965553 0.00244695436258 0.00159918411176 -0.000738425489091 -0.00850501584515 -0.0307400554882
11219060 0.0567880850466 0.159232606275 0.00343411093521 0.00245360976228 0.00159891141183 -0.000732280853903 -0.00851015834284 -0.0309569230572
11251840 0.057122747762 0.15954114866 0.00343912703397 0.00246271542192 0.00159993225256 -0.000728323870514 -0.00860585014241 -0.031220736427
11284620 0.0574579688284 0.159911957774 0.00346319884941 0.00245311179487 0.00159768751939 -0.00072761203009 -0.00862912404968 -0.031443413678
11317400 0.0578032660933 0.160319605537 0.00347344580586 0.00246475832687 0.00159707003099 -0.000729842157883 -0.00867056426355 -0.031687880185
11350180 0.0581294330177 0.160641660835 0.00346245612783 0.00247606022839 0.00155593496466 -0.000716656351292 -0.0087265288576 -0.0319348410542
11382960 0.058450364156 0.160994368088 0.00345737796522 0.00246115675421 0.00158028523191 -0.000727843272255 -0.00873958111003 -0.0321634780732
11415740 0.0587420411828 0.161283579298 0.00347262698505 0.00249940650139 0.00159414386811 -0.000729002746623 -0.00877127759283 -0.0324526255574
11448520 0.0591317438614 0.161638233508 0.00348150601887 0.00248602567242 0.00159543832311 -0.000723302870051 -0.00880537530803 -0.0326867436328
11481300 0.0594536634947 0.161928492788 0.00347758302024 0.00250980762851 0.00157945593323 -0.00074336679781 -0.00883459705781 -0.0329272796488
11514080 0.0597839563628 0.162250552826 0.00347751186406 0.00250723938377 0.0015550029431 -0.000727958388257 -0.00884933020278 -0.0331685314178
11546860 0.0600874255676 0.16256421129 0.00349920252192 0.00249526195365 0.00157415956356 -0.000726294427358 -0.0088995723235 -0.0334434288724
11579640 0.0604357242762 0.162920390956 0.00347570314235 0.00248783827753 0.00155651028221 -0.00073504488509 -0.00893281642833 -0.0336684369718
11612420 0.0607697199408 0.163253595126 0.00349633862923 0.00251664980278 0.00158377834689 -0.000736817613484 -0.00897692815168 -0.0339224878185
11645200 0.0610846488364 0.163575968959 0.00350396480041 0.00249492745919 0.001541303343 -0.0007381040358 -0.00900934252453 -0.034152880868
11677980 0.0614196093402 0.163862585771 0.00351303810707 0.0025125747954 0.00153621787302 -0.000745910741645 -0.00905421051974 -0.0344090752674
11710760 0.0617106339463 0.164193995342 0.00348405310617 0.00251416937061 0.00156729133234 -0.000723204390209 -0.00910061629436 -0.0346610602329
11743540 0.0620642662513 0.16450558894 0.0035273594399 0.00252134848703 0.00156712207203 -0.00072397700633 -0.00913908983467 -0.0349033385461
11776320 0.0623278327069 0.164850481444 0.00352310426186 0.00252458806824 0.00156675831184 -0.000722350937861 -0.00918441208758 -0.0351270330443
11809100 0.0626626323367 0.165182356382 0.00353030001683 0.00253393663205 0.00155028484061 -0.000738753962557 -0.00922842297577 -0.0354074572134
11841880 0.0630120245584 0.165455723397 0.00353772221903 0.00253646760369 0.00154450580073 -0.000731166445727 -0.00926788797607 -0.0356528798985
11874660 0.0633534634025 0.165851018659 0.00354613440493 0.00252487371516 0.00154218570232 -0.000725308190425 -0.00928459358981 -0.0358560382529
11907440 0.0636548441611 0.166172543787 0.00355422285451 0.00255119697289 0.00156168606597 -0.000721076769993 -0.00936734313474 -0.0361223150671
11940220 0.0640485782752 0.166509045079 0.00355908243434 0.00255225185466 0.00151540723448 -0.000741067583997 -0.00938968565254 -0.0363607698232
11973000 0.0643680633254 0.166836456732 0.00356689274814 0.00253446343798 0.0015410969005 -0.000739681046756 -0.00943680601672 -0.0366020849792
12005780 0.0647325862292 0.167210903145 0.0035619189319 0.00255502572381 0.00153413418719 -0.000707045403476 -0.00951748131072 -0.0368160347055
12038560 0.0650108996442 0.167474192726 0.003566577834 0.00255505041963 0.00152876765457 -0.000715201043393 -0.00955364144065 -0.0370714238577
12071340 0.0653346914938 0.167844980817 0.00357379726441 0.00257656527827 0.00154270955634 -0.000729020795345 -0.009595431363 -0.0373131862126
12104120 0.065677192683 0.168165974544 0.00357652484583 0.00255624473471 0.00154604960011 -0.000728214787993 -0.00966744213328 -0.0375143514559
12136900 0.0660141604917 0.168454940583 0.0036020754884 0.00257729802019 0.00153512735758 -0.000736954426092 -0.00967965440262 -0.037746923748
12169680 0.0663610129608 0.168792619917 0.00358883796257 0.00256988237016 0.00153589214429 -0.000719787417898 -0.00975512818463 -0.037940974893
12202460 0.0667208450576 0.169115471899 0.00362266619977 0.00258354137169 0.00151368496377 -0.000730353592805 -0.00979964983578 -0.0382013634067
12235240 0.0670218289413 0.169408482885 0.00360347100062 0.00260089327833 0.00152885358319 -0.000740627602712 -0.00981054132935 -0.0384704358646
12268020 0.0673961629422 0.169765207654 0.0035957013906 0.00259856729736 0.00151607640574 -0.000758661730931 -0.00984680866361 -0.0387096046098
12300800 0.0677101892331 0.170035487847 0.00361192175382 0.00259718653569 0.00150801961373 -0.000746045727576 -0.00991325573387 -0.0389388948256
12333580 0.0680995997571 0.170322575297 0.00360265310716 0.00260128575977 0.00152970264629 -0.000739417850152 -0.00994431218817 -0.039220713977
12366360 0.0684726118764 0.170616903337 0.00359068814005 0.00258886022978 0.00150790701922 -0.000734898078876 -0.00999636475327 -0.0394417046753
12399140 0.0687494698576 0.170906056428 0.00361054456019 0.0026248354678 0.00149630282094 -0.000757302909322 -0.0100319039668 -0.0396439157617
12431920 0.0691127332691 0.171243955213 0.00363415278433 0.00261277996211 0.00148029990872 -0.000729772960337 -0.0101022295811 -0.0398680119463
12464700 0.0694730277905 0.171560039925 0.00361485494909 0.00260238031149 0.00149605936314 -0.000716005300351 -0.0101745817155 -0.0401006810185
12497480 0.0698135807643 0.171843442307 0.0036232040256 0.00260975964434 0.00149880667923 -0.000739432584102 -0.0102193987063 -0.0403583622393
12530260 0.0701681987965 0.172179565446 0.00362793758097 0.00262253744621 0.00147742926647 -0.000716066466986 -0.0102866593801 -0.0405853757122
12563040 0.070471815079 0.172468490184 0.00364613798691 0.00260611253171 0.00150097269344 -0.000726889884391 -0.0103072883908 -0.0408142990922
12595820 0.0708456892064 0.172779940111 0.00365856822167 0.00263045532066 0.00146348904218 -0.000709735597777 -0.01037689831 -0.0410576772786
12628600 0.071204772953 0.173117839877 0.00365506810156 0.00263405541398 0.0014953579944 -0.000741740559277 -0.0103914886567 -0.0412393830151
12661380 0.0715146914998 0.173440948408 0.00368116408016 0.00265363290998 0.00145749590413 -0.000746816971969 -0.0104713167018 -0.041509785344
12694160 0.0718532560421 0.173749854263 0.00370434887672 0.00262562756261 0.00143248382871 -0.000741255505412 -0.0105332288173 -0.0417272692566
12726940 0.0722391178827 0.174055025347 0.00370669467123 0.00264429994647 0.00145911236158 -0.000730655513369 -0.0105506221268 -0.0419068166924
12759720 0.0725646354358 0.174320243869 0.00368468350448 0.00264425564257 0.00143585529431 -0.000744829597 -0.0106553477274 -0.0421729844224
12792500 0.0728769373281 0.174599538398 0.00368413076473 0.00265975540658 0.00145691930697 -0.000723727673602 -0.0106607462296 -0.04240540187
12825280 0.0732990041211 0.174884206825 0.00370752894649 0.00265096617148 0.00143890007232 -0.000748164329655 -0.0106994900294 -0.0426304101201
12858060 0.0735688578353 0.175199175693 0.00369202651437 0.00269714564659 0.00145070537039 -0.000756422717967 -0.0107595115677 -0.0428699735889
12890840 0.0739444886206 0.175501888138 0.00371451405712 0.00265830459142 0.00145117723002 -0.000760777019027 -0.0107610548285 -0.0431317153691
12923620 0.0742778108414 0.175745246295 0.00370964676536 0.00269728226416 0.00146182423157 -0.000772309318102 -0.0108218610796 -0.0433712249151
12956400 0.074578094477 0.176045099212 0.00372367447437 0.00268289788375 0.001442203343 -0.000746295868828 -0.0108526172655 -0.0436036454849
12989180 0.0749915530079 0.176329185728 0.00371565130337 0.0026792193274 0.0014719895284 -0.000737237272302 -0.0109306293478 -0.0438185967495
13021960 0.0752888596369 0.176670082025 0.00373271585407 0.00268158058147 0.00144126692401 -0.000751793776415 -0.0110029560589 -0.0440205356534
13054740 0.0756898294862 0.177003360072 0.00374455020064 0.00268996587761 0.00145906784101 -0.00074450603206 -0.01101754827 -0.0442160178542
13087520 0.0759951723946 0.177291189783 0.00376101043287 0.00269489273156 0.001433083657 -0.000749030566078 -0.0110684217162 -0.0444347262437
13120300 0.0763621385247 0.177626150902 0.00377988901144 0.00269933777925 0.00143773063052 -0.000752840998392 -0.0111322357293 -0.0446312309275
13153080 0.0766770261171 0.177859675328 0.00375053739113 0.00269503343476 0.00143219476866 -0.000750549177085 -0.0111820764151 -0.0448680786204
13185860 0.0770235997557 0.178145857539 0.00378103722074 0.0027002139761 0.00143690787641 -0.00077068350155 -0.0112425853944 -0.0451240784672
13218640 0.0774220613989 0.178434895956 0.00375059024651 0.0027126667482 0.0014234943317 -0.000746795866442 -0.0112883903191 -0.0453491958023
13251420 0.0778029518901 0.178708127057 0.00376342082826 0.00271146901719 0.00141439589603 -0.000727424889939 -0.0113365015109 -0.0456464289079
13284200 0.0781520343573 0.178949841907 0.00377676539993 0.00272788048501 0.00144432872242 -0.000744012354454 -0.0114070678808 -0.0458622270213
13316980 0.0784563609575 0.179172300102 0.00378365491527 0.00271124359912 0.00143782454268 -0.000747432752113 -0.0114308588069 -0.0461374457375
13349760 0.0788156998879 0.179443166729 0.00379557392707 0.00271757607707 0.001415072182 -0.000760995130524 -0.011494361498 -0.0463398320564
13382540 0.0791395823166 0.179728989522 0.00382538003637 0.00271691912259 0.00142417853364 -0.000764670958863 -0.01154107272 -0.0465467199684
13415320 0.0794622372724 0.18009627679 0.0038004711894 0.00272571329381 0.00141561622126 -0.000759333348153 -0.0116101177166 -0.0467765602489
13448100 0.0798198219193 0.180393436063 0.00381191429716 0.00273603579315 0.00139610230788 -0.000768612391326 -0.0116711865642 -0.0469941435117
13480880 0.0801465273981 0.180657618901 0.0038088844769 0.0027544121121 0.00142714198792 -0.000761666492425 -0.0117411721958 -0.0472244102687
13513660 0.0804781132332 0.180988269641 0.00380016370992 0.00274005218278 0.00141536070328 -0.000748263355793 -0.0117916123692 -0.0474415589317
13546440 0.0808852614951 0.181278095139 0.00382887889188 0.00275849251349 0.00139079540301 -0.000753171257286 -0.0118575574241 -0.0476743030286
13579220 0.0812642682615 0.181538777129 0.0038016656649 0.00275191701079 0.00139400576795 -0.000738496387125 -0.0118867296931 -0.0479040874845
13612000 0.081627222913 0.18182935417 0.00379996654158 0.00275368910463 0.00140488079821 -0.000746649594477 -0.0119308450159 -0.0480797733657
13644780 0.0819963679041 0.182076522905 0.00383250601806 0.00276776058907 0.00136484746217 -0.000753404124445 -0.0119614644925 -0.0482966888782
13677560 0.0836237031211 0.18235203743 0.00389239577826 0.0027779046239 0.0013567180106 -0.000777998611612 -0.0120616461004 -0.0486823528413
13710340 0.0840464008854 0.182399618304 0.00387411544784 0.00277409989135 0.00134528121601 -0.000776690014136 -0.0120911099063 -0.0487481074536
13743120 0.0844129140762 0.182611810735 0.00388913121584 0.00275933548021 0.00135534532774 -0.000749514778406 -0.0121000501786 -0.0489783448178
13775900 0.0847888129089 0.182888400691 0.00389252323782 0.00277303471175 0.00136392575927 -0.000770748817051 -0.0121471291891 -0.049195058478
13808680 0.0850992150235 0.183103027162 0.00389852829066 0.00277618215492 0.00134452896542 -0.000774395236799 -0.0122345301577 -0.0494388705072
13841460 0.0854667289875 0.183416811339 0.00391213605185 0.00276413118582 0.00134405547215 -0.000764668224315 -0.0122812265676 -0.0496338098021
13874240 0.0857867526386 0.183642859402 0.003912231981 0.00278270813559 0.00135449903882 -0.000781425476769 -0.0123365401209 -0.049876195054
13907020 0.0862266436435 0.183918426319 0.00389933645267 0.00276156681435 0.00134456373888 -0.00078312744916 -0.0123843242781 -0.0501024094506
13939800 0.0865191039696 0.184186157409 0.00391539694738 0.00278995887377 0.00132465239693 -0.000774827022173 -0.0124218494393 -0.0503423253944
13972580 0.0868846591618 0.184441843143 0.00393155527138 0.00276799161415 0.00134050741478 -0.000775260665342 -0.0125083022979 -0.0505480748612
14005360 0.0873449291188 0.184743819425 0.00393314508324 0.00278484539163 0.00132531431665 -0.000755444528226 -0.012589724692 -0.0507488373081
14038140 0.0876859513562 0.184955404897 0.00394356383779 0.00277757344818 0.00131659985377 -0.000776887802181 -0.0126295074344 -0.0509575696609
14070920 0.0880473676174 0.18520915257 0.00393419971915 0.00280421379341 0.00134325726124 -0.000781688481898 -0.0127063232553 -0.051197929568
14103700 0.0883918239887 0.1854554926 0.00393175117959 0.00280436103047 0.00131304927324 -0.000774870377139 -0.0127606213744 -0.0514375662535
14136480 0.0887452143275 0.185740351905 0.00395188328501 0.00282590600173 0.00128567964953 -0.000779264647793 -0.0128388614933 -0.0516176200018
14169260 0.0891613578599 0.186034934479 0.00395833810885 0.00281486217081 0.00129957694959 -0.000772059131681 -0.012878508738 -0.0518325748217
14202040 0.0895310532488 0.186333869165 0.00395363399409 0.00281837394046 0.00128526949528 -0.000774079178949 -0.0129313977425 -0.0520351707836
14234820 0.0898618659777 0.186573900026 0.00395641869087 0.00282167053095 0.00129599276767 -0.000813722504283 -0.012999717981 -0.0522142316677
14267600 0.0902244060134 0.186910858559 0.00396758474969 0.00282159416769 0.0013275775466 -0.00078449909238 -0.0130453047437 -0.0524254045666
14300380 0.0906147786168 0.18723668726 0.00398015237658 0.00281133293311 0.00130803683882 -0.000771143206608 -0.0131013112512 -0.0526903633778
14333160 0.0909977591149 0.187487881274 0.00396467252303 0.002815256509 0.00130779826167 -0.00076447238119 -0.0131689168732 -0.0528610350969
14365940 0.0913700805719 0.187708552462 0.00398206240835 0.00282867980043 0.00130757386752 -0.000770145696066 -0.0132153160575 -0.0530874873728
14398720 0.0916623940754 0.187994319431 0.00399384152514 0.00282664672696 0.00130147749603 -0.000775710441706 -0.0133211448103 -0.0532992174195
14431500 0.0920359597399 0.18822745534 0.00399419624295 0.00284458294686 0.00129530272892 -0.00076706350726 -0.0133901184334 -0.0535722451495
14464280 0.0923606071604 0.188498775703 0.00400687515321 0.00283977875345 0.00130513599538 -0.000774887969158 -0.0134761202121 -0.0537776447832
14497060 0.0927015504048 0.188739327988 0.00402960605245 0.00285769111212 0.00127009378071 -0.000785293964887 -0.0135560709932 -0.0539929684315
14529840 0.0930301830964 0.188935607926 0.00400723037364 0.00285420877654 0.0012614624219 -0.00078771982539 -0.0136191760117 -0.0541915394228
14562620 0.0934438950242 0.189229556946 0.00402224060181 0.00285125876548 0.00129750276384 -0.000769081255101 -0.0136646741687 -0.0544122260772
14595400 0.0938237877081 0.189454946036 0.00402894286838 0.00285076631976 0.00131076924249 -0.000784262113296 -0.0137084251654 -0.0546512599064
14628180 0.0941669225434 0.189716843246 0.00405263760488 0.0028718792858 0.00129938623231 -0.000772823302813 -0.0137875482586 -0.0548345125598
14660960 0.0945358436959 0.189949099198 0.00402784042703 0.00286457611241 0.00128323308939 -0.000781267915917 -0.0138606699114 -0.0550580708949
14693740 0.0949161550049 0.190183287862 0.00405434567275 0.00287992511476 0.00128149096188 -0.000754326596862 -0.0138834998762 -0.0552517453792
14726520 0.0952152388121 0.190436346946 0.00404389829779 0.00287179889312 0.00126676221347 -0.000758228386937 -0.0139894424014 -0.0554542963618
14759300 0.0955782944063 0.190646189553 0.00405371205582 0.00287270316344 0.00126848474274 -0.000762456703556 -0.014031395741 -0.0556605466397
14792080 0.0959459739657 0.190911841421 0.00408608129358 0.00286955038131 0.00125402212767 -0.000763179909517 -0.0140910921815 -0.0559058187514
14824860 0.0963018942391 0.191093989855 0.00406997953998 0.00285259613648 0.00129138973537 -0.000782172810487 -0.0141382997475 -0.0561336585218
14857640 0.0966973834583 0.1913797473 0.00407129949641 0.0028807921491 0.00125353845655 -0.000770774984298 -0.014207177423 -0.0563378057331
14890420 0.0970433036376 0.191646882333 0.00409457803364 0.00288093666466 0.00123020497613 -0.000753885912021 -0.0142422238524 -0.0565927804449
14923200 0.0974274829567 0.191846252973 0.00407151581433 0.00286124350272 0.00127486363604 -0.000792722340411 -0.0143318589556 -0.0567981251991
14955980 0.0978034232575 0.192160678441 0.00409916388081 0.00291870437564 0.00125533553125 -0.000761943221056 -0.0143787285915 -0.0569841200004
14988760 0.0981956952459 0.192394346039 0.00411637698469 0.00289895568527 0.00124521482833 -0.000775358848195 -0.0144907518713 -0.0571761584667
15021540 0.0985721306647 0.1926426055 0.00410566077528 0.00290370732866 0.00128097073548 -0.000766126145099 -0.0145498398085 -0.0573864939407
15054320 0.0990002390298 0.192938276041 0.00412016420204 0.00290351033753 0.00126300119144 -0.000758105149318 -0.0146508856016 -0.0575686414193
15087100 0.0994565399924 0.193197569846 0.00412111879168 0.00291531166872 0.00125666182112 -0.000769497317326 -0.0147064397253 -0.0577587254008
15119880 0.0997732531385 0.193482739465 0.00413978036511 0.00289909298862 0.00123713730873 -0.000785043185423 -0.0147617488461 -0.0579851802481
15152660 0.100126912753 0.193684236004 0.00414062760651 0.00288938101197 0.00126565186055 -0.000767356062483 -0.0148558527422 -0.0581980618277
15185440 0.100530597896 0.193929384293 0.0041265114903 0.00291375197997 0.00124781225585 -0.00076685866643 -0.0149022339438 -0.0583990006063
15218220 0.100878945461 0.194142872588 0.00413403803636 0.00293561506528 0.00121034808672 -0.000774908136218 -0.0149734002934 -0.0586196784484
15251000 0.10124740641 0.194380645437 0.00415962142994 0.00292595152033 0.00119993811624 -0.000753280914367 -0.0150176337872 -0.0588310562159
15283780 0.10164034759 0.194609238787 0.00417596302545 0.00291491775489 0.00122391572213 -0.000760836292309 -0.0150840808838 -0.0590912944724
15316560 0.102016185762 0.194800341983 0.00416489254075 0.00291565097378 0.00122981563963 -0.000755210810746 -0.0151473276026 -0.059296154712
15349340 0.102367801379 0.19503900681 0.00416346443626 0.00293249497728 0.00122795837949 -0.000754165040412 -0.015202478212 -0.0594891701349
15382120 0.102719283031 0.195281802977 0.00417273107168 0.00292403284757 0.00121545702484 -0.000746161336631 -0.0152886247881 -0.059687734128
15414900 0.103061494459 0.195565605525 0.00420031290814 0.00294546564214 0.0012089455272 -0.000763723663754 -0.0153890704022 -0.0599054904941
15447680 0.103427684221 0.195775272226 0.00419296091701 0.00294635052485 0.00123679113118 -0.000759674977178 -0.0154268139031 -0.0601060887165
15480460 0.10377416545 0.19598916091 0.00420650090121 0.00294022376862 0.00121435374846 -0.000756167966872 -0.0155096931507 -0.060296380675
15513240 0.104152400457 0.196291223882 0.004186971404 0.00296796476281 0.00120373702472 -0.00074477751871 -0.0155862216434 -0.0604722185375
15546020 0.104570074007 0.196487384466 0.0042093881226 0.00295255331056 0.00121401904452 -0.000778422154708 -0.0156644276168 -0.0607277062324
15578800 0.104925156778 0.196624010147 0.00421092861271 0.00295099703067 0.001181585859 -0.000760287272687 -0.0157671647296 -0.0609285289989
15611580 0.105265573268 0.196925282839 0.00421555631624 0.00296990596032 0.00119598855625 -0.000778115689298 -0.0158336215111 -0.061111078102
15644360 0.105665977305 0.197094502942 0.00422274444182 0.0029734536333 0.00118672216823 -0.000770243067574 -0.0158783111364 -0.0613390561148
15677140 0.106075728706 0.197295631573 0.0042124750824 0.00296219986726 0.00119156635105 -0.000766191060769 -0.0160439689748 -0.0615804647866
15709920 0.106462948938 0.197534804119 0.00423278100203 0.00294651444671 0.00119599365742 -0.000764265000308 -0.0160511568515 -0.0617989489009
15742700 0.106839635379 0.19772103203 0.00422583103334 0.00297827557249 0.00120528805604 -0.000750486827089 -0.0161464173624 -0.0619913225505
15775480 0.107182778695 0.197908317369 0.00423247781222 0.00296485525173 0.00119728485214 -0.000751431145185 -0.0162121852478 -0.0621829387951
15808260 0.107566313226 0.198164041913 0.00423528197285 0.00301028523313 0.00121982595592 -0.000726111234776 -0.0163126176796 -0.0625007816725
15841040 0.107822674469 0.198428489484 0.00428707620758 0.0031640817336 0.00127570452547 -0.000624303019489 -0.016340804577 -0.062573194691
15873820 0.108196182737 0.198628977634 0.00417614935457 0.0029949874095 0.00110499076938 -0.000800240460957 -0.0164320098364 -0.0628051435347
15906600 0.108624559424 0.198872284353 0.00428830943066 0.0028859376183 0.00121944280139 -0.000717992321585 -0.0165132925007 -0.0630317418001
15939380 0.108980672669 0.199097143382 0.00432609939936 0.00303591671197 0.00116981072305 -0.000704852713121 -0.016486372621 -0.0632994631369
15972160 0.109348687237 0.199176102683 0.0041699930936 0.00298250792745 0.00140769884237 -0.000736269704349 -0.0166432455896 -0.0634746351955
16004940 0.109762794659 0.199446169075 0.00425665856349 0.00296418226308 0.001245746798 -0.00073551158525 -0.0167391985157 -0.0636964368139
16037720 0.109985178904 0.199668271954 0.00428778622663 0.00299074913233 0.00120526982787 -0.000741518464298 -0.0168616709503 -0.0638875813304
16070500 0.110386514049 0.199935247694 0.0042950325843 0.00301390746326 0.00118489488735 -0.00074433315458 -0.0169436235286 -0.0641316917475
16103280 0.110737322065 0.200081948791 0.00431093673402 0.00298839611501 0.00117401425989 -0.000743100055807 -0.0170003472336 -0.0643168105394
16136060 0.111087555347 0.200288046808 0.00430188552709 0.00299440117452 0.00118794315546 -0.000731138777395 -0.0170987551493 -0.0645234458072
16168840 0.111556168727 0.20050388562 0.00430145783967 0.00301702993123 0.00117092189324 -0.000741968112144 -0.0171414072027 -0.0646680604352
16201620 0.111853358902 0.200735824578 0.00431338086758 0.00300054968091 0.00119071013036 -0.000736834744314 -0.0171717208528 -0.0648783359105
16234400 0.112308412444 0.20094650361 0.00430284010978 0.00300093458964 0.00117441959213 -0.000742119241105 -0.0172715876309 -0.0650669359271
16267180 0.112600855294 0.201146186602 0.00433253553213 0.00300922767596 0.001187044662 -0.0007619580782 -0.0173284610406 -0.0652424628759
16299960 0.112991773334 0.201301703498 0.00433459428042 0.0030168031893 0.00117898989521 -0.000753530922397 -0.0173936913156 -0.0654537933349
16332740 0.113386820325 0.201534571685 0.00435133995029 0.00301941101406 0.00114546876522 -0.000754742388296 -0.0174527535188 -0.0656295541545
16365520 0.113746504573 0.201839975808 0.00434813453076 0.00302454343352 0.00116900116964 -0.000756845098171 -0.0175293661883 -0.0658285777301
16398300 0.114283482299 0.202090866591 0.00434226077994 0.00302490761731 0.00115487185063 -0.000751223781814 -0.0176596088694 -0.0659865215019
16431080 0.114502339928 0.202285208446 0.00436139041447 0.00301997048462 0.00117074828168 -0.000756935977591 -0.0177272877615 -0.0662225073657
16463860 0.114988195173 0.202546083392 0.00439110695739 0.00304658022424 0.00112554631572 -0.000736516014558 -0.0178293772301 -0.0663814760887
16496640 0.115307236884 0.202750465298 0.00437647884668 0.00302756096112 0.00116337700325 -0.000733222770467 -0.017958323372 -0.0665586484111
16529420 0.115694966923 0.202914435709 0.00438421984294 0.0030561562849 0.00112747787989 -0.000767437924959 -0.017989943563 -0.0668513280923
16562200 0.116007767331 0.203129804483 0.00437274164382 0.00303104611313 0.00110444166113 -0.000733915117516 -0.0180848089785 -0.067036685053
16594980 0.11637854828 0.203250898481 0.00439334238881 0.00305150344029 0.00112899800523 -0.000751765157148 -0.018151152782 -0.0672592804786
16627760 0.116767697895 0.203425619437 0.00438953216355 0.0030551740858 0.00113373733822 -0.000742894487864 -0.0182233326147 -0.0675259375378
16660540 0.117118024658 0.203610389241 0.00440289099274 0.00304369175715 0.00115025078683 -0.000748530207682 -0.0182905863216 -0.0677437184632
16693320 0.117428440622 0.203780291437 0.00439662894624 0.00305637324247 0.00110565673876 -0.000729716615453 -0.0183857863366 -0.0679715076052
16726100 0.117907831356 0.20395401417 0.00440801869439 0.00303796483608 0.00112313165694 -0.000750738514743 -0.0184285233895 -0.0681472961004
16758880 0.118281430261 0.204137400295 0.00440489215529 0.00305614608867 0.0011465701517 -0.000710560438765 -0.0184486346804 -0.0683537129575
16791660 0.11874610272 0.204349249807 0.00442040739311 0.00306393353324 0.00115668979141 -0.000728925152175 -0.0185434798369 -0.0685198366025
16824440 0.119138344883 0.204487982356 0.00443520754898 0.00306256215929 0.00115101601757 -0.00069904568661 -0.018624311215 -0.0686952764956
16857220 0.119712651786 0.204793585174 0.00441204276535 0.00307191958377 0.00111154464096 -0.000726628703754 -0.0185929974095 -0.0689320425984
16890000 0.119979874388 0.204942109191 0.004442181231 0.00306735853709 0.00115212827864 -0.000728666138701 -0.0186113581447 -0.0690428972277
16922780 0.12035901246 0.205148605121 0.00445458593067 0.0030765260886 0.00113513765 -0.000717776442483 -0.0188072008138 -0.0692048659851
16955560 0.120642728684 0.205418309691 0.00445322691974 0.00308320339472 0.00109036294023 -0.000720111435992 -0.018877374885 -0.0693765783521
16988340 0.121261043629 0.205752458818 0.00445087188615 0.00307331755897 0.00111157674133 -0.000734977673261 -0.0189355137342 -0.0695166120115
17021120 0.121506459295 0.205893818427 0.00446907334963 0.00307247383849 0.0011197634313 -0.000702468330732 -0.0191459979295 -0.0697183972013
17053900 0.121862801862 0.206114049175 0.00446581818854 0.00307879466267 0.00108332831561 -0.000722501755497 -0.0192576498133 -0.0698842002554
17086680 0.122229955833 0.206391203193 0.00448114890103 0.00308421482552 0.00110582379897 -0.000718885705598 -0.0193607521476 -0.0700528323554
17119460 0.122538265647 0.206532807836 0.00448700740436 0.00310148937852 0.00111658770355 -0.000719860779644 -0.0194581754016 -0.0702285360902
17152240 0.122904375808 0.206630039125 0.00448123115742 0.00308063232616 0.00112665357109 -0.000717138009248 -0.0195179820028 -0.0704543003604
17185020 0.123305022093 0.206927386142 0.00451102215021 0.00308764548568 0.00107885794162 -0.000714946685484 -0.0195442702111 -0.0706984896248
17217800 0.123697615503 0.20704292115 0.00450523220378 0.0031050332215 0.00108978305862 -0.000713788061692 -0.0196132547203 -0.0709042878699
17250580 0.124074508081 0.20711640363 0.00449986143605 0.00309309391722 0.00108590498496 -0.000715702723957 -0.0196914813418 -0.0710752828617
17283360 0.124417643931 0.207270630031 0.00450617804298 0.00309893861129 0.00107646452465 -0.000712589466946 -0.0197386874736 -0.0713300144929
17316140 0.124915174795 0.207467706006 0.00449552821455 0.00309969608472 0.00110825990681 -0.000706576541374 -0.0197673944803 -0.0715449520934
17348920 0.125237317914 0.207652105941 0.00452849764465 0.00310713429462 0.00110244717732 -0.000677815093982 -0.0198886437311 -0.0717532764841
17381700 0.125704416067 0.207822584501 0.00454052280148 0.00311187181446 0.0011270913186 -0.00070996317523 -0.0199319196045 -0.0719714570686
17414480 0.126005404951 0.207926173087 0.00454238812617 0.00309317708949 0.00108583509498 -0.000712742185137 -0.0200016902629 -0.0722013939829
17447260 0.126408219635 0.208106243126 0.00454628788383 0.00313001692854 0.00110113111457 -0.000705901117915 -0.0200860916016 -0.0724081115845
17480040 0.126899010432 0.20823905151 0.00457393261 0.00311208185528 0.00110391323075 -0.000719203608693 -0.0201447519362 -0.0726588483702
17512820 0.127357798179 0.208494919868 0.00457518027836 0.00304411125653 0.00101953154121 -0.00080146621255 -0.0200706023149 -0.0728228160421
17545600 0.127537189319 0.208678565494 0.00459614630117 0.00297822427074 0.00112863022362 -0.000639501684025 -0.020316516979 -0.0730271483201
17578380 0.128044583619 0.208671730019 0.00456764025611 0.00312715992264 0.00104630528583 -0.000784521846019 -0.0203679648071 -0.0731063598254
17611160 0.128381230191 0.209056729917 0.00459180202525 0.00316032112645 0.00111240614339 -0.000770963879062 -0.0203205798624 -0.0734143577373
17643940 0.128789804105 0.209178491139 0.00460687635152 0.00309846240858 0.00101587913176 -0.000616718053289 -0.0206413984177 -0.0736845263997
17676720 0.129037310404 0.2093970981 0.00460135467746 0.00317885658741 0.00111024526903 -0.000741286965195 -0.0207726669023 -0.0737138343425
17709500 0.129443117032 0.209627388432 0.00461039132868 0.00313678780301 0.00104547166158 -0.000680220532592 -0.0208362611908 -0.0738350898267
17742280 0.129883905412 0.209707182623 0.00460862038723 0.00311874874146 0.00108363164561 -0.000684644177874 -0.0208795967951 -0.0741956043071
17775060 0.130099584144 0.209791980792 0.00462384809958 0.00312388023889 0.00110020173791 -0.000714294984476 -0.0210456044899 -0.0743598430753
17807840 0.130428659683 0.209934306006 0.00462112334693 0.00312540298909 0.00109015877251 -0.000686821722126 -0.0211735216406 -0.0745889636402
17840620 0.130701089975 0.210057095363 0.00464447201017 0.00313787550856 0.00106677209492 -0.000699701800343 -0.0213474420287 -0.0747997114138
17873400 0.13098103769 0.210217839276 0.00461298127262 0.0031382519931 0.00109027139562 -0.000686303294158 -0.0214722086542 -0.0750002763853
17906180 0.131411191934 0.210430895752 0.00460992011063 0.00314139490342 0.00106616271943 -0.000685540631406 -0.0215464240551 -0.0751473396963
17938960 0.131757564945 0.210582313834 0.00463272081078 0.003151493167 0.0010662801506 -0.000678624021367 -0.0215744990122 -0.0753680911626
17971740 0.132291150835 0.210776793955 0.00463061715716 0.00314005301292 0.0010298899028 -0.000696831862116 -0.0216133614911 -0.0755672805042
18004520 0.132703888149 0.210998432066 0.00466279828586 0.00315558921609 0.00106359139034 -0.000691453102607 -0.0216804863185 -0.0757475483498
18037300 0.133177291971 0.211167741128 0.00467750264364 0.00315184539698 0.00107293736896 -0.000698624944656 -0.021736576744 -0.0759286361986
18070080 0.133545525386 0.211380012353 0.00465848310342 0.00315650545479 0.00106058766517 -0.000700028893277 -0.0218031483468 -0.0761477363895
18102860 0.133963734688 0.21153566064 0.00465736683583 0.00314696521785 0.0010527190519 -0.000694962323405 -0.0218866673367 -0.0762846028615
18135640 0.134368078605 0.211746505538 0.00467797492488 0.00315187006015 0.00105533894978 -0.000695993190985 -0.0219748753526 -0.0765038379246
18168420 0.134766557862 0.21185365546 0.00471567202097 0.00315746886102 0.0010510102926 -0.000696913854952 -0.0220263474708 -0.0766662253738
18201200 0.135134568561 0.212036015114 0.00470078333126 0.0031562958721 0.00104241785124 -0.000697217067608 -0.0220930823529 -0.0768173160296
18233980 0.135563476936 0.212207780937 0.00470454167862 0.0031658305462 0.00104711819763 -0.000694879086314 -0.022194024001 -0.0770023808641
18266760 0.135934656211 0.212300692715 0.00470391069503 0.00315826242292 0.00102459154423 -0.000693605737545 -0.0223796266341 -0.0771535336444
18299540 0.136463170328 0.21256214412 0.00472264990275 0.00316388717855 0.00105015736458 -0.00069096997054 -0.0222234899763 -0.0774797262737
18332320 0.136775870826 0.21260507884 0.00474301572988 0.00317176316959 0.00105744928294 -0.000663692662117 -0.0224474092805 -0.0775782857173
18365100 0.137113947682 0.212710589019 0.00473773222321 0.00315365462745 0.00106196009656 -0.000675355123806 -0.0225460746788 -0.0777059487863
18397880 0.137425290505 0.212917853105 0.00470526605429 0.00317827854089 0.00104426790764 -0.000681423621511 -0.0226719481056 -0.0778322863798
18430660 0.137873373876 0.213149130847 0.00474953253616 0.00316732397907 0.00102936489748 -0.000685860952275 -0.0228456542613 -0.0781984291687
18463440 0.138232272114 0.213348030681 0.00475391812183 0.00315874860282 0.00103767436362 -0.000684481215166 -0.0228567293002 -0.0784174027949
18496220 0.138633101818 0.213375769661 0.00474851478511 0.00317344433461 0.00102005826019 -0.000681671941426 -0.0229290399223 -0.0785657796801
18529000 0.13895542065 0.213493726507 0.00474585227302 0.00315233465429 0.00102564352632 -0.000696924825003 -0.0229900306751 -0.0787823607436
18561780 0.13937308267 0.213657723668 0.0047483339457 0.00316434338696 0.00102823647394 -0.000696410268018 -0.0231158346224 -0.0789700662072
18594560 0.139775330411 0.213751471962 0.00475210704002 0.00315821362081 0.0010436613991 -0.000673717140048 -0.0231941517103 -0.079161563511
18627340 0.140104293211 0.213900397359 0.00477709122706 0.00317353379071 0.00101084203775 -0.000672715955159 -0.0232880642121 -0.0793687554693
18660120 0.140447363647 0.214066823634 0.00476665742928 0.00318012528356 0.0010122197258 -0.000678850602892 -0.0233394993844 -0.0795523168431
18692900 0.14084347549 0.214198833561 0.00475853228058 0.00317076548214 0.000995557095196 -0.000667424921605 -0.0234178688171 -0.0797485632596
18725680 0.141213353921 0.214341166009 0.00478574329487 0.00319649056323 0.00100509802013 -0.000674352346151 -0.0235230868596 -0.079952136494
18758460 0.141606257384 0.214507994738 0.00480049195502 0.00317375683125 0.00100022479385 -0.000695441816343 -0.0236174373639 -0.080109270808
18791240 0.141993271954 0.214661586799 0.0047945422936 0.00318695776092 0.00101382526185 -0.000665203794669 -0.0237097216437 -0.0803680018862
18824020 0.142421150629 0.21482714533 0.00481109331704 0.00317906717436 0.00101049616448 -0.000672872405414 -0.0238140456257 -0.0805063978681
18856800 0.142776747273 0.214913837837 0.00480294151083 0.003191826608 0.000998250798027 -0.000679900868051 -0.0238721939442 -0.0806789633611
18889580 0.143154245607 0.215085332727 0.00480508022934 0.00320404916464 0.00100819385845 -0.000654984087811 -0.0239894749108 -0.0809303373446
18922360 0.14353545692 0.215239638748 0.0048363453593 0.00317900431727 0.00100101854178 -0.000676086717141 -0.0240421533406 -0.0810853227634
18955140 0.143897857964 0.215298593695 0.0048328037091 0.00318094743486 0.0010216177164 -0.000673625319269 -0.0241073544287 -0.0812833291566
18987920 0.14429130473 0.215517172805 0.00482776338963 0.00320881653164 0.00101592387511 -0.000669703492165 -0.0242525028621 -0.0814458532583
19020700 0.144644836573 0.21562555452 0.00483226993393 0.00318151975003 0.0010087944447 -0.000678313851426 -0.0242852566069 -0.0816598513694
19053480 0.145082451647 0.215788682991 0.00485137434382 0.00318484784859 0.000985560428688 -0.000666118975 -0.0244047996201 -0.0818123089163
19086260 0.145431693793 0.215842911892 0.0048482335099 0.0031940972438 0.000996955004832 -0.000698027487836 -0.0244919243862 -0.0819644684031
19119040 0.145767846781 0.216038213101 0.0048551821741 0.00319458005288 0.000975826259512 -0.000666702172774 -0.0245786735262 -0.0821870860332
19151820 0.146194160629 0.216219252695 0.00485309472442 0.00319151912942 0.000977744953666 -0.000681301410979 -0.0246896183613 -0.0823682045053
19184600 0.146555619489 0.216343948327 0.00488042806108 0.00321368662926 0.000984954199826 -0.000671025245151 -0.024749819591 -0.0825249671048
19217380 0.146980958916 0.216490470972 0.00488534122709 0.00320944960559 0.00100942750424 -0.000661425889144 -0.0248544302156 -0.0827101244707
19250160 0.14734295742 0.216644976387 0.00488067862583 0.00319149130359 0.00101184663039 -0.000662951567841 -0.0249394281692 -0.0829022522109
19282940 0.147673264848 0.216754014201 0.00489243548908 0.00319231747728 0.000993543920266 -0.000689918655107 -0.0250662289104 -0.0830751746073
19315720 0.148073512144 0.216878656065 0.00490548598179 0.00322357240389 0.000990239542518 -0.000671835301697 -0.0250908056102 -0.0832687067794
19348500 0.148499865731 0.216925004841 0.00491402404434 0.0032053113581 0.00099357516177 -0.000661481854983 -0.0252061985144 -0.0834651984088
19381280 0.148918584371 0.217116599028 0.00490702726162 0.00322531134648 0.00098985189143 -0.000666204217647 -0.0252905104993 -0.0836569393755
19414060 0.149340494643 0.217186750947 0.00492216750225 0.00320265743642 0.00099716280899 -0.000648995929506 -0.025349768279 -0.0838065820484
19446840 0.149671129463 0.217296297784 0.00490691391386 0.00320820018464 0.000984563064014 -0.000671877020949 -0.025474862111 -0.0840402509857
19479620 0.150084719376 0.217466151093 0.00491439472475 0.00322683974017 0.0010048868047 -0.000678313482805 -0.0255558094265 -0.0842520523381
19512400 0.150448026242 0.217624043367 0.00492438958021 0.00321763592716 0.000997676292755 -0.000667757047555 -0.0256746585964 -0.0843689412002
19545180 0.150829394171 0.217741936132 0.00492895765811 0.00320954275315 0.000990132484554 -0.000663124263175 -0.0257906739849 -0.0845484681274
19577960 0.151215531991 0.217920011948 0.00495032652673 0.00322874257388 0.000985683987431 -0.000671462126873 -0.0258549506681 -0.0846983396442
19610740 0.1516418944 0.218036551994 0.00492914466804 0.00322072012327 0.00097874474032 -0.000674052899686 -0.0259746201499 -0.084897216988
19643520 0.15194050468 0.218133498157 0.00494386514062 0.0032189269068 0.000977253516721 -0.000638365974666 -0.0260595052652 -0.0849898727942
19676300 0.152255613548 0.218287505259 0.00494279995246 0.00322803873889 0.000973333078945 -0.000644356792055 -0.0261902607233 -0.0852443187055
19709080 0.152613786378 0.218378241931 0.00495042172541 0.00321491968657 0.000996923884023 -0.000652619833684 -0.0263261385683 -0.0854447890988
19741860 0.153043255567 0.218476532996 0.00497431892663 0.00322643433439 0.000984374830312 -0.000668174458133 -0.026409655979 -0.0856382504869
19774640 0.153365959734 0.218614185736 0.00498598410668 0.00322574133804 0.00097609924229 -0.000653510875256 -0.0264940261529 -0.0858189488246
19807420 0.153840567721 0.218701132423 0.00497972749523 0.00322498161157 0.000976590427066 -0.000678716525003 -0.0266088893041 -0.0860443228834
19840200 0.154225420811 0.218868420875 0.00498510538038 0.00322912657824 0.000963046278671 -0.000637233334467 -0.0267381283932 -0.0862403939851
19872980 0.154575663851 0.218950536127 0.00501412621085 0.00323780368453 0.000968806239283 -0.000674073742652 -0.0268615949255 -0.0864598962609
19905760 0.154937915671 0.219065270563 0.00502213764866 0.0032290541303 0.000984934899711 -0.000654262636494 -0.0269466714876 -0.0866100173954
19938540 0.15533512806 0.219158428946 0.00500212272665 0.00321652735021 0.000967464055246 -0.000660519086361 -0.0270744235399 -0.0867947601181
19971320 0.155646288742 0.219258062963 0.00502650384935 0.00324557594604 0.000957817636988 -0.000647849074442 -0.0271150245211 -0.0869506929711
20004100 0.156088423353 0.219416958403 0.00503733463578 0.00320685857597 0.000955600631845 -0.000660050227993 -0.0271774971824 -0.0870984569229
20036880 0.15643409674 0.219514724109 0.00504088617905 0.00322159813209 0.000980450565391 -0.000652048729423 -0.0272974528284 -0.0873185920656
20069660 0.156886242085 0.21959686374 0.0050475820613 0.0032295539736 0.00095574776333 -0.000657410131868 -0.0273782678227 -0.087483067738
20102440 0.157249986363 0.219689421211 0.00503372176788 0.00323046268049 0.000949356269159 -0.000657286087756 -0.0274578982573 -0.0876512208873
20135220 0.157606856966 0.219772463061 0.00506765924876 0.00321696531991 0.00096156930814 -0.000661123310262 -0.0275622352708 -0.0878653267605
20168000 0.158061737722 0.219941941001 0.00506240560838 0.003229739949 0.000940983159969 -0.000647782135599 -0.0276184936421 -0.087987310092
20200780 0.158496370547 0.219952567171 0.00505752584319 0.0032428426086 0.000943079271016 -0.000638480647008 -0.0277274231979 -0.0882063120238
20233560 0.158812312706 0.220059854871 0.00507120089322 0.00322259651234 0.000944427179055 -0.000654655674473 -0.0278531376201 -0.0883688406932
20266340 0.159163221432 0.220690491969 0.00508904854006 0.00320237815265 0.000961638770134 -0.000654274258336 -0.0279436945296 -0.0888862539847
20299120 0.159555629017 0.220233819596 0.00508430470741 0.00319008984013 0.000951699534645 -0.0006329919733 -0.0280753751036 -0.0887598130134
20331900 0.159993962628 0.220332911585 0.00510930945312 0.00319533657572 0.000978116428564 -0.000627056574649 -0.0281151614561 -0.0889349486328
20364680 0.160254860043 0.220422293962 0.0050939471182 0.00319221123216 0.000979680450175 -0.000633277423688 -0.0282200965754 -0.0890854891544
20397460 0.160648324364 0.220551423178 0.00511667195298 0.00320301195375 0.000955863294456 -0.000638198198533 -0.0283349979754 -0.0892414841478
20430240 0.161022202085 0.220644614836 0.00513533156162 0.00318223883387 0.000941927649722 -0.000641945206168 -0.028472845659 -0.0894230443588
20463020 0.161391542896 0.220704477829 0.00513538897306 0.00319187143872 0.000950761239909 -0.000652441759342 -0.0285362048729 -0.0895543605291
20495800 0.161762358141 0.220880679518 0.00510920875252 0.00316964814891 0.000925352919747 -0.0006613158755 -0.0286485888382 -0.0897656308378
20528580 0.162189907251 0.220915939267 0.00516537009956 0.00318553736426 0.000933221294334 -0.000643150096694 -0.0287249236701 -0.0899291038579
20561360 0.162532840124 0.221032427249 0.0051315363469 0.00320373104597 0.000928571038684 -0.000643861672075 -0.0287977070049 -0.090047835288
20594140 0.162892071986 0.221057789242 0.00515772948099 0.00320225576961 0.000946231925861 -0.000641608783696 -0.0288645851055 -0.0902501197377
20626920 0.163312249633 0.221126213594 0.00515035965375 0.00319519703662 0.000975933257691 -0.000623372363752 -0.0290085224158 -0.090438780026
20659700 0.16365312652 0.221252858233 0.00515317248178 0.00317572635465 0.00096884674295 -0.000628345593093 -0.0290853285586 -0.0906413952121
20692480 0.164042308566 0.221262811074 0.00515278243786 0.00319013744611 0.00095937463832 -0.000624231436426 -0.0291737639744 -0.0908240000302
20725260 0.164436425686 0.221425532004 0.00516449738788 0.00319119757248 0.000928278735946 -0.000632533428626 -0.0293554377858 -0.0910466191963
20758040 0.164734014041 0.221437695649 0.00517342733644 0.00320621979475 0.000917858273153 -0.000623509036028 -0.0294358162809 -0.0912245766315
20790820 0.165198160624 0.221530781563 0.00517812618566 0.00318606593394 0.000904204266797 -0.000627778915006 -0.0295783937069 -0.0914187789473
20823600 0.165519128976 0.221605724004 0.00517463118979 0.00318545657422 0.000920073407278 -0.000631667810224 -0.0296644811882 -0.0916366010219
20856380 0.165843459944 0.221691435116 0.00517314014907 0.00319097263589 0.000960601453527 -0.000652987858333 -0.0297088689694 -0.0918246778588
20889160 0.166283040926 0.22169814001 0.00518045384283 0.0032114454082 0.0009152363591 -0.000610829905605 -0.0298368080364 -0.0920427371516
20921940 0.1666837745 0.221878879837 0.0051892227033 0.00320534955037 0.000895258818137 -0.000617085976134 -0.029910779593 -0.0922013140864
20954720 0.167005356062 0.221941648912 0.00520815265025 0.00321932744078 0.00090753471117 -0.000600333305196 -0.030008506347 -0.0923405790671
20987500 0.167422212115 0.222025895828 0.00520203576192 0.0032069037873 0.000933165764031 -0.000630832019138 -0.0301257201201 -0.0925611437793
21020280 0.167706029219 0.222177273919 0.00520483768466 0.00321680043476 0.000929558950123 -0.000608861879223 -0.0302462424718 -0.0927670176216
21053060 0.168120067839 0.222255974072 0.00521700942553 0.00321283768518 0.000934815072595 -0.000607041920897 -0.0303427284196 -0.092928392852
21085840 0.168496198558 0.22232315111 0.00523960465587 0.00320997857832 0.000900091720803 -0.000620852037724 -0.0304363799325 -0.0931157482061
21118620 0.16880710476 0.222372319783 0.00523265371986 0.00321347317204 0.000879797890394 -0.000599788210332 -0.0305525904906 -0.0932771817743
21151400 0.169149692291 0.222466186865 0.00524911287974 0.00324411415204 0.000888570062707 -0.000594687083863 -0.0306651306342 -0.0934157071452
21184180 0.169397289014 0.22259015796 0.00523566436561 0.00324417493526 0.000942074847504 -0.000651895514381 -0.0307419869186 -0.0935593587405
21216960 0.16987111218 0.222691212985 0.00524995494077 0.00326663343508 0.000878657174926 -0.000619574083481 -0.030918555295 -0.0937402254105
21249740 0.170220198488 0.222765682194 0.00524512441419 0.00324120701135 0.000880075587735 -0.000592859036736 -0.0309952225802 -0.0939318199401
21282520 0.170549460113 0.222898908876 0.00524021223402 0.00325307825942 0.000930560959442 -0.0006335966537 -0.0310338763555 -0.0940747795521
21315300 0.170972929504 0.22296501966 0.00525046239758 0.00327214762917 0.000873369952019 -0.000599824017271 -0.0311497781876 -0.094241697778
21348080 0.17128091756 0.223039230052 0.00522766275167 0.00326006759722 0.000917684785316 -0.000630734944115 -0.0312007769248 -0.0943890228881
21380860 0.171649828014 0.223180091466 0.00523358143721 0.00325721995723 0.000895058173305 -0.000621070681993 -0.0312955899752 -0.0945424290089
21413640 0.172054517482 0.223262431404 0.00521527429201 0.00326612796171 0.000909859121568 -0.000622970562458 -0.0313528170945 -0.0947242467593
21446420 0.172445541942 0.223351008888 0.00526121459054 0.00327082596694 0.000871148734871 -0.000635569749979 -0.0314648448307 -0.0949188557527
21479200 0.172804959079 0.223394402677 0.00525683250397 0.00328150332525 0.000910175108422 -0.00062078936598 -0.0315589077867 -0.095082074593
21511980 0.173093570704 0.223526303604 0.00526805243835 0.00326836827508 0.000871478346554 -0.0006473163188 -0.0316772901152 -0.095279938987
21544760 0.173393183207 0.223487747318 0.0053022912182 0.00323800754866 0.000887000440873 -0.000599207466666 -0.0317900118425 -0.0953739761066
21577540 0.17363675114 0.223620960836 0.00528864145154 0.00324020486799 0.000903801052906 -0.00060907558857 -0.0319223471167 -0.0955878582279
21610320 0.173994099333 0.223707971813 0.00532693882628 0.00325780729423 0.000876144254503 -0.000596022839071 -0.0320774498356 -0.0958050814457
21643100 0.174273439467 0.223704307485 0.00529211975271 0.00326316976243 0.000879178090068 -0.00060481647877 -0.0321392082812 -0.0959271657234
21675880 0.174686072473 0.223812173174 0.00532750949356 0.00325119702777 0.000867780344055 -0.000608050853256 -0.0323001827727 -0.0961638146547
21708660 0.17497564883 0.223857336291 0.00532112978626 0.00324436227216 0.000873389173433 -0.000611325370073 -0.0324515520576 -0.0963409936369
21741440 0.17535419004 0.223920225869 0.00534697840468 0.00329141192638 0.000847848426554 -0.000602207265224 -0.0325473044891 -0.0965087557941
21774220 0.175805376379 0.223955284052 0.00536093566249 0.00327524394005 0.0008528028856 -0.000598764540804 -0.0326175694557 -0.0967613103537
21807000 0.176040518929 0.224021439039 0.00534361302401 0.00329482796523 0.000855655883367 -0.000599521611815 -0.0327534503024 -0.0969391205067
21839780 0.176436864898 0.224066919729 0.00538782679258 0.00327628136736 0.000855006138717 -0.000618279555309 -0.0328538882519 -0.0971363176992
21872560 0.176772694639 0.224126094546 0.00536309681249 0.00330043993447 0.000872894406956 -0.000585612075492 -0.0329442545388 -0.0973041014445
21905340 0.177219476639 0.224238199463 0.00536533560176 0.00328643346661 0.000860244762427 -0.00059637486962 -0.0330701828619 -0.0974462470884
21938120 0.177493234619 0.224316839723 0.00536946401402 0.00328643368419 0.000849556986366 -0.000592153278786 -0.033164612694 -0.0976204286972
21970900 0.177869218887 0.224369641203 0.005380782553 0.00330317120854 0.000847878853858 -0.000588317927056 -0.0332657613171 -0.0978138627179
22003680 0.178283371358 0.224442291477 0.00536737272672 0.00331033030708 0.000867098589883 -0.000593949819538 -0.0334312201438 -0.0980245453718
22036460 0.178618242265 0.224567275627 0.00539284060245 0.00331982490098 0.000841433721324 -0.000580045211267 -0.0334497418847 -0.0981800092274
22069240 0.178896422156 0.224601982453 0.00539947590902 0.00332442779425 0.000843900356836 -0.000576528198676 -0.0335746878745 -0.0982932615586
22102020 0.179234579552 0.224734542828 0.00543149329761 0.00332122941697 0.000835143816118 -0.000594349221495 -0.0336512911219 -0.0984753499554
22134800 0.179471857253 0.224774499235 0.00542201562308 0.00331460680597 0.000848879811909 -0.000588298391848 -0.0337456114275 -0.0985953506472
22167580 0.179773249049 0.224881605376 0.00540281270689 0.00333330068478 0.000864508354048 -0.00059248622506 -0.0338398255494 -0.0986398595014
22200360 0.18001149893 0.224908209592 0.005407833984 0.0033232881842 0.000852699222559 -0.000593532393978 -0.0339915549775 -0.0988259931658
22233140 0.180321003559 0.225074598504 0.00541900850632 0.00333118605474 0.000829559126436 -0.00057623623457 -0.0341046782259 -0.099034011457
22265920 0.180657646446 0.225121816297 0.00542198911868 0.00332000609292 0.000857122779234 -0.000587089567075 -0.0341981290895 -0.0991114051981
22298700 0.181068326691 0.225189035119 0.00543785007583 0.00332143822775 0.000837926430482 -0.000586584684072 -0.034336636191 -0.0993868240355
22331480 0.18139467856 0.225259738758 0.00544425233359 0.00332210830996 0.000846280165558 -0.000589590357597 -0.0344463118714 -0.0995940897235
22364260 0.181753246568 0.22523163077 0.00544125852677 0.00332099193688 0.000825402844558 -0.000557116210876 -0.0345411213265 -0.099737459313
22397040 0.182092230747 0.225312248425 0.00542469593834 0.00331577894826 0.000827466905449 -0.000556565839407 -0.0346345452739 -0.0999273826411
22429820 0.182476286729 0.225386978541 0.00544622368212 0.00332345791191 0.000821977903877 -0.000569765862047 -0.0347348782523 -0.100109451527
22462600 0.18276003897 0.22545469287 0.00544949424735 0.00331895222397 0.000828031412973 -0.000539343372095 -0.0348676059437 -0.10028110471
22495380 0.183112937032 0.225483134359 0.00545419621315 0.00334515753426 0.000837582468494 -0.000545179851765 -0.0349643467803 -0.10047090342
22528160 0.183513975672 0.225661279752 0.00546318420507 0.00332544540265 0.000834527533452 -0.000568211878875 -0.0350396405246 -0.100666978335
22560940 0.183796641939 0.225732002361 0.00546161662775 0.00334627185404 0.000831965299557 -0.000571454268983 -0.0351593991876 -0.100833355866
22593720 0.184192172093 0.225743413953 0.00548050149975 0.00333197815746 0.000829416204251 -0.000559641569073 -0.0351956620787 -0.100986722645
22626500 0.184589532343 0.225796598547 0.0054792237231 0.00333256709113 0.000819936151269 -0.000565174266715 -0.0353121584615 -0.101147611117
22659280 0.184789004091 0.225894852298 0.00547419745137 0.00332261943214 0.000835529294407 -0.000556501957609 -0.035470134404 -0.10132349267
22692060 0.185081282309 0.226007561231 0.00549583562259 0.00333243093911 0.000825072055964 -0.0005620123698 -0.035589996759 -0.10153503581
22724840 0.185349393171 0.226010865625 0.00551764533096 0.00334668840206 0.000813250487856 -0.000542350506894 -0.0357106379058 -0.101652999293
22757620 0.185592839035 0.226079752424 0.0054990803547 0.00335373642119 0.000822429506625 -0.00054060030555 -0.035816036108 -0.101850109892
22790400 0.185972461142 0.226215615867 0.0055116139633 0.00334394196171 0.000815098213655 -0.000535404145808 -0.0359745904293 -0.102031334387
22823180 0.186180090523 0.226306017129 0.00553850138493 0.00335363240171 0.000826345477028 -0.000531051862677 -0.0360167364237 -0.102194689064
22855960 0.186574021876 0.226367867963 0.00554469894693 0.00334552810158 0.000820166532511 -0.00053956577999 -0.0361686727698 -0.102365784762
22888740 0.186935978157 0.226440371489 0.00552747655876 0.00333544807298 0.000830462208388 -0.000535935526817 -0.0363081231283 -0.102493882487
22921520 0.187268921566 0.226465955573 0.00555806324518 0.00335232440347 0.000826176338383 -0.000551328460299 -0.0363797937181 -0.102637367948
22954300 0.187581182108 0.226520294435 0.00555493944671 0.00333805671319 0.000826933466947 -0.0005296746113 -0.0365006691782 -0.10282370624
22987080 0.187986459001 0.22669936068 0.00555596944627 0.00334101460132 0.000820711637481 -0.00052155840674 -0.0366163137693 -0.102967571892
23019860 0.188314944339 0.226766658729 0.00556338128576 0.00335472365491 0.000832658966408 -0.000539505377029 -0.0367098786858 -0.103174078778
23052640 0.188703457758 0.226905679148 0.00558776597301 0.00334879383614 0.000810448463796 -0.000560665236877 -0.0368347623458 -0.103325645579
23085420 0.1890712781 0.227026179177 0.0056046069102 0.00336889583546 0.00084866731095 -0.000551832650356 -0.0370286217602 -0.103514376145
23118200 0.189508574068 0.227119710178 0.00560396050938 0.00336443864826 0.00083869413548 -0.000540976066198 -0.0371759863059 -0.10370460698
23150980 0.189756154997 0.227155418987 0.00561621712575 0.00337417094492 0.000810064329635 -0.000522739481399 -0.037235107534 -0.103901655852
23183760 0.190148938713 0.227231395244 0.00561199686043 0.00337485303206 0.000819831196778 -0.000534888591762 -0.0373511191999 -0.104087980326
23216540 0.190543437088 0.227364760554 0.00564916562614 0.00335432778334 0.000791943595186 -0.000519954763938 -0.037446923734 -0.104216923856
23249320 0.190848898296 0.227447668042 0.0056404473419 0.00336881811822 0.0008203381532 -0.000531275699012 -0.0375430697788 -0.104426114177
23282100 0.191216571314 0.227561354438 0.00564168017919 0.00336621826705 0.000812971727528 -0.000528282404036 -0.0377018319665 -0.104607563736
23314880 0.191538807548 0.22766798785 0.00567102410243 0.00335370133577 0.000813895754503 -0.000521030686747 -0.0378162075071 -0.10475305618
23347660 0.19186937666 0.227765437917 0.00568175765487 0.00336594313229 0.000831360168771 -0.000538473721319 -0.0379251364457 -0.104924251731
23380440 0.192332988315 0.227898668884 0.00569643903262 0.00333852144514 0.000836940926005 -0.000539938328785 -0.0380677357241 -0.10503941751
23413220 0.192649354341 0.227911248394 0.00568850904959 0.00335546818771 0.000823820909476 -0.000532541805788 -0.0381828507443 -0.105195048359
23446000 0.19283467835 0.228050915809 0.0057003078136 0.00335209967321 0.000804243203974 -0.000548462229123 -0.0383214423294 -0.105386486989
23478780 0.193315945349 0.228063493554 0.00570228603558 0.00336223504001 0.000807675688852 -0.000563044710825 -0.0384337162244 -0.105559324123
23511560 0.19361307406 0.228146121925 0.00570248430004 0.00336080930972 0.000830682155079 -0.00054129983763 -0.0384893920539 -0.105706659858
23544340 0.193830919119 0.228252051392 0.0057163001839 0.00335187395978 0.000814579111173 -0.000536800052488 -0.0386354726368 -0.105867478313
23577120 0.194260912246 0.228293724774 0.00573849138571 0.00333742045769 0.000821209743465 -0.000542097864154 -0.0387635605195 -0.106048018583
23609900 0.194576607401 0.228313187043 0.00572998058748 0.0033451216768 0.000798987620373 -0.000523910422966 -0.0388423896655 -0.106238664715
23642680 0.194919807074 0.228409581346 0.00573272454928 0.00332979213666 0.000803962729453 -0.000550801224028 -0.0389969516929 -0.106392895192
23675460 0.195255333658 0.228459837661 0.0057350104726 0.00331848093 0.000844583641483 -0.000507331051283 -0.0390890167209 -0.106561810068
23708240 0.195545446073 0.228524630469 0.00575045760869 0.00334905971292 0.000837658118067 -0.000521626690488 -0.0392208485166 -0.106733545049
23741020 0.196012620953 0.228705218933 0.00574063529314 0.00335444679751 0.000819072581011 -0.000547219303286 -0.0394139356403 -0.106919838791
23773800 0.19635385391 0.228826241676 0.00578028851018 0.0033497894527 0.000839782365431 -0.000509836354636 -0.0395320306989 -0.107028894344
23806580 0.196786834789 0.228911979251 0.00575661970627 0.00334443597706 0.000834425583227 -0.000532000343871 -0.0396744419305 -0.107227877074
23839360 0.197090761705 0.228952507689 0.00577609935596 0.00334980728048 0.000813538391211 -0.00052407604004 -0.0397431592575 -0.107405417316
23872140 0.197438652365 0.22906569117 0.0057768511955 0.0033196471982 0.000811598062244 -0.00053909493862 -0.0398786383445 -0.1075562569
23904920 0.197792410351 0.229104397625 0.00578463952866 0.00333310646011 0.000831376732874 -0.000515063556588 -0.0399672035176 -0.1077172778
23937700 0.198039940873 0.229074044026 0.00581933571639 0.00332755403909 0.000832388208654 -0.00053534895729 -0.0399464205956 -0.10787068626
23970480 0.198447836619 0.229173489964 0.00577370682226 0.00331178236257 0.000814137274439 -0.000517002863184 -0.0400837267869 -0.108011943784
24003260 0.198838834151 0.2292341548 0.00579267360654 0.00330610232851 0.000821139819349 -0.000547337258806 -0.0401914023746 -0.108185141951
24036040 0.19918226755 0.229325052284 0.0058201773074 0.00332581181009 0.000802939302002 -0.000535587248391 -0.0403848195611 -0.108339055527
24068820 0.199576359688 0.229405096877 0.00580647280257 0.00331542771312 0.000798933512909 -0.000537001822826 -0.0404791691551 -0.108516404647
24101600 0.199796745904 0.22943815298 0.00582634661055 0.00328942604421 0.000829725701761 -0.000520051356081 -0.0405889067245 -0.108637134173
24134380 0.200290699268 0.229573731633 0.00582581460302 0.00329693466314 0.000817010750201 -0.00054160705955 -0.0408126965862 -0.108873617058
24167160 0.200563412958 0.229570879235 0.00584043499336 0.00332728335295 0.000812639121345 -0.000521020196963 -0.0408973645759 -0.109005923361
24199940 0.201011694571 0.229744668047 0.005828643111 0.00328130900693 0.000813675952551 -0.000534723301116 -0.0410289483618 -0.10920183825
24232720 0.2013964541 0.229831390961 0.00585963894864 0.00332576631244 0.000841984053813 -0.0004997213685 -0.0411237695624 -0.109305809144
24265500 0.201823807681 0.229870485113 0.00584253591537 0.00329093032015 0.000821962784354 -0.000523629187411 -0.0412205264015 -0.109519181076
24298280 0.202077393496 0.230020880353 0.00586939429108 0.00330750287556 0.000776045091743 -0.00052572095711 -0.0413007879744 -0.109620680984
24331060 0.202445810987 0.230119754937 0.00587423231616 0.00332562627874 0.000790588660689 -0.000541531068717 -0.0414028921427 -0.109806464487
24363840 0.202850161341 0.230172997722 0.00585604456929 0.00332002393455 0.000813727012742 -0.000523637795962 -0.0414942871061 -0.109914992107
24396620 0.203184884691 0.230240864366 0.00586624427875 0.00330088098773 0.000785375889823 -0.000544279138683 -0.0416244371647 -0.110082627644
24429400 0.203566597573 0.230239390541 0.00587898750918 0.00330855900181 0.000818333007868 -0.000548004657439 -0.0416888560339 -0.110265407634
24462180 0.203983439531 0.230353548082 0.00588067262123 0.00331671967144 0.000780845012602 -0.000529891055044 -0.0418009309339 -0.110504943471
24494960 0.204292623003 0.230337281888 0.00586632871421 0.00330619238228 0.000812282270563 -0.000541263425878 -0.0419524958981 -0.110609603079
24527740 0.204672921669 0.230391577007 0.00587572954481 0.0032991924778 0.000807994878612 -0.000522380269419 -0.0419918447837 -0.110812641021
24560520 0.205001752358 0.230466475799 0.00590689920763 0.00328078534652 0.000785949645264 -0.000526920847878 -0.0422061969846 -0.110982471918
24593300 0.205352429918 0.230510440222 0.0059019627709 0.00329737220706 0.000784214737389 -0.000551282070761 -0.042320199195 -0.111142913549
24626080 0.205773051087 0.230593273764 0.00591708296425 0.0032981846925 0.000785581654563 -0.000533062714793 -0.0424463670735 -0.111283664115
24658860 0.206055813245 0.230620026712 0.00591641026712 0.00329423605625 0.000775931391451 -0.000543453632927 -0.0425690042479 -0.111462534649
24691640 0.206506918892 0.230652811219 0.0058991608126 0.00328461631153 0.0008043118424 -0.000526303428943 -0.042756502159 -0.111710771905
24724420 0.206880272961 0.230795674948 0.0059043399389 0.00325353305466 0.000754740057088 -0.000536452243372 -0.0428768451023 -0.11185438467
24757200 0.207342193138 0.230812175068 0.00593434089902 0.00327926185811 0.000802265022832 -0.000503291405716 -0.0429952442492 -0.112064605149
24789980 0.2076714439 0.230818855863 0.00594496865243 0.00327027364783 0.000808685083103 -0.000526185035663 -0.0431550170157 -0.112230724729
24822760 0.208051297782 0.230903061014 0.00592188742069 0.00327275063556 0.000788172820052 -0.000519892857529 -0.0432708159958 -0.112379589389
24855540 0.208377127748 0.230898818886 0.0059538955716 0.00326378735072 0.000796618781534 -0.000524782298164 -0.0433751500337 -0.112510920766
24888320 0.208737283989 0.230969302052 0.00596470406169 0.00325422568942 0.00076594847065 -0.000524350232881 -0.0434766909579 -0.112692511149
24921100 0.209007874939 0.231008084885 0.00595051847976 0.00326873550347 0.000778905088689 -0.00050185893959 -0.0436658362873 -0.112849122239
24953880 0.209444403091 0.231105901234 0.00597724571741 0.0032567682352 0.000771140347092 -0.000542138858042 -0.0437334058719 -0.112965414237
24986660 0.209800376763 0.231153305963 0.00595205847867 0.0032615494401 0.000787882761116 -0.000523511443249 -0.0438670230616 -0.113131218089
25019440 0.210105414588 0.231138612889 0.00593656030474 0.00328699277809 0.000797311766586 -0.000522931387473 -0.0439682275008 -0.113237112536
25052220 0.210449694019 0.231242770693 0.00596660028969 0.00324610436113 0.000766838183561 -0.00055664521735 -0.0441211900306 -0.113439351544
25085000 0.210789243758 0.23121623354 0.00596034805826 0.00325551760597 0.0008107278548 -0.000521744651034 -0.0442768646132 -0.113622633584
25117780 0.21118703492 0.231235902329 0.00597184092665 0.00323987100119 0.000819131265206 -0.000513463450234 -0.0444036273211 -0.113737469139
25150560 0.21143449901 0.231238601418 0.00596595181716 0.00324560122597 0.000825052487833 -0.000530500791622 -0.0445396695788 -0.113892256203
25183340 0.21188299095 0.231295960823 0.00598832891041 0.00324085346298 0.000760568529649 -0.000527577374344 -0.0446067649009 -0.114100009242
25216120 0.212290627508 0.231315068181 0.00598061179795 0.00325305014864 0.000792765861039 -0.000524323132062 -0.0447740324291 -0.114251498377
25248900 0.212632411585 0.23133444878 0.0059867287559 0.00326093861793 0.000780743236696 -0.000499500470679 -0.0449420606194 -0.114408442141
25281680 0.213043654035 0.23147558638 0.00597817251931 0.00323404651561 0.000754977259131 -0.00052852509441 -0.0450479395492 -0.114599580869
25314460 0.213518064417 0.231453193486 0.0060045254329 0.0032641376141 0.000728330020049 -0.000521503876553 -0.0452061115709 -0.114780952734
25347240 0.213862506902 0.231534038674 0.0059920862055 0.00325266416254 0.000771883504328 -0.000524086266807 -0.0452568545694 -0.114873590089
25380020 0.214324556287 0.231651389463 0.00601429695221 0.00324582125939 0.000733578986526 -0.000498596942999 -0.0454443042982 -0.115051340133
25412800 0.214689894719 0.231651196744 0.00603714464375 0.0032737322164 0.000736358310936 -0.000522256209214 -0.0455121451469 -0.115159212931
25445580 0.215085139681 0.231646464468 0.00599530100431 0.00325076824674 0.000771196981535 -0.000506655580155 -0.0455865856393 -0.11535128333
25478360 0.215408809788 0.231643587336 0.00600338628386 0.00325196156367 0.0007829297369 -0.000520951928458 -0.045705524244 -0.115516538749
25511140 0.215795830736 0.231640784533 0.00601450758831 0.00322381560726 0.000768670563745 -0.000512142666073 -0.0457882874877 -0.11567633812
25543920 0.216217305368 0.231725058011 0.00603213450258 0.00322906567807 0.000786017562495 -0.000522324354104 -0.0458492787353 -0.115847194111
25576700 0.216531677824 0.231675432253 0.00602823301058 0.00324940484298 0.000790612879675 -0.000502686410995 -0.0459989104841 -0.115964268314
25609480 0.216940089784 0.231775774632 0.0060286370617 0.00323248015055 0.000750141669328 -0.000506213384689 -0.0461017381313 -0.116172689743
25642260 0.217265890814 0.231743502885 0.00603472503155 0.00324566667639 0.000752965880673 -0.000513579293154 -0.0462586372155 -0.116358089624
25675040 0.217625338659 0.23178578371 0.00605981028325 0.00322745553517 0.000766359117522 -0.000520986846657 -0.0464015899095 -0.116523129137
25707820 0.217942350337 0.23181141927 0.00605422298736 0.00325611067336 0.000751899116257 -0.000513936616233 -0.046549970351 -0.116660821965
25740600 0.218288963094 0.231788052971 0.00603344418822 0.00324970476023 0.00073694979177 -0.000530050300312 -0.0466390725597 -0.116750212222
25773380 0.218647905564 0.231821201725 0.00605633776868 0.00323280817863 0.000752080257111 -0.000520299385428 -0.0468158523664 -0.117020112346
25806160 0.218971887392 0.231819509759 0.00605339566018 0.00322619749955 0.000762181602746 -0.000508334254283 -0.0470110366566 -0.117166758933
25838940 0.219297507092 0.231863656821 0.00607325211722 0.00321976665814 0.00075497790696 -0.000526161931932 -0.0470743374051 -0.117263605567
25871720 0.219613165239 0.231870577126 0.00607300112192 0.00322275748816 0.000728516931232 -0.000503727827681 -0.0472554897558 -0.117393098707
25904500 0.219952646172 0.231914079217 0.0060774602272 0.00323498044729 0.000725226162524 -0.000494305590195 -0.0474583034384 -0.117586987132
25937280 0.220289059853 0.231935489861 0.00608232716461 0.00322291329677 0.000719732989692 -0.000529121361078 -0.0475351534521 -0.117679718953
25970060 0.220634289056 0.231975166484 0.00609577855035 0.00323315335613 0.000733046532504 -0.000497086579452 -0.0477572496053 -0.117849926402
26002840 0.221039723241 0.232011278189 0.00607279716711 0.00323517760617 0.000728595083395 -0.00049871428454 -0.0478304882986 -0.118074445893
26035620 0.221422961778 0.232044172036 0.00609450129931 0.00323056173169 0.000727586081095 -0.000513087486094 -0.0478781502261 -0.118188699833
26068400 0.221827109395 0.232060682664 0.00606328704821 0.00322794107298 0.000747214468226 -0.000497705343434 -0.0480538507524 -0.118361943512
26101180 0.222270482332 0.232050057905 0.00607844769699 0.00323132881263 0.000705125915046 -0.000520148766661 -0.0481068619937 -0.118559158677
26133960 0.222616222321 0.232046040032 0.00610600610098 0.00322755403548 0.000728741771606 -0.000511229417976 -0.048284863124 -0.118728621431
26166740 0.223038812382 0.23205410023 0.00610934948726 0.00323626848512 0.0007564733127 -0.000480260358016 -0.0483076923069 -0.118870583901
26199520 0.223376747263 0.232008595339 0.00609385306567 0.00321444248379 0.000726841974853 -0.000498847021228 -0.0484466487314 -0.119038684347
26232300 0.223744021413 0.232036032481 0.00614383625343 0.00321856803573 0.000719927542307 -0.000489028387039 -0.0485699370795 -0.119202086841
26265080 0.224046431853 0.232002895398 0.00613265156085 0.00324627403291 0.0007444019719 -0.000507847375039 -0.0487002129594 -0.119411919149
26297860 0.224457677517 0.232078156618 0.00613572337619 0.00321728693863 0.000722270357145 -0.000497914454124 -0.0488449766486 -0.119534612025
26330640 0.224796300638 0.232125230748 0.00614172785893 0.00322379161946 0.000711077926347 -0.000497817629125 -0.048985952501 -0.119709471307
26363420 0.225199014927 0.232148812535 0.00613276114711 0.00321943407514 0.000706822622559 -0.000512624519529 -0.0491227552887 -0.11987686654
26396200 0.225577434325 0.232141579619 0.00612921611553 0.00323770281778 0.000706310332996 -0.000496160646207 -0.0492329085136 -0.119982317152
26428980 0.225915271032 0.232180251018 0.00613039685261 0.00322040938554 0.000733217060774 -0.000511351542973 -0.0493764908786 -0.120161858561
26461760 0.226145262849 0.232076930864 0.00616300105112 0.00322021110544 0.000719794112685 -0.000498930866378 -0.0495100939338 -0.120325926645
26494540 0.226541701981 0.232123133021 0.00616878334495 0.00320541704764 0.000718825891094 -0.000479875827622 -0.0496353760648 -0.120451993804
26527320 0.226784734302 0.232145872955 0.00614020976555 0.00322812145848 0.00072347275104 -0.000484262057047 -0.0497607771656 -0.120608473902
26560100 0.227098305668 0.232179008862 0.00616642943047 0.00321389642508 0.000701223385699 -0.000463045399879 -0.0499297298796 -0.120734556806
26592880 0.227432639421 0.23219775129 0.00613948879951 0.00323924088032 0.000721899392148 -0.000494988714409 -0.0500443478698 -0.120866666883
26625660 0.227794091342 0.232219156316 0.00617079258217 0.00320260956527 0.000692046364065 -0.000499216781351 -0.050208021997 -0.121039071286
26658440 0.228253561317 0.232278850927 0.00615958609975 0.00321006393921 0.000707718768475 -0.000487052833981 -0.0503630097491 -0.121182185038
26691220 0.228568325415 0.232293384104 0.00617370022479 0.00321668104113 0.000726536078242 -0.000528553791864 -0.0505023567114 -0.12133408089
26724000 0.228961928822 0.232370057032 0.00618135094308 0.00320861499797 0.000716355384378 -0.000508956811066 -0.0506376096473 -0.121453543578
26756780 0.229263736708 0.232302060351 0.00617491674204 0.00323397634371 0.000706170048901 -0.000516149323858 -0.0507661099599 -0.121598118746
26789560 0.229548811906 0.232245373272 0.00616641008039 0.00323704655972 0.000681975586555 -0.000483205514709 -0.0509150473796 -0.121738145337
26822340 0.230045193155 0.232279678355 0.00619006381217 0.00321666551067 0.000672067466742 -0.000475226460571 -0.0510709734288 -0.121968431106
26855120 0.233457172936 0.23152480868 0.00617780403331 0.00323571175415 0.000783453428162 -0.000488891987414 -0.0529544935196 -0.122994440417
26887900 0.233727112785 0.230722144184 0.00615251529404 0.00320968391792 0.000754248690425 -0.000505804377895 -0.0530903274167 -0.12254618126
26920680 0.234026500369 0.230648619499 0.00618252491582 0.00322444115483 0.000739011386048 -0.000505027479083 -0.0532366298489 -0.122692285221
26953460 0.234420807484 0.230654591117 0.0061522060273 0.00320492930689 0.00076138754896 -0.00050400722356 -0.0533549453006 -0.122866605001
26986240 0.234798437239 0.230649633187 0.00616683123425 0.00320737258841 0.000759057367019 -0.000500088203941 -0.0534899567764 -0.123047896405
27019020 0.235073284295 0.230656882498 0.00616681641816 0.00321641997994 0.000742282945419 -0.000484523058788 -0.0536381297879 -0.123206460235
27051800 0.235377742189 0.23066174862 0.00621392331682 0.00319995322465 0.000747102732953 -0.000482215640483 -0.0537908971241 -0.123367047302
27084580 0.235778930715 0.230648129898 0.00617372089569 0.00318485683616 0.000735274027553 -0.000484197019418 -0.0539654815011 -0.123569192278
27117360 0.236082152195 0.2306358134 0.0061983106077 0.00320286679992 0.000747716874244 -0.000493885258207 -0.0541629606767 -0.123709293857
27150140 0.236379962704 0.230625355729 0.00618313373603 0.00320560995582 0.00075412298052 -0.000491266695946 -0.0542490309367 -0.123896724838
27182920 0.236802509829 0.230683678425 0.00621404435539 0.00319596130776 0.000735384329872 -0.000503200085548 -0.0544059727805 -0.124001055103
27215700 0.237066351921 0.230781158528 0.00620343475765 0.0032016967806 0.000731895822716 -0.000469998046646 -0.0544997418838 -0.124163117795
27248480 0.237461076072 0.230796776096 0.00621961632853 0.00317744126925 0.000741129428013 -0.000491229960793 -0.0546146954613 -0.124295396011
27281260 0.235617700063 0.23215849921 0.0062265867935 0.00323936603196 0.000747039120411 -0.000479934366842 -0.0547579640095 -0.124348637499
27314040 0.235978883162 0.232236132178 0.00621369799133 0.0032167543736 0.000780489681758 -0.000467594206278 -0.0549000906432 -0.124548072149
27346820 0.236339723268 0.232292214892 0.00619266354234 0.0032231080174 0.000739977517717 -0.00048177936867 -0.055032019296 -0.124705090517
27379600 0.236735403338 0.232329549005 0.00621897131076 0.00321754472675 0.000749783349194 -0.000478053733365 -0.0551321957575 -0.124805676324
27412380 0.237050475036 0.23226402952 0.00620181693472 0.00325255866349 0.00074798329315 -0.000472826174625 -0.0552994911497 -0.124937237341
27445160 0.237422634033 0.23224246394 0.00621883915886 0.00320428282117 0.000762146515687 -0.00047949726482 -0.0553847204617 -0.125061923823
27477940 0.237740380374 0.232206624109 0.00624872209455 0.00320080793872 0.000722498895829 -0.00046390095721 -0.0555165342335 -0.125217554676
27510720 0.238075034782 0.232112297849 0.00625966230278 0.00321058323055 0.000717068070934 -0.000486587189744 -0.0556710868561 -0.125485895819
27543500 0.238432195978 0.232130135959 0.00623367444257 0.00320757919245 0.000740598886596 -0.000469658492286 -0.0558139214332 -0.125548384023
27576280 0.238761029417 0.232115579337 0.00624561583718 0.00322120523092 0.000717426616961 -0.000464693339189 -0.0559291504404 -0.12570497888
27609060 0.239162639155 0.232085744142 0.00624193064054 0.00322087001412 0.000735485880294 -0.000484237020696 -0.0560779537379 -0.125853663369
27641840 0.239410716571 0.23207807525 0.00623566564737 0.00320838866398 0.000727994614047 -0.000457098311945 -0.0563288984153 -0.126099890727
27674620 0.239812279428 0.232045502661 0.0062563283539 0.00320428873448 0.000730730810969 -0.000473581074337 -0.056439663659 -0.126279647192
27707400 0.24009346921 0.232001702452 0.00628498126432 0.00321741590655 0.000740710606234 -0.000464081625277 -0.0566561759962 -0.126450325855
27740180 0.240537744725 0.232089880429 0.00627000114538 0.00321194873841 0.000722519712662 -0.000473499864885 -0.0568994165548 -0.126658066017
27772960 0.240812280711 0.23203119394 0.00628937088027 0.00321680723271 0.000738186396022 -0.000467368231577 -0.057031137357 -0.126784119181
27805740 0.241097321627 0.232008907932 0.00630338506478 0.00320357164608 0.000696739232372 -0.000488270654095 -0.0571213794088 -0.126901115189
27838520 0.241536987172 0.231953932295 0.00627085916034 0.00322727538756 0.000728127511561 -0.000482411097596 -0.0572854077719 -0.127029093965
27871300 0.241758504209 0.231973394214 0.00627582469324 0.00321546896186 0.00072941058909 -0.000482973334585 -0.0574432880221 -0.127196119094
27904080 0.242138001144 0.232031699827 0.00630519307215 0.00319989539188 0.000730383074347 -0.000467910024379 -0.0575599974697 -0.127292545515
27936860 0.242496781282 0.231948391116 0.00626996783797 0.00322357147406 0.000711459664449 -0.000468882977403 -0.0576714889947 -0.127376652042
27969640 0.242872387713 0.231997775196 0.0062873041376 0.00321206569779 0.000713996894513 -0.00045610613759 -0.057779992775 -0.127537219956
28002420 0.243127838205 0.232007968716 0.00632851114355 0.00320786020206 0.000697008796526 -0.000460547883642 -0.0578915643728 -0.127667525118
28035200 0.243529734453 0.23192145741 0.00631572792266 0.0032173877676 0.000699385648568 -0.000469796507287 -0.0580079777419 -0.127800597533
28067980 0.243859538811 0.231953715716 0.00632990358073 0.00320837259591 0.00070768975611 -0.000468996544406 -0.0581268299545 -0.128036907518
28100760 0.244204440146 0.231964500342 0.00630208706896 0.00320788362526 0.000700018910473 -0.000466560608118 -0.0583688278937 -0.128188336883
28133540 0.244608536209 0.231906695247 0.00632502737525 0.00320956513425 0.000708201441518 -0.000454206581834 -0.0584119605114 -0.128316207475
28166320 0.24491928255 0.231890591753 0.00633364499234 0.00321134591196 0.000720564049493 -0.000484053274043 -0.0586086951096 -0.12849691094
28199100 0.245237659581 0.231833683302 0.0063109686501 0.003208892915 0.000721755117123 -0.000457147451172 -0.0587761158671 -0.12863312285
28231880 0.245731179853 0.23185408849 0.00635688222024 0.00320569768356 0.000687182315542 -0.000503916892832 -0.0588432660233 -0.128747339362
28264660 0.245993688678 0.231864419622 0.00635098608 0.00320265648982 0.000709611184275 -0.000447329302834 -0.0589383918108 -0.128839518021
28297440 0.246389109786 0.231803020934 0.00633301011758 0.00318529610199 0.000728183413255 -0.000447518530398 -0.0591010368493 -0.129010886754
28330220 0.246707050685 0.23178601126 0.00634900374133 0.00320035066131 0.000713877867536 -0.000450739235985 -0.0592300545033 -0.129166472584
28363000 0.247082874257 0.231810813388 0.00634018667209 0.00320635277356 0.000717006520677 -0.00046247133697 -0.0593531377582 -0.129297818556
28395780 0.247409041201 0.231770907927 0.00634747140679 0.00320861062327 0.000691896096998 -0.000467296149073 -0.0595331659025 -0.129406376284
28428560 0.247708700215 0.23181689296 0.00634822560568 0.00318800557702 0.000685770743222 -0.000461527200008 -0.0596175356654 -0.129600380535
28461340 0.24801793591 0.231756029475 0.00637468508099 0.00322072132391 0.000699261035344 -0.000443750411504 -0.0598629250592 -0.129766183081
28494120 0.248290705805 0.231790933078 0.00639211173121 0.00319536675866 0.000692652335201 -0.000463154831125 -0.0599891089545 -0.129886610626
28526900 0.24867308278 0.231789024139 0.00636725481545 0.00320756568228 0.000711131176944 -0.000457494378205 -0.0601307822544 -0.130065716175
28559680 0.248995211011 0.231744705595 0.00639930749083 0.00317972428236 0.000689160521157 -0.000449354337744 -0.0602976526661 -0.130229341805
28592460 0.249361655587 0.23173621144 0.00636771625017 0.00320934211947 0.000708641946489 -0.000449652173228 -0.0604661960438 -0.130397312754
28625240 0.249689894865 0.231734608301 0.00639131350191 0.00319631072802 0.000706106866045 -0.000434118347453 -0.0606319101174 -0.130438276473
28658020 0.250026488262 0.231668256307 0.00639275490338 0.00320585097488 0.000671526591046 -0.000462675888241 -0.0607564355649 -0.130654287325
28690800 0.250372997231 0.231550947036 0.00639540952317 0.00320013699354 0.000689714653398 -0.000439120979128 -0.0609248737522 -0.130779538494
28723580 0.25068512354 0.231553844758 0.00639445010812 0.00320746368587 0.000703926308539 -0.000444773698133 -0.0610689467395 -0.130893680136
28756360 0.251091374176 0.231448441036 0.00639274353166 0.00318687372797 0.000671916798423 -0.000463943115496 -0.0612330029368 -0.131077288846
28789140 0.251359974223 0.231460097246 0.00640287827124 0.00318923337351 0.000697412291489 -0.000450302868363 -0.0613600639318 -0.131267660837
28821920 0.251816293815 0.231476566988 0.00640260983865 0.00316816695116 0.00070240684041 -0.00043720140572 -0.0615581555315 -0.131372243537
28854700 0.252150496787 0.231442762291 0.00640486127185 0.00318096408824 0.000698936365548 -0.00042877633513 -0.0616848354549 -0.131583429113
28887480 0.252430770661 0.231457205437 0.00641472579753 0.00319148833205 0.000703290603493 -0.000462982911745 -0.061843769955 -0.131660618996
28920260 0.252791707921 0.23139656152 0.00642846500727 0.00319646095909 0.000691779146628 -0.000433920230343 -0.061926688563 -0.13183304707
28953040 0.253138817262 0.231471420313 0.00642550613716 0.00319138763475 0.000727596449467 -0.000442260973934 -0.0620610004398 -0.13202044361
28985820 0.253484610495 0.231359034589 0.00643986523357 0.00318537806547 0.000711279007505 -0.000438449054112 -0.0622270429183 -0.132141351491
29018600 0.253832707425 0.231346881642 0.00643426248629 0.00319007909547 0.000694626613961 -0.000443432403166 -0.0623312949799 -0.132332832953
29051380 0.254180577125 0.231290462677 0.00644632125717 0.00320270493939 0.000704635105566 -0.000433981792599 -0.0624842411915 -0.132514401129
29084160 0.254431325961 0.231249894813 0.00642594887581 0.00319695269933 0.000696524307912 -0.000436087931514 -0.0625739224596 -0.132566286602
29116940 0.25486600993 0.231132237229 0.00645355699462 0.00319819352988 0.000688492103457 -0.000437431702624 -0.0627063706169 -0.132746012734
29149720 0.25516485607 0.231212575302 0.00647663782221 0.00320004875024 0.000666847293228 -0.00042458676177 -0.0629383919704 -0.132877210236
29182500 0.25546545085 0.231076352731 0.00645176458045 0.0031921017858 0.00068601991541 -0.000405293675351 -0.0630415657107 -0.133095315854
29215280 0.255849216963 0.231076315602 0.00645882354277 0.0031931844673 0.000689217539583 -0.000443867216806 -0.0632551545461 -0.133247757855
29248060 0.256161368767 0.231097618827 0.006459139619 0.00320083464623 0.000693072711173 -0.000438080639211 -0.0634249737184 -0.133430127656
29280840 0.256504364633 0.231052133812 0.0064569287569 0.00318761461488 0.000689103260441 -0.000443467626347 -0.0635869868051 -0.133584864713
29313620 0.256890973675 0.231037000861 0.00647090785265 0.00316676719483 0.000691004054639 -0.000450018403001 -0.0637298810389 -0.133753162991
29346400 0.257174094978 0.231003176212 0.00649208910168 0.00319903529974 0.000692331301963 -0.000419737605539 -0.0638952826371 -0.133936740404
29379180 0.257489702184 0.230965390748 0.00650127901873 0.00321025501628 0.000663949218279 -0.000422000028287 -0.0640493218969 -0.134050543159
29411960 0.257863222594 0.230910678245 0.00650628786427 0.00316114509613 0.000665332630272 -0.000428586680782 -0.0641783184662 -0.134134175886
29444740 0.258162272968 0.230848368953 0.00649304817173 0.003198780819 0.000673948310546 -0.000435497737192 -0.0642898192423 -0.134266548016
29477520 0.25850647748 0.230844573378 0.00649415354591 0.00317151233531 0.000669581646968 -0.000440327065168 -0.0644227032559 -0.134396464955
29510300 0.258795630803 0.230802849662 0.00649469123861 0.00319613934397 0.000676414057087 -0.000432772529443 -0.0645030917389 -0.134557266628
29543080 0.259190658726 0.23087178073 0.00649123969351 0.00319906009007 0.000677089255273 -0.000382925463983 -0.0644146216585 -0.134710990367
29575860 0.259387369198 0.230608490953 0.00649518146238 0.00319165448403 0.00069903605792 -0.000425561305903 -0.064813236554 -0.134826118513
29608640 0.259748484829 0.230635888947 0.00650296772825 0.00318777575614 0.000675038528085 -0.000454092195248 -0.064982018491 -0.135006131858
29641420 0.260131734734 0.230630555834 0.00651711154271 0.00318427373292 0.000661143217722 -0.000431366422819 -0.0651909310467 -0.135166135863
29674200 0.260434658827 0.230555805533 0.00651676788614 0.00318979343931 0.000656334751885 -0.000428955352404 -0.0653481411645 -0.135361990857
29706980 0.260781251347 0.230414713241 0.00651730952724 0.00317026413414 0.000644980297866 -0.000429771899286 -0.0655415603379 -0.135421543652
29739760 0.261113964475 0.230418715417 0.00654040530952 0.00318718570521 0.000653755249838 -0.000417258723852 -0.065721713005 -0.135599321563
29772540 0.261451344531 0.23036496571 0.00653257539002 0.00318569289173 0.000688224763169 -0.000419819872043 -0.0658505174354 -0.135755821861
29805320 0.261770252683 0.23034529959 0.00653708811688 0.00320532228059 0.00068089042349 -0.000415788690195 -0.0659699503604 -0.135880609233
29838100 0.262127299742 0.230329794766 0.00654325272665 0.00319747659812 0.00066567418469 -0.000439531946312 -0.0661199628467 -0.135968002243
29870880 0.262500232955 0.230272300437 0.00652578304492 0.00319717469027 0.000664567912576 -0.000418629002544 -0.0662218406151 -0.1361122237
29903660 0.262819222469 0.230271639747 0.0065339494603 0.00319140307587 0.000684102942059 -0.000429476027617 -0.0663914634947 -0.136195237184
29936440 0.263147275538 0.230254897935 0.00655503615627 0.00317031604301 0.000648155496987 -0.000423227425118 -0.0664174726547 -0.136296291834
29969220 0.26344845551 0.230197923592 0.00654562679501 0.00317875197107 0.000663052403065 -0.000420923962649 -0.06659611342 -0.136516699775
30002000 0.263797577384 0.230168617222 0.00656538881234 0.00319150148514 0.000650174190115 -0.000431751324661 -0.0668355129346 -0.136586344328
30034780 0.264211346379 0.230091630247 0.00656473624017 0.00318338586077 0.000650007893506 -0.000427491636052 -0.0669366319862 -0.136805478885
30067560 0.264563712563 0.230021792834 0.00656767071563 0.00318150016823 0.000636522876797 -0.000427832173447 -0.067134215633 -0.136922745591
30100340 0.26493740442 0.229980312099 0.00657773547018 0.00315887092844 0.000650755240408 -0.000415176689465 -0.0673175803494 -0.137080335596
30133120 0.265220472852 0.229958203165 0.00659885116568 0.00316901972546 0.000672387591781 -0.000423119636063 -0.0675022816322 -0.137189383868
30165900 0.265601992303 0.229901313169 0.00660864907055 0.0031679450612 0.00063591063199 -0.000419615447118 -0.0675525147837 -0.137310180551
30198680 0.265793731183 0.22977111467 0.00661269790298 0.00316564495603 0.000634346258534 -0.000410784331987 -0.067716062277 -0.137448458945
30231460 0.266164461326 0.229786471753 0.00657545350126 0.00317871430695 0.000648115311944 -0.000423404311419 -0.0678654861167 -0.137535985996
30264240 0.266491853085 0.229757973292 0.00658676004255 0.00317990601999 0.000655923702203 -0.000435837558486 -0.0679960166768 -0.137690199278
30297020 0.266826661633 0.229648492816 0.00655573901097 0.00317356482349 0.000657457964491 -0.00041966008018 -0.0681330578637 -0.137766489281
30329800 0.267082462311 0.229613346242 0.00659843243407 0.00316484519642 0.000668222934162 -0.000419907174052 -0.0682657602129 -0.137988147497
30362580 0.267412547692 0.229534125057 0.00661296008224 0.00316228852616 0.000635033024054 -0.000425653167744 -0.0684123070821 -0.138129549032
30395360 0.267738028072 0.229475793775 0.00662880220319 0.00315862332362 0.000629202522845 -0.000413183922875 -0.0685643730516 -0.138308864571
30428140 0.268086605302 0.229405334773 0.00662896914562 0.00315888820626 0.00064389394396 -0.000424056016353 -0.0687588326499 -0.138436864729
30460920 0.268361499475 0.229318671665 0.00660290249116 0.00313911526009 0.000636132299246 -0.0004175882902 -0.0688922838871 -0.138560468548
30493700 0.268625961677 0.229259874109 0.0066017377642 0.00315239616293 0.000648761297593 -0.00042116187632 -0.0691246321559 -0.138739620072
30526480 0.268976606839 0.22922759796 0.00661638215486 0.00316346895947 0.000656856644601 -0.000417415700056 -0.0692775549065 -0.138854231855
30559260 0.269309194274 0.229170134183 0.00660878956143 0.00317292436139 0.000658890484935 -0.000408527137865 -0.0693927284498 -0.139004097456
30592040 0.269675994695 0.229154160871 0.00661595344493 0.00315799114539 0.000642651255675 -0.000421027523611 -0.069618038344 -0.139186007922
30624820 0.270080639303 0.229191876208 0.00664575339523 0.00317291706411 0.000642986504028 -0.000424025650034 -0.0697158549249 -0.13934685627
30657600 0.270239095367 0.228935835951 0.00662793942134 0.00318534065087 0.000659524401798 -0.000434032171157 -0.0699263136003 -0.139463624551
30690380 0.270628218019 0.22894641557 0.00664222941488 0.003149765044 0.000640245551165 -0.00039752737992 -0.0700713775241 -0.139562262305
30723160 0.27100044636 0.22899056385 0.00664224079412 0.00317261240413 0.00063692652395 -0.000393697899329 -0.070158079694 -0.139703544622
30755940 0.271310685754 0.228923828714 0.0066399054569 0.0031697935475 0.000636654890992 -0.000419173869954 -0.0703294309011 -0.139845011924
30788720 0.271614526912 0.228799457395 0.0066584427785 0.00317212941161 0.00063050806725 -0.000410501207092 -0.0704604817427 -0.140020106319
30821500 0.271905677678 0.228715851573 0.00663311195088 0.0031676034232 0.00062441450348 -0.000404599656479 -0.0706058029964 -0.140164166926
30854280 0.272260977665 0.2286471945 0.00666788561189 0.00317142288866 0.000619084155555 -0.000409570099409 -0.0707313737047 -0.140303657294
30887060 0.272604053129 0.228478099057 0.00666362926592 0.00313828157539 0.000614280651972 -0.000403192436466 -0.0709026044338 -0.140418047479
30919840 0.272920279513 0.228432816264 0.0066743282254 0.0031485222064 0.000612537602749 -0.000395481076448 -0.071047569839 -0.140566701653
30952620 0.273271459865 0.22838503575 0.00669198598395 0.00316673372209 0.000625461128516 -0.000383148211438 -0.0712253666817 -0.140730783251
30985400 0.273523390411 0.228391218348 0.00667349312321 0.00318031655947 0.000609723692569 -0.000407864170594 -0.0713687296753 -0.140784581277
31018180 0.273917785043 0.228302919171 0.00667284925596 0.00315165888047 0.000641499732045 -0.000418332427152 -0.0715679589703 -0.140921407843
31050960 0.274163893828 0.22832750929 0.00665527444339 0.00315087141878 0.000624385444239 -0.000405801864987 -0.0717960469358 -0.141135004264
31083740 0.274488757041 0.22828899428 0.00670666383633 0.00316749162681 0.000622607601369 -0.000401538114097 -0.0718660575062 -0.141244750359
31116520 0.274802779427 0.228194799639 0.0066931317785 0.00317515877302 0.000624238174397 -0.000389324472485 -0.0720635209271 -0.141433767374
31149300 0.275028986111 0.228217604806 0.0067166715631 0.00315182802014 0.000625349894755 -0.000403494647272 -0.072256488975 -0.141512625694
31182080 0.275394170291 0.228136037797 0.00668994158928 0.00315993935188 0.000640132743595 -0.000403317167794 -0.0724003153199 -0.141660604505
31214860 0.275697418998 0.22803144156 0.00668995829777 0.00315535519603 0.000619139354924 -0.000382866984499 -0.0725798352634 -0.141724761552
31247640 0.276011912082 0.228028066516 0.00671642829938 0.00316085505001 0.000628534720699 -0.000399610400051 -0.0727065179108 -0.141821945434
31280420 0.27629823013 0.228019201805 0.00670576585067 0.00315256306207 0.000580598649009 -0.000396820468137 -0.0728753085628 -0.141926225448
31313200 0.27656418657 0.227911716103 0.00669922283465 0.00316728975081 0.000615005827564 -0.000421051639674 -0.0730676930398 -0.14203127449
31345980 0.276928573349 0.227860749821 0.00673425532986 0.00313811570412 0.000648982940957 -0.000403191879797 -0.0732145085354 -0.142219325502
31378760 0.277330346505 0.227811125193 0.00670885367165 0.00315560676527 0.00062989692455 -0.000404245054936 -0.0733624000595 -0.142369367621
31411540 0.277663696877 0.227737846886 0.00671109269484 0.00315445525869 0.000614017086103 -0.000402446861294 -0.0735100164932 -0.142474726198
31444320 0.277959173103 0.227631192684 0.006745881488 0.00312323033746 0.000630939578277 -0.000413359716558 -0.073670718234 -0.142710162108
31477100 0.278344605948 0.227584398906 0.00674317147469 0.00313835834959 0.000602447503605 -0.000389208217843 -0.0737564365222 -0.142812065046
31509880 0.278598373272 0.227488621109 0.00674502645782 0.00314696973696 0.000606084977768 -0.000387595562867 -0.0739869321429 -0.143010101441
31542660 0.278918363413 0.227448847229 0.00674759490154 0.0031443085071 0.000608609576217 -0.000402135422491 -0.0741462953945 -0.143182615538
31575440 0.279169764576 0.227327370623 0.00674338083631 0.00315308274146 0.000580840982022 -0.000388288265767 -0.0742447835248 -0.143282983146
31608220 0.279622195399 0.227311054767 0.00674120219873 0.00314606792844 0.000607746285487 -0.000386492182177 -0.0744660097286 -0.143400864563
31641000 0.279870558783 0.227192726408 0.00676300121683 0.0031300557507 0.000597583784868 -0.000363206938026 -0.0745909095374 -0.143534662051
31673780 0.28019463091 0.227122519554 0.00674202201539 0.0031257789665 0.000605539916403 -0.000406989357976 -0.0746834122299 -0.14364733172
31706560 0.280476794417 0.227060671857 0.00675604226933 0.00314168897296 0.00060276741276 -0.000391080666004 -0.0748682789429 -0.143788106217
31739340 0.280826417669 0.226954518155 0.00678087452509 0.00314092997585 0.0005945714064 -0.000388455917406 -0.0750170338842 -0.143955060376
31772120 0.281146356826 0.226919077562 0.00678370866522 0.00306763439073 0.000593503365652 -0.0003229729842 -0.0752026177933 -0.144120729209
31804900 0.281486640398 0.226837553898 0.00680612263366 0.00312961525991 0.000607562620094 -0.000391497540539 -0.075350438844 -0.144179519063
31837680 0.281780355071 0.226782837109 0.00680347513034 0.00308431292303 0.000625688863852 -0.000406947714579 -0.0755778821985 -0.144347112177
31870460 0.282105800103 0.22671687283 0.00675477751552 0.00314713276866 0.000611146467819 -0.000346146490748 -0.0757767060057 -0.14453473232
31903240 0.282489616753 0.226680222684 0.00676343949493 0.00313754177566 0.000667539697968 -0.000341691972812 -0.0758875586697 -0.144617561807
31936020 0.282754903883 0.226549886662 0.0067744933509 0.00313407231755 0.000665522977345 -0.000374648012321 -0.0760294440202 -0.144809226814
31968800 0.283094590002 0.226534451996 0.00681080886974 0.00317520460323 0.00056718569787 -0.0003968605548 -0.0762519766469 -0.144930547275
32001580 0.283417876646 0.226469075323 0.00679467853933 0.00312159631609 0.000587352071715 -0.000378719659436 -0.0763376469828 -0.145080173054
32034360 0.283571882358 0.226355613248 0.00681497755536 0.00311422345817 0.000603379520328 -0.000384326793162 -0.0765054032199 -0.145178931384
32067140 0.2838886387 0.226288704789 0.00680552841247 0.00314993794833 0.000580627378629 -0.000406226322014 -0.0766171241869 -0.145315807183
32099920 0.284177277664 0.226315293653 0.00679619590635 0.00311822587914 0.00057002277093 -0.000377585957521 -0.0767527968997 -0.145435606623
32132700 0.284589950854 0.226213972767 0.00680553308472 0.00312410580009 0.000617590851453 -0.000392608190041 -0.0768826241389 -0.145514075647
32165480 0.284801531598 0.226089750789 0.00682098944175 0.00311884588009 0.00057206753548 -0.000365018412431 -0.0770725527997 -0.145647526653
32198260 0.285169636969 0.22607268402 0.00680282099436 0.00311696617898 0.000567729061004 -0.000365625405347 -0.0772809519482 -0.145795088668
32231040 0.285541750864 0.225984763144 0.00680732903172 0.00310155944104 0.000590662958206 -0.000358988494347 -0.0774064189673 -0.145921835374
32263820 0.285896516546 0.225931584543 0.00683538468974 0.00311887250161 0.000578231809199 -0.000369963456062 -0.0775492979916 -0.146091136256
32296600 0.286231821808 0.225871811484 0.00682226504154 0.00314321878295 0.000585710911523 -0.00038124627801 -0.0777317839539 -0.146172302007
32329380 0.286603214698 0.22586159466 0.00682555263779 0.00311972970811 0.000545151529787 -0.000389152852112 -0.0779125376249 -0.146285542661
32362160 0.286898234329 0.225729770989 0.00683975074912 0.00312053149295 0.000567194193832 -0.000362490018318 -0.0781648419785 -0.146490715655
32394940 0.287114667357 0.225708492416 0.00683133184769 0.00313696102739 0.000581714725764 -0.000369703668017 -0.0783011831239 -0.146581287206
32427720 0.287448749569 0.225674339716 0.00685870570831 0.00314077011743 0.000604052778588 -0.000350816779429 -0.0785120381898 -0.146742685336
32460500 0.287876443738 0.225621415136 0.00684426583147 0.00313316159506 0.000596866985245 -0.000342075343201 -0.0786397216588 -0.1469017903
32493280 0.288066953562 0.225572975064 0.00684102896182 0.00314637261211 0.00058185720799 -0.000355769287748 -0.0789005634472 -0.146996744364
32526060 0.288387198054 0.225444984798 0.00686823060698 0.00311813192314 0.000581181964245 -0.000398202883788 -0.0789459651499 -0.147140306726
32558840 0.288633100055 0.225337662305 0.00688312408167 0.00310946942354 0.000584208421189 -0.000381563838555 -0.0791024265659 -0.147270693513
32591620 0.288912920604 0.22522181647 0.00686021706599 0.0031385773701 0.000600895116759 -0.000370079734234 -0.0793129229851 -0.147386638431
32624400 0.289086652998 0.225100673261 0.00685618463999 0.00310464383648 0.000565363416127 -0.000353662826928 -0.0794527217975 -0.147507921224
32657180 0.289373853938 0.225028883859 0.0068887287116 0.00313517723161 0.000606142518887 -0.000369735257021 -0.0796840011062 -0.147625361875
32689960 0.289688221588 0.224877723255 0.00687773540503 0.00311610358451 0.000593206254577 -0.000373961011751 -0.0798185842702 -0.147819513127
32722740 0.290016933284 0.224847684773 0.00687614883278 0.00311531044484 0.000601230799226 -0.00035728170289 -0.0800557235868 -0.147911818877
32755520 0.2902577523 0.224716573299 0.00687964267526 0.00310931533658 0.000578015201455 -0.000373984217474 -0.0801790485024 -0.14801492198
32788300 0.290644696582 0.224749455453 0.00689938701179 0.00311779112914 0.000582693936198 -0.000369786539747 -0.080368890926 -0.148147505908
32821080 0.290836223372 0.224590182233 0.00690658701704 0.00311096680088 0.000581125433508 -0.00034278002899 -0.0805708199247 -0.148271622126
32853860 0.291138984433 0.224609243496 0.00689674561499 0.00311759603781 0.000581723339013 -0.000333367149288 -0.0807955564846 -0.148376586914
32886640 0.291420938599 0.224508899701 0.00691834796152 0.00309390200725 0.000578426363337 -0.00035098088599 -0.0809609250972 -0.148513865124
32919420 0.291729169084 0.224426395037 0.00692163623919 0.00312982336904 0.000572317259273 -0.000332061920658 -0.0810873621487 -0.148693242512
32952200 0.29205930656 0.224359016622 0.00692060108003 0.00312339680256 0.000603085902038 -0.000327919140804 -0.0812927159261 -0.148784576009
32984980 0.292314887716 0.224315083417 0.00692917210267 0.00311022054223 0.000573978167896 -0.000337447506594 -0.0815073433523 -0.148949225327
33017760 0.292553689885 0.224206050627 0.00691506090876 0.0031116522214 0.000558407124509 -0.000345978291469 -0.0816409355636 -0.149107428366
33050540 0.292762724668 0.224173413203 0.00691333612928 0.00310644345137 0.000578708951524 -0.000356721787168 -0.0817694061014 -0.149219578441
33083320 0.293067047635 0.224110967167 0.00691097072761 0.00312130701869 0.000577811692859 -0.00036269115796 -0.081957295628 -0.149344115186
33116100 0.293391347755 0.224030875654 0.00691374962006 0.00310697118364 0.000548642155768 -0.000353938860686 -0.0820590268161 -0.149486271638
33148880 0.293718998032 0.223920394409 0.00691650848865 0.00311499090696 0.000549716794294 -0.000332646511586 -0.0822848169168 -0.149604739556
33181660 0.294083955123 0.223757049159 0.00693826985937 0.0031083679558 0.000582411768264 -0.000366650256253 -0.0824305245397 -0.149812269578
33214440 0.29433647873 0.223637568488 0.00695722408003 0.00311107081043 0.000549559465333 -0.000350626733582 -0.0826169510966 -0.149915420508
33247220 0.294641714829 0.223612244399 0.0069419863373 0.00311344942704 0.000581654655556 -0.000340758557148 -0.0828168153197 -0.150070605749
33280000 0.295014609156 0.223470769362 0.00694050268146 0.00308492397699 0.000536524024508 -0.000314579170892 -0.0828249206822 -0.150228987079
33312780 0.295365238337 0.223418590939 0.00694826601169 0.00308535320805 0.000538492013142 -0.000351288802834 -0.0830129752342 -0.150347800965
33345560 0.295702396831 0.223349527345 0.00694870368691 0.00311073113333 0.000574766184182 -0.000333844321638 -0.0831406467727 -0.150376215095
33378340 0.296029569244 0.223313503879 0.00694850381502 0.00309374313086 0.000534039802157 -0.000315701847727 -0.0833354413603 -0.150505231664
33411120 0.296293183882 0.223238864103 0.00694136921096 0.00306505691105 0.000529178889779 -0.000351654103646 -0.0835254683745 -0.150658230562
33443900 0.301542746251 0.220350799053 0.00697183346572 0.00309035012651 0.000577259104646 -0.000368511043553 -0.0835472858147 -0.151578670838
33476680 0.30152732262 0.219326676133 0.00696569579661 0.00308471461526 0.000569404738981 -0.000370126348791 -0.0838476144891 -0.150798326939
33509460 0.301872232254 0.219108421754 0.00697051456007 0.00307880688889 0.00057083212525 -0.000366158641125 -0.0840106949279 -0.151003996677
33542240 0.302010520171 0.219038443472 0.00697384975908 0.00310676173322 0.000602985321108 -0.000367370715604 -0.0842241789426 -0.151070719552
33575020 0.302229226821 0.218912330401 0.00698237486195 0.00308979248039 0.000617471560225 -0.000354917902323 -0.0843066067331 -0.151262197173
33607800 0.30262746497 0.218854927826 0.00697603402821 0.0030891414448 0.000586173958662 -0.000359228597546 -0.0845643854195 -0.151381280159
33640580 0.302988257941 0.218638814478 0.00698707517866 0.00310051450818 0.000572382912199 -0.000384649782698 -0.0847469313113 -0.151599193277
33673360 0.303322164771 0.218604920037 0.00699836804683 0.00308220119242 0.000577177017016 -0.000376079247739 -0.0849158353915 -0.151728706303
33706140 0.303423236365 0.218425725329 0.00699099198057 0.0030657862961 0.000578367928326 -0.000365784401361 -0.0850197060721 -0.151797216708
33738920 0.303746323595 0.218501324116 0.0069875390934 0.0030689607189 0.000583940628913 -0.000368102871045 -0.0852009090376 -0.151936903456
33771700 0.304045934734 0.21840945862 0.00699727534255 0.00306439404805 0.000575241130671 -0.000367242475959 -0.0854037218274 -0.151999646455
33804480 0.304284852768 0.218305138933 0.00697287000982 0.00309364700414 0.000562396166324 -0.000360138707054 -0.085493291599 -0.152215591114
33837260 0.304561632428 0.218232421386 0.00700416514039 0.0030574367133 0.000575443925061 -0.00036037923713 -0.0856569701092 -0.152257687305
33870040 0.304870163231 0.218227798837 0.0069958208204 0.00305183090916 0.000563390242834 -0.000388038080125 -0.0858408185963 -0.152406788668
33902820 0.305176379059 0.218012541826 0.00699724439646 0.00308141618679 0.000579050892019 -0.000360562900394 -0.0859446562609 -0.152498554047
33935600 0.305620891437 0.217943872122 0.00703551367602 0.00305918809165 0.000579006690101 -0.00036996541652 -0.0862411351857 -0.152628950454
33968380 0.305964094338 0.218066703531 0.00700930129688 0.0030588660083 0.000575671147348 -0.00036866014705 -0.0863853959206 -0.152664887018
34001160 0.306187708571 0.217918300388 0.00701747863602 0.00308109804936 0.000571735841815 -0.000383126421305 -0.0865324868272 -0.152851677381
34033940 0.306509673054 0.217893525184 0.00701664409712 0.00307171042441 0.000580299189216 -0.000349455163029 -0.0867415252568 -0.152987283423
34066720 0.306796729017 0.217793486037 0.00702535957215 0.0030572265697 0.000557835407873 -0.000356178139328 -0.0869630902182 -0.153112043943
34099500 0.307051151719 0.217716427288 0.00701644031981 0.0030581950647 0.000563668228692 -0.000375925999797 -0.0871127628168 -0.15322483593
34132280 0.307324082245 0.217621357218 0.00703343784583 0.00304409802483 0.000574125121314 -0.000349725075291 -0.0872353676067 -0.153377770186
34165060 0.30755536815 0.217498728342 0.00704265794775 0.00304369991474 0.000571609325276 -0.00036499448925 -0.0874624396433 -0.153512143828
34197840 0.307967574749 0.217434221081 0.00704630562149 0.00305100189044 0.000558090939569 -0.000364760127984 -0.0876837502329 -0.153727025618
34230620 0.308174809002 0.217291754296 0.0070430851335 0.00306822103153 0.000542321496972 -0.000355919283914 -0.0878717012461 -0.153783994149
34263400 0.308444435684 0.217213278336 0.00705910172102 0.00305862768147 0.000579533952797 -0.000356260264812 -0.0879544741643 -0.153901788968
34296180 0.308713665996 0.217099165191 0.00705993486196 0.00305113239259 0.000592139755698 -0.000367343347806 -0.0881739205199 -0.154080289748
34328960 0.309073377758 0.217054922552 0.00704553158852 0.00304718528414 0.000567781136665 -0.000347684074144 -0.0882827521566 -0.15406946617
34361740 0.309322732869 0.216996143248 0.007078347309 0.00305807755671 0.000548841347251 -0.000364641326421 -0.088494953216 -0.154223217106
34394520 0.309594615328 0.216895203409 0.00707677248018 0.00304175622584 0.00057731880691 -0.000341163623748 -0.0885831491171 -0.15427214493
34427300 0.309879239392 0.216858186165 0.00706662757454 0.00305594515149 0.000565740895099 -0.000363424387219 -0.0887069978239 -0.154300414601
34460080 0.310357696035 0.216899269434 0.00707489221231 0.00305717866476 0.000575253191623 -0.000351415958239 -0.0888918113192 -0.154335469583
34492860 0.310483232685 0.216727401515 0.00707249168112 0.00304887864972 0.000582863713619 -0.000346278269937 -0.0890477152034 -0.154531234979
34525640 0.31087339133 0.216620820875 0.00708865348743 0.00303274986008 0.000547344049083 -0.000367300483018 -0.0892830692828 -0.154722969139
34558420 0.311122751442 0.216365902415 0.00705376534108 0.00302813161061 0.000533897616122 -0.000367133550217 -0.0894600182289 -0.154849826532
34591200 0.311349501092 0.216294556142 0.00708880297559 0.00302159639392 0.000559644212051 -0.000351140062552 -0.0895800459239 -0.155027079063
34623980 0.311628120924 0.215979368576 0.00711450663308 0.00303055659988 0.000543703941476 -0.000355808169251 -0.0898582549293 -0.155242000073
34656760 0.311877027848 0.215976593265 0.00712240301429 0.00306180766457 0.000562998003699 -0.000338038453054 -0.0900397663541 -0.155427366388
34689540 0.312128968769 0.215827427626 0.00712098798597 0.00302636948567 0.000579206549776 -0.000328463818779 -0.0901827066092 -0.155497239405
34722320 0.312385396286 0.215675155974 0.00710001891316 0.00304214032255 0.000568621356113 -0.000340032605117 -0.0904057357975 -0.155679558874
34755100 0.312662025316 0.215645524792 0.00709762330377 0.00304276103845 0.000572940254084 -0.000350726904519 -0.0905115808975 -0.155838992961
34787880 0.312981210484 0.215549021039 0.00710528491764 0.00303683037609 0.000564598934014 -0.000344816894053 -0.090715634153 -0.155944494969
34820660 0.313291463125 0.215367679369 0.00710912921149 0.00302454525228 0.000549240257625 -0.00035626147599 -0.0908442936907 -0.156065158481
34853440 0.313618324009 0.215367959065 0.00712213565068 0.00304164044772 0.000558641093326 -0.00035249817666 -0.0910292150567 -0.156163573899
34886220 0.313963191829 0.2151830784 0.00712231210903 0.00304116666379 0.000541185246514 -0.000325414863219 -0.0912508065684 -0.156312762231
34919000 0.314237685886 0.215260586207 0.00711604316628 0.00301460714033 0.000530806718429 -0.000342954201989 -0.0914391855046 -0.156398216774
34951780 0.314571828998 0.215141211242 0.00711919215743 0.00300190308956 0.000536871578077 -0.000363272159576 -0.0916649070206 -0.156530121042
34984560 0.314814517597 0.215110840419 0.007114675403 0.00300746460687 0.000531553572678 -0.00034650407491 -0.0917514391059 -0.156593513057
35017340 0.315168228594 0.215065596855 0.00713155009827 0.00302743307345 0.000547821751483 -0.00035531990132 -0.0920164373565 -0.15671800796
35050120 0.315462864776 0.214926545568 0.00713612288854 0.00302858092863 0.00055618485918 -0.00034841609518 -0.0921795011354 -0.156817040466
35082900 0.315687553206 0.214836008442 0.00715898277187 0.00303447027408 0.000549236898635 -0.000377735862902 -0.0923774185888 -0.156962376738
35115680 0.316190933797 0.214672882518 0.00715749119106 0.00300179081345 0.00050450293284 -0.000312027101097 -0.0924752599962 -0.157062769834
35148460 0.316466306457 0.214581632675 0.00720077010124 0.00303741717225 0.000542820136684 -0.000368826608578 -0.0926587674242 -0.157103283392
35181240 0.316817625977 0.214425835194 0.00714960802945 0.00300452889947 0.000503565791903 -0.000417205540865 -0.0927836935837 -0.157271474308
35214020 0.317041201368 0.214305817715 0.00709757885101 0.0029493257289 0.000552872817369 -0.0003272552131 -0.0928908844747 -0.157457951017
35246800 0.317223063794 0.214205210886 0.0071186590964 0.00295996566225 0.000551496478901 -0.000355036514534 -0.0930502524595 -0.157393688206
35279580 0.31765106738 0.214067072909 0.00714993700426 0.00296401739884 0.000486130526696 -0.000384413523362 -0.0932649798777 -0.157623944312
35312360 0.317916632551 0.214046323922 0.00716207893614 0.00306513227394 0.000526282789758 -0.000372819500636 -0.0934721896545 -0.157665055057
35345140 0.31820927681 0.213958110437 0.00715409805514 0.00302039775227 0.000510979506662 -0.000305168906462 -0.0936085264313 -0.157865459148
35377920 0.318575206833 0.213744616427 0.00714921983883 0.00300759414346 0.000511376699031 -0.000333249241444 -0.0937723183501 -0.158035571865
35410700 0.318711855869 0.213759396127 0.00717332259807 0.00299062169887 0.000508507915665 -0.000370374275157 -0.0940290147252 -0.158140302864
35443480 0.319132016568 0.213600374954 0.00716774913171 0.00300170712378 0.000528120620088 -0.000337707980467 -0.0940984794361 -0.158334898621
35476260 0.319390657606 0.213499784144 0.00715282295024 0.00300029332406 0.000532049482049 -0.0003389647165 -0.0942460576192 -0.158442907767
35509040 0.319564803304 0.213490078996 0.00719148011719 0.00300070406054 0.000527403301236 -0.000348620098153 -0.0945209629176 -0.158418716645
35541820 0.319826831961 0.213396888183 0.00717722936267 0.00300905116256 0.000508050145479 -0.000337919983619 -0.0947259211003 -0.158544397011
35574600 0.320016625936 0.213291687497 0.00718896697957 0.00301052719869 0.000521981433391 -0.000336439721327 -0.0949858313154 -0.158622897173
35607380 0.320338126132 0.213277841007 0.00718151788389 0.00301382822603 0.000502278588757 -0.000340920103485 -0.0951325205157 -0.158710032117
35640160 0.320660750363 0.21311193165 0.00719755788807 0.00298367106511 0.000504321504973 -0.000336826547558 -0.0954275478768 -0.158749849873
35672940 0.320743780014 0.212998027562 0.00721151981255 0.00298517930538 0.000518329643526 -0.000329491468394 -0.0955880695023 -0.158900916677
35705720 0.321314782284 0.212838023875 0.00721750281301 0.00301588502028 0.000494577561816 -0.000322806456104 -0.0957626722782 -0.159034654265
35738500 0.321440745273 0.212620969967 0.00721405236347 0.00297449273459 0.0005380094778 -0.000337925483545 -0.0959325788174 -0.159242774796
35771280 0.321700931786 0.212529843595 0.00721832183049 0.00298643270236 0.000528913822276 -0.000332847687495 -0.0961262587556 -0.159366658629
35804060 0.322154841587 0.212372597839 0.00720290797952 0.00297938931732 0.00047800442466 -0.000339678720517 -0.0962435571446 -0.15953269553
35836840 0.322403241135 0.212184239014 0.007225144017 0.00297313825108 0.000490493841914 -0.000339259924868 -0.0963793720366 -0.159681228957
35869620 0.322710307256 0.212094021681 0.00721542949974 0.00297781342763 0.000502871182462 -0.000349144093873 -0.0965727577977 -0.159843455073
35902400 0.322878471627 0.211902688892 0.00724401434683 0.00299900018773 0.000507821163238 -0.000345964370764 -0.0968532682119 -0.159949496567
35935180 0.323298869052 0.211909135782 0.00722888499199 0.00297967983873 0.000478406994498 -0.000346019373586 -0.0970064112322 -0.160032108481
35967960 0.323446995253 0.21183563838 0.00721483075446 0.00298394823368 0.000506171433506 -0.00033456035704 -0.0971619928881 -0.160181650033
36000740 0.323798163503 0.211647933385 0.00722262831236 0.00297576648919 0.000485670735846 -0.000360427970226 -0.0973600107797 -0.160274614455
36033520 0.324105814106 0.211568656151 0.00722626994909 0.00297021823593 0.000496679790543 -0.000331892243203 -0.0975899310979 -0.160405651364
36066300 0.324266720984 0.21144536939 0.00725578851665 0.00298893763313 0.000514319092249 -0.00033744343244 -0.0977516866203 -0.160556925055
36099080 0.324511883704 0.211323962939 0.00725343330434 0.00296569952211 0.000505437271049 -0.00033758911958 -0.0979296204375 -0.160616192322
36131860 0.325049459959 0.211206237845 0.00724760482782 0.00295136891346 0.000488386173384 -0.000337785224097 -0.0980261508278 -0.160740917771
36164640 0.325298753479 0.211088770449 0.0072252185195 0.00296218857216 0.000502184827344 -0.000330243004031 -0.0981685035662 -0.160862599243
36197420 0.325591510736 0.211001802948 0.00725387433911 0.00296989720532 0.000478561209385 -0.000320656716231 -0.0983570463495 -0.160970002421
36230200 0.32592565146 0.210868966158 0.00725325605343 0.00295033443521 0.000501547909248 -0.00032838300837 -0.0985020680239 -0.161132787474
36262980 0.326100342005 0.210676387136 0.0072604555166 0.00295192937834 0.000502421319986 -0.00034791925011 -0.0986605023277 -0.161208385845
36295760 0.326421739071 0.210605881098 0.00724643744588 0.00296238703339 0.000468113083463 -0.000340054409145 -0.0988493329372 -0.161339742753
36328540 0.326740591179 0.210484272627 0.00726519632317 0.00294725545415 0.0004629812213 -0.000359134700564 -0.0990296807497 -0.161455782689
36361320 0.326890954242 0.210489657602 0.00726539429209 0.00297271195594 0.00049371414375 -0.000324727604707 -0.0992220834556 -0.16163171996
36394100 0.327065287995 0.210275240181 0.00726625653159 0.00294354512876 0.000492634386323 -0.000342440540187 -0.0994635603849 -0.161765143701
36426880 0.327296875554 0.210196237041 0.00728707392689 0.00295629112033 0.000506550865351 -0.000310568919874 -0.0995996715073 -0.161850053635
36459660 0.327671178578 0.210111330363 0.00728452242865 0.00295659528587 0.000473362701894 -0.000319778399509 -0.0997665574575 -0.161960102459
36492440 0.327844612341 0.210019878483 0.00728859688385 0.00296025346487 0.000498341687813 -0.000312625341898 -0.0999651979083 -0.162081552974
36525220 0.328333345634 0.209958109082 0.00730165255213 0.00298296820165 0.000456395715858 -0.000299170825026 -0.10013398821 -0.162161545481
36558000 0.328401735017 0.209788711124 0.0072746675856 0.00295793415288 0.000490570300848 -0.000323308894221 -0.100282769663 -0.16232730289
36590780 0.328749178582 0.209770106654 0.00727041958142 0.00295298075829 0.00048107689013 -0.000305309201842 -0.100452901156 -0.162438346634
36623560 0.329118266657 0.209643639 0.00732695762974 0.00295189498414 0.000492241671504 -0.000297504088756 -0.100726149842 -0.162563771591
36656340 0.329546048803 0.209564779203 0.00730562377065 0.00297158830109 0.000480050582584 -0.000319197044773 -0.100858958409 -0.162620909268
36689120 0.329553651627 0.209352352659 0.00728747983793 0.00296524626705 0.000475411208707 -0.000314030258253 -0.101014477129 -0.162804922276
36721900 0.329936511193 0.209076790822 0.00731941785415 0.00293277845858 0.000483003411942 -0.000310115488545 -0.101311506514 -0.16285586809
36754680 0.330314574763 0.209176601129 0.00731927440072 0.00294607021972 0.000431006766335 -0.000329836628497 -0.101408381334 -0.162906521582
36787460 0.330470819183 0.209047003617 0.00732974952634 0.00292201695644 0.000465634041071 -0.000319858138704 -0.101594426936 -0.163146976653
36820240 0.33084003456 0.208795687886 0.0073188184182 0.00293224818995 0.000440866833594 -0.000327281779731 -0.101814978029 -0.163167948177
36853020 0.331097452132 0.208635756617 0.00732198080551 0.00293360072334 0.000451997349954 -0.000309258955378 -0.101992017512 -0.163303938101
36885800 0.331297536146 0.208550328884 0.0073582997076 0.00293015604867 0.000472122016188 -0.000301825403178 -0.102248821924 -0.163443985474
36918580 0.331429371465 0.208474705025 0.00732323598265 0.00293975116061 0.000478369892199 -0.000330103871434 -0.102359812052 -0.163530929447
36951360 0.331819346216 0.208291813832 0.00732529654729 0.00293877782171 0.00045957546211 -0.000320923117079 -0.102608744794 -0.163646101924
36984140 0.332218480306 0.208061207191 0.00732602322104 0.00292476606979 0.000453271656961 -0.000305463034754 -0.102833202632 -0.163813075982
37016920 0.332493395197 0.207939063853 0.00732442776114 0.00293573105206 0.000442998343974 -0.00027889147821 -0.103044296716 -0.163920858838
37049700 0.3326863264 0.207810647124 0.00732423970823 0.00294589711452 0.000425721720394 -0.000292128581683 -0.103192298041 -0.164048119215
37082480 0.333056491165 0.207643501704 0.00732873478005 0.00292181605604 0.000455222868038 -0.0003192561757 -0.103384283993 -0.164154968956
37115260 0.333319887905 0.207675993208 0.00734335807362 0.00294484139294 0.000460516454953 -0.000292974193019 -0.103520679175 -0.164245229481
37148040 0.333614326617 0.207619726542 0.00734577562279 0.00292385263524 0.00040739460213 -0.000296794951812 -0.103589375819 -0.164354249667
37180820 0.333860875212 0.207607739791 0.00735181678259 0.00293161904756 0.000469833438558 -0.000317044957858 -0.103844922178 -0.164449226278
37213600 0.334180123609 0.2074766763 0.007352103919 0.00293238758296 0.000438309733832 -0.000302648506262 -0.103946692082 -0.164544412557
37246380 0.334562959697 0.207413228201 0.00737009199617 0.00292410621751 0.000458342563674 -0.00029553798763 -0.10422641675 -0.164683262104
37279160 0.33490629734 0.20722475345 0.00737082465268 0.00292229693457 0.000422513209354 -0.000292495358786 -0.104352821999 -0.164774738108
37311940 0.335094669599 0.206965867373 0.00734772138209 0.00291437738431 0.000470472067126 -0.000313750880629 -0.104512159216 -0.164908041091
37344720 0.335263744766 0.206784771082 0.00739047224658 0.00292374928592 0.000443029010106 -0.000310926059551 -0.104708776977 -0.16502889309
37377500 0.335615339163 0.206768118736 0.00738611705855 0.00293394722723 0.000408631242659 -0.00028133526906 -0.104814781839 -0.165118309936
37410280 0.335838245953 0.206519601509 0.00739372726021 0.0029152635784 0.00045728713003 -0.000320226141983 -0.105060854117 -0.165221248514
37443060 0.335993718935 0.206476658967 0.00737177811986 0.00294457065384 0.000424301596482 -0.000298034900678 -0.10527388642 -0.165380733439
37475840 0.336403578286 0.206409848378 0.00740209811749 0.00293302595172 0.000415215228179 -0.000308278656574 -0.10549021251 -0.165441434707
37508620 0.336554493225 0.206138041045 0.00737904265383 0.00291296435564 0.000456742341377 -0.000303477196524 -0.105701279922 -0.16554368839
37541400 0.336743108811 0.206004044541 0.007373675738 0.00292110036683 0.000433128503782 -0.000287701905563 -0.105865261619 -0.165636956505
37574180 0.337005392399 0.205886002029 0.00739483216266 0.00292081600563 0.000442106305577 -0.000295823540164 -0.106064649751 -0.165713052412
37606960 0.337439740792 0.205851570812 0.00739992802226 0.00289171326288 0.000422819019751 -0.000306414595686 -0.106264284874 -0.165816065452
37639740 0.337647921675 0.205783853061 0.00739597784959 0.00290254828926 0.000398953760083 -0.000303712540736 -0.106448299894 -0.16587752562
37672520 0.337870349277 0.205639435369 0.00741864910764 0.0028855709766 0.000408585880022 -0.000313806614763 -0.106628697036 -0.165974332096
37705300 0.338185465249 0.205509642066 0.00741104024558 0.00287770986518 0.000396751034278 -0.000289323426515 -0.106817985394 -0.166161430562
37738080 0.338268012658 0.205299709441 0.00741025107076 0.00288878576371 0.000388969282631 -0.000279226662381 -0.10701187006 -0.166253166259
37770860 0.338691163411 0.205120982526 0.00742014619873 0.0029010290468 0.000433138222965 -0.000280769482213 -0.107202606142 -0.166430504314
37803640 0.338886647123 0.20495989295 0.00740427497941 0.00288824733004 0.000417824156672 -0.000301526084734 -0.107374181643 -0.166524675168
37836420 0.339148297305 0.20485205567 0.0074447828613 0.00288917755321 0.000398707134362 -0.000308767681439 -0.107589089352 -0.166611768625
37869200 0.339322500815 0.204779843823 0.0074250933116 0.00289136617524 0.000386560295869 -0.000281781976876 -0.10773645629 -0.166743206415
37901980 0.339540880953 0.204623889265 0.0074149067765 0.00291448670167 0.000409924738211 -0.000298800897961 -0.10795204027 -0.166831965632
37934760 0.339968332302 0.204562326154 0.00743350847735 0.00287051638217 0.000418349843235 -0.000302217771794 -0.108149412103 -0.166987785398
37967540 0.340129056242 0.20445115485 0.00743213878608 0.0029026914659 0.000406398811364 -0.000308717159085 -0.108350230996 -0.167033516686
38000320 0.34038751857 0.204299905167 0.00743799046013 0.00288196480848 0.000395947239843 -0.00027554791265 -0.108484996006 -0.167179573014
38033100 0.340706137226 0.204206491183 0.0074460079614 0.00289392159157 0.000379264103934 -0.00028104182596 -0.108668530708 -0.167275909941
38065880 0.340938131772 0.204090943615 0.0074461206706 0.00290035256613 0.00038835447612 -0.000281523571989 -0.108879966298 -0.167360189444
38098660 0.341124962245 0.203862916413 0.00743218240645 0.00288871430856 0.000403916216114 -0.000298989269753 -0.109141569885 -0.16746076491
38131440 0.341617988662 0.203718987061 0.00745918534237 0.00287026813316 0.000389028438408 -0.000283849945484 -0.109308492994 -0.167588505085
38164220 0.341754877498 0.203567388555 0.00744761251668 0.00288995845257 0.000398486727756 -0.000291961224776 -0.109525047117 -0.167674455434
38197000 0.341978358955 0.203349633201 0.00744483280843 0.00287992130238 0.000388517457584 -0.000313564423883 -0.109738028973 -0.167798339366
38229780 0.342302435715 0.203250992007 0.00746370628236 0.00287384191155 0.000411466302726 -0.000289978017706 -0.109931313417 -0.167950877826
38262560 0.342551264518 0.203116022448 0.00745683995826 0.00288682451635 0.00034991097077 -0.000283091502435 -0.11009682384 -0.168001545607
38295340 0.342885828481 0.203008873424 0.00746198119293 0.00287158422462 0.000376094169294 -0.000277714941732 -0.110351006427 -0.168051726501
38328120 0.343083663443 0.202849666145 0.00745129887139 0.00287819194601 0.000416969554044 -0.000306665661095 -0.110499133778 -0.168141000043
38360900 0.343405893288 0.202793501045 0.00747840220176 0.00286276382056 0.000405070499689 -0.000279649753624 -0.110668805824 -0.168258041163
38393680 0.343715122015 0.202679117374 0.00748112254401 0.00285211908971 0.000371808327303 -0.000270396623149 -0.110799876374 -0.168304732252
38426460 0.343944327459 0.202541163591 0.00747016801208 0.00287392094945 0.000386826381047 -0.000272013456255 -0.111049305533 -0.168424800724
38459240 0.344184195522 0.202299122978 0.00747375528969 0.00287241688807 0.000376010724981 -0.000271762368158 -0.111222099718 -0.168533233871
38492020 0.34445006749 0.202226463241 0.00747530915791 0.00286856329488 0.00035073258633 -0.000290186152895 -0.111472784895 -0.168634855247
38524800 0.344647693249 0.202091083152 0.00749929381305 0.00286403032671 0.000394205712342 -0.00026122073717 -0.111649538829 -0.168812564524
38557580 0.344796700716 0.201902454267 0.00747336395636 0.00287465752866 0.000363788334183 -0.000246090255704 -0.111829340586 -0.168917470499
38590360 0.345103371366 0.201803922466 0.00747785871467 0.00286284787934 0.000367640467607 -0.000272667764122 -0.11208290182 -0.169092077205
38623140 0.345356818141 0.201656684153 0.00750978755595 0.00286099731898 0.000408539480666 -0.000267753116232 -0.112246955855 -0.169203876017
38655920 0.345507002745 0.20149203342 0.00749688766834 0.00285494662231 0.000385147526589 -0.000268218089152 -0.112434550879 -0.169241100261
38688700 0.34572791972 0.201429074221 0.00752316687546 0.00285438105687 0.0003727373314 -0.000263608219158 -0.112677714503 -0.169377496449
38721480 0.345972311072 0.201400358474 0.0075051600893 0.00284269125925 0.000392951396094 -0.00025630609605 -0.112809436432 -0.16948158201
38754260 0.346200442243 0.201207138329 0.00750205198805 0.002857679258 0.000359516422222 -0.00023925933286 -0.113067730726 -0.169586960275
38787040 0.346407686418 0.201108791569 0.00751433145018 0.00284718429337 0.000370531577435 -0.000255314590543 -0.113189686392 -0.169689943349
38819820 0.346731935382 0.200919965668 0.00751729888212 0.00286218516761 0.000354886713853 -0.000256049325101 -0.113395605572 -0.169785892517
38852600 0.347106981596 0.200895739819 0.0075181978297 0.00284814277306 0.000379306077078 -0.000245685631184 -0.11363270454 -0.169835671913
38885380 0.347371278128 0.200692737765 0.00753312436559 0.00285005511797 0.000346725725691 -0.000246323297033 -0.113720889568 -0.169940599362
38918160 0.3476315251 0.200563855179 0.00754697474772 0.00283743615807 0.000373777124577 -0.00025636173022 -0.113953419263 -0.170123938693
38950940 0.3477680124 0.200417109588 0.00755577579787 0.00285639621367 0.000379330424409 -0.000271302243117 -0.114052755627 -0.170244602733
38983720 0.34812425637 0.200250127438 0.00758115458148 0.002844564121 0.000361847145039 -0.00025354804809 -0.114203038956 -0.17032135086
39016500 0.348343119178 0.200049379378 0.00756464239543 0.00283270796263 0.000363715317714 -0.000259095646684 -0.114342302444 -0.170442266478
39049280 0.348607140797 0.199961396186 0.00755186866253 0.00282385024235 0.000340155721966 -0.000292270924943 -0.114584700237 -0.170538647846
39082060 0.348811671325 0.19984074171 0.00755559179851 0.00283429027987 0.000362945232892 -0.000261581004262 -0.114871311073 -0.170683281603
39114840 0.349033229141 0.199641667698 0.00756138328081 0.00284315655928 0.000344539768077 -0.000244035402298 -0.115111101315 -0.170775220187
39147620 0.349353174522 0.199528084722 0.00756644070089 0.0028321271585 0.000333729074917 -0.000250130453341 -0.115246109814 -0.170804676088
39180400 0.3495826921 0.199264665864 0.00754732388601 0.00283022377725 0.000325701204972 -0.00025176103334 -0.115488695023 -0.170920331528
39213180 0.349728688068 0.199092157809 0.00755929447633 0.00284908801056 0.000326436991526 -0.000245242860598 -0.115667397913 -0.171002119969
39245960 0.349966864208 0.198940691487 0.00756799190793 0.00282946106175 0.000351426667653 -0.000259421803451 -0.115880777954 -0.171158492944
39278740 0.350241773945 0.198860230045 0.00759304681672 0.00280973149206 0.000350757846444 -0.000252580898306 -0.116082292901 -0.171280258603
39311520 0.350592621161 0.198780802924 0.00757130891342 0.00282677973517 0.000328868395209 -0.000261262517014 -0.116241099911 -0.171345349352
39344300 0.35085018115 0.198628290052 0.00758921480147 0.0028220446561 0.000347684456057 -0.000225399271121 -0.116498189707 -0.171395437784
39377080 0.351149376083 0.198587931037 0.00757137582758 0.00283286576077 0.00034596670512 -0.000242021339899 -0.11661319533 -0.171470476859
39409860 0.35139352938 0.198372836404 0.0075997610691 0.00282455598111 0.000326609605931 -0.00022685707856 -0.1168516486 -0.171584634645
39442640 0.35157112413 0.19828995515 0.00758341167621 0.00281069885582 0.000328387543334 -0.000232757178285 -0.117082647077 -0.171676059633
39475420 0.35188890034 0.198099253938 0.00757655334562 0.00281924715107 0.000330382646389 -0.000239023656288 -0.117226683137 -0.171686947252
39508200 0.352181073695 0.197939024164 0.00757509818158 0.0028151391143 0.000347099311405 -0.000234654858313 -0.117434667595 -0.171858731448
39540980 0.352348070776 0.197854561456 0.00760537289588 0.00282195162145 0.000298833686645 -0.000230016322445 -0.117597230547 -0.171881026693
39573760 0.352674993341 0.197728243944 0.00757868376806 0.00278705583139 0.000326730924417 -0.000253851367662 -0.117854627092 -0.172021264616
39606540 0.352900322865 0.197596856588 0.00761574338239 0.00281294463252 0.000319856269988 -0.000246692816868 -0.117962957801 -0.172139434264
39639320 0.353122366359 0.19743821136 0.00762514676477 0.00281513592094 0.000318434268963 -0.000238538245621 -0.118242669576 -0.172260762168
39672100 0.353369085701 0.19727078698 0.00763312159532 0.00282370155202 0.000314732667348 -0.000230161550678 -0.118418654259 -0.172394357528
39704880 0.353720253297 0.197107695916 0.00760051883107 0.00280879002435 0.000316826616859 -0.000223994455558 -0.118659520702 -0.172519415276
39737660 0.354004152655 0.196902045966 0.00762463986144 0.00281766217978 0.000325233784982 -0.000249395478883 -0.118899409151 -0.172651688574
39770440 0.354242260433 0.196768881007 0.00760456741859 0.00283172267918 0.000317406539525 -0.000220655063163 -0.11903796835 -0.17275793819
39803220 0.354402718723 0.196597276112 0.00764419647222 0.00279896510605 0.000313654281711 -0.000233956430676 -0.119195944966 -0.172841639852
39836000 0.354643528739 0.196466309737 0.00765556473429 0.00279956240913 0.000321794064094 -0.000212343978997 -0.119404023056 -0.172979373163
39868780 0.354842019129 0.1963215361 0.00763922423652 0.00278882293245 0.000303077159951 -0.000214277092239 -0.119614181521 -0.173050575663
39901560 0.355163646903 0.196196267023 0.00763547275874 0.00278967055849 0.000321598503731 -0.000211202884064 -0.119740028041 -0.173117198267
39934340 0.35537638827 0.196044303585 0.00763911530852 0.00280011944234 0.000321652684785 -0.000216529366052 -0.119942470484 -0.1732660818
39967120 0.355681035749 0.195940073 0.00763097174362 0.00279906383394 0.000288626104865 -0.000191835701328 -0.120207138105 -0.17336121285
39999900 0.355716930585 0.195782506774 0.00764416704221 0.00279423969758 0.000326775452566 -0.00019759828793 -0.120309726815 -0.173415782255
