! Created with skrf 1.12.0 (http://scikit-rf.org).
! Data is not renormalized
! S-parameter uses the power definition
# Hz S RI R
!freq ReS11 ImS11 ReS21 ImS21 ReS12 ImS12 ReS22 ImS22
300000.0 -0.7964047214095117 -0.06516644071961121 0.03863022360948053 -0.037359620278022546 0.038160660631406565 -0.03994062934070647 -0.8548111904284313 -0.0034321799367092202
! Port Impedance 100.00000000000000 0.00000000000000 100.00000000000000 0.00000000000000
332946.0 -0.7526885679013366 0.06292043256830708 0.12920277934935825 0.03622394426850754 0.13362481101692064 0.03293851126696196 -0.7970880967552838 0.1543769087774116
! Port Impedance 100.00000000000000 0.00000000000000 100.00000000000000 0.00000000000000
365892.0 -0.6718401405989176 0.11973463318920603 0.21494189161997285 0.04031939495641199 0.22157488511357978 0.03426790529034178 -0.7064096568936417 0.20597041759354265
! Port Impedance 100.00000000000000 0.00000000000000 100.00000000000000 0.00000000000000
398838.0 -0.6074301683054404 0.13017137113552754 0.26907236090226766 0.01758088142597005 0.2759805090638674 0.009077838771690123 -0.637770384922495 0.20903021423082407
! Port Impedance 100.00000000000000 0.00000000000000 100.00000000000000 0.00000000000000
431784.0 -0.5896928103651887 0.16371003412296173 0.32596014551891717 0.20142540166885967 0.32442315320445747 0.20579137932388447 -0.6343127091774172 0.1527211591443207
! Port Impedance 100.00000000000000 0.00000000000000 100.00000000000000 0.00000000000000
464730.0 -0.5587182785841954 0.15523405334719917 0.36098765381510534 0.1881642609500382 0.3601559132391409 0.19295859870840332 -0.6010727787009219 0.14354800866118808
! Port Impedance 100.00000000000000 0.00000000000000 100.00000000000000 0.00000000000000
497676.0 -0.5351598204766961 0.14528586164644536 0.38504369948066614 0.17432864312075 0.38492302010736745 0.1797441804569746 -0.5810256185609026 0.13166087432182336
! Port Impedance 100.00000000000000 0.00000000000000 100.00000000000000 0.00000000000000
530622.0 -0.5186773957480821 0.1363963021722761 0.4021184321787281 0.16130981489121415 0.40247583885903027 0.1668558295067734 -0.5657233535913121 0.12141047401737201
! Port Impedance 100.00000000000000 0.00000000000000 100.00000000000000 0.00000000000000
563568.0 -0.5064569315380925 0.128627216999631 0.4149477806892304 0.14952142785850886 0.4159580477173463 0.15519870785730822 -0.5547917928150925 0.11304661916337481
! Port Impedance 100.00000000000000 0.00000000000000 100.00000000000000 0.00000000000000
596514.0 -0.4976130204358099 0.12115001063596974 0.42455607263801814 0.13953909417211793 0.4259963310947358 0.14520705281999227 -0.5459551638000759 0.10573388446793672
! Port Impedance 100.00000000000000 0.00000000000000 100.00000000000000 0.00000000000000
629460.0 -0.49022847056099766 0.11494589482901571 0.43189838293419924 0.1303151935826533 0.4336207692062658 0.13595685124877357 -0.5391224276288802 0.09746646124218554
! Port Impedance 100.00000000000000 0.00000000000000 100.00000000000000 0.00000000000000
662406.0 -0.4845747903324995 0.10884875933972796 0.43793561499109673 0.12273617093044326 0.4400397545499762 0.1282051595066663 -0.5338878134998584 0.09187719057905
! Port Impedance 100.00000000000000 0.00000000000000 100.00000000000000 0.00000000000000
695352.0 -0.4798183818027761 0.10385684030804854 0.4428012718191605 0.11558710524075913 0.44511122703194506 0.121066256119676 -0.5291719928580197 0.08697440475249503
! Port Impedance 100.00000000000000 0.00000000000000 100.00000000000000 0.00000000000000
728298.0 -0.4756694471227003 0.09954026321989752 0.4467118145413066 0.10944449901989896 0.4492839713059793 0.11481102841561182 -0.5255242128229416 0.08244538942566168
! Port Impedance 100.00000000000000 0.00000000000000 100.00000000000000 0.00000000000000
761244.0 -0.47125510272269 0.0961726626668615 0.44977694377935307 0.10358779513401609 0.4524155227617165 0.10895508514064414 -0.521932803770668 0.07851132761521591
! Port Impedance 100.00000000000000 0.00000000000000 100.00000000000000 0.00000000000000
794190.0 -0.46865562783178616 0.0929491442224663 0.4522243911235422 0.0982391837433072 0.45497387329041017 0.10345852344492287 -0.5189507770704427 0.07479639838696087
! Port Impedance 100.00000000000000 0.00000000000000 100.00000000000000 0.00000000000000
827136.0 -0.4670330291116896 0.08967509187188581 0.45516352688575556 0.0938124778701272 0.4579409608129882 0.09900260606099905 -0.5164426233091857 0.07112936403148035
! Port Impedance 100.00000000000000 0.00000000000000 100.00000000000000 0.00000000000000
860082.0 -0.464328111372709 0.08623929902081622 0.4570714233381514 0.0895516769901 0.4600908124726767 0.0946122336756059 -0.514334215781256 0.06812822715643396
! Port Impedance 100.00000000000000 0.00000000000000 100.00000000000000 0.00000000000000
893028.0 -0.4622129107556301 0.08425428061317247 0.4587236740741656 0.08553803414200448 0.4617090677829396 0.09056985338430844 -0.5123935601609861 0.06528826644907978
! Port Impedance 100.00000000000000 0.00000000000000 100.00000000000000 0.00000000000000
925974.0 -0.46076045726500775 0.08145178492117042 0.4601731769319529 0.08172183560803568 0.4633443779602705 0.08674691526658444 -0.5106363887678933 0.06287773652903582
! Port Impedance 100.00000000000000 0.00000000000000 100.00000000000000 0.00000000000000
958920.0 -0.4592616112096186 0.07899033702825634 0.46166352548682954 0.07844536354473361 0.46483773187160216 0.08352403362369068 -0.5090269165402416 0.06024872466853883
! Port Impedance 100.00000000000000 0.00000000000000 100.00000000000000 0.00000000000000
991866.0 -0.4581309614223701 0.07757656193172915 0.4627177005786873 0.07531900835135126 0.46595679916832927 0.08016783940357047 -0.5078947120948063 0.057971110315534397
! Port Impedance 100.00000000000000 0.00000000000000 100.00000000000000 0.00000000000000
1024812.0 -0.4564514279101872 0.07555353321979541 0.46369947270660855 0.07267455099780006 0.46677745211215843 0.07754576242460406 -0.5064229092773733 0.055669980081336126
! Port Impedance 100.00000000000000 0.00000000000000 100.00000000000000 0.00000000000000
1057758.0 -0.4559026950380287 0.07385284899979214 0.4646890881123439 0.0697433157996106 0.4681253031061739 0.0747405927195256 -0.5054484560223182 0.05382646055141056
! Port Impedance 100.00000000000000 0.00000000000000 100.00000000000000 0.00000000000000
1090704.0 -0.45495957323219155 0.0726119318943911 0.465671386081159 0.06705507717736359 0.46913583682297594 0.07207505284581495 -0.5048687598693856 0.05180502208038325
! Port Impedance 100.00000000000000 0.00000000000000 100.00000000000000 0.00000000000000
1123650.0 -0.4541631011277917 0.07092357437670523 0.4663377064967905 0.06485797292124695 0.46975059806339914 0.0699182119855654 -0.5038894318070218 0.05023083509629587
! Port Impedance 100.00000000000000 0.00000000000000 100.00000000000000 0.00000000000000
1156596.0 -0.4529770681786343 0.07020364291510897 0.46708565752396647 0.06240306954196826 0.4706530144366594 0.06742759087659789 -0.5029841294178775 0.04857869804251301
! Port Impedance 100.00000000000000 0.00000000000000 100.00000000000000 0.00000000000000
1189542.0 -0.4526428771469307 0.06826147863757864 0.467768665654755 0.06053614813471472 0.47099196240207236 0.06545292165028307 -0.5018417288875193 0.04680898848593064
! Port Impedance 100.00000000000000 0.00000000000000 100.00000000000000 0.00000000000000
1222488.0 -0.4518003443433094 0.06680374303367123 0.46844627354851465 0.05869731575406965 0.47185562365351663 0.06353051897825251 -0.5012809640437932 0.045460568513663674
! Port Impedance 100.00000000000000 0.00000000000000 100.00000000000000 0.00000000000000
1255434.0 -0.4512766543717729 0.06605064201752417 0.4688987875166595 0.056626364713971665 0.4724701373124438 0.06154946184058313 -0.5011291567888176 0.043947919038987045
! Port Impedance 100.00000000000000 0.00000000000000 100.00000000000000 0.00000000000000
1288380.0 -0.4503972200358932 0.06552131431012731 0.46925464300032693 0.05468042408588892 0.472824276521418 0.05966479505534212 -0.5005652485125996 0.04255254486792502
! Port Impedance 100.00000000000000 0.00000000000000 100.00000000000000 0.00000000000000
1321326.0 -0.4501614533607955 0.06419993490198543 0.46972377827221595 0.052986575012948955 0.4734028556269872 0.05795278582472822 -0.49973205290148887 0.04160534099306156
! Port Impedance 100.00000000000000 0.00000000000000 100.00000000000000 0.00000000000000
1354272.0 -0.4494961356024244 0.06320824306510003 0.470105831199055 0.0514484776154105 0.47377494437790413 0.056340026744976186 -0.49948964223252323 0.04054200637729408
! Port Impedance 100.00000000000000 0.00000000000000 100.00000000000000 0.00000000000000
1387218.0 -0.4492060116471403 0.06247072809177186 0.47043956083146216 0.04964667843010562 0.4740469858239367 0.05435092002602895 -0.49878682508704714 0.03929522878160079
! Port Impedance 100.00000000000000 0.00000000000000 100.00000000000000 0.00000000000000
1420164.0 -0.4487195700662102 0.06167848226626665 0.470839163834638 0.048418187692439385 0.47444802238665335 0.053045140428965326 -0.4984644289431005 0.03807143391961729
! Port Impedance 100.00000000000000 0.00000000000000 100.00000000000000 0.00000000000000
1453110.0 -0.4485431269659741 0.061133361532406255 0.471283623699458 0.046869367564102093 0.4750123843308351 0.05158861938857294 -0.4981864614608664 0.03690293209340945
! Port Impedance 100.00000000000000 0.00000000000000 100.00000000000000 0.00000000000000
1486056.0 -0.44781663859483806 0.060467931806858444 0.47124592346840166 0.04534672923809458 0.47526370423869374 0.05037370370204366 -0.49849182642567025 0.03583560777547249
! Port Impedance 100.00000000000000 0.00000000000000 100.00000000000000 0.00000000000000
1519002.0 -0.44803501578831795 0.05960974878385282 0.47178084548886157 0.04385663923789537 0.4757616645777891 0.04882115881771046 -0.49817191806887523 0.035235886227281035
! Port Impedance 100.00000000000000 0.00000000000000 100.00000000000000 0.00000000000000
1551948.0 -0.4475990563723544 0.059107462180958234 0.47197355205288716 0.04267497118131181 0.475871910395209 0.047511114837024054 -0.49770032363433425 0.03431495280571642
! Port Impedance 100.00000000000000 0.00000000000000 100.00000000000000 0.00000000000000
1584894.0 -0.44700926423440834 0.058526700956322245 0.4720544085785187 0.04134424007478217 0.4759863675080444 0.0464735809352626 -0.4974883319174742 0.033385059176473796
! Port Impedance 100.00000000000000 0.00000000000000 100.00000000000000 0.00000000000000
1617840.0 -0.44692509441006584 0.058315884461061646 0.47243235303419584 0.04037165392782154 0.4764132915735796 0.04515333425219753 -0.4973436998449137 0.03268248171116823
! Port Impedance 100.00000000000000 0.00000000000000 100.00000000000000 0.00000000000000
1650786.0 -0.44664886282928035 0.05778845838547478 0.4726378169919036 0.03909106350940162 0.476583778259525 0.04384156642466222 -0.4972248529691398 0.03192990142589734
! Port Impedance 100.00000000000000 0.00000000000000 100.00000000000000 0.00000000000000
1683732.0 -0.4468013065907469 0.05717804620284223 0.4728917619172659 0.037946723753697335 0.4769740009178593 0.0428530747119244 -0.4971849779049968 0.031065037132269473
! Port Impedance 100.00000000000000 0.00000000000000 100.00000000000000 0.00000000000000
1716678.0 -0.4464077279994429 0.056830328900568536 0.47307792502399354 0.03694258563480526 0.47696176322859973 0.041667768632787046 -0.4968926789721113 0.030464349999410802
! Port Impedance 100.00000000000000 0.00000000000000 100.00000000000000 0.00000000000000
1749624.0 -0.44616638723210345 0.056398811718115616 0.47315135096568267 0.03581483288274979 0.47720098789339416 0.040569578189407485 -0.4967295887470457 0.030085354641190932
! Port Impedance 100.00000000000000 0.00000000000000 100.00000000000000 0.00000000000000
1782570.0 -0.4458841963258181 0.055909430135156306 0.47333704296997403 0.03472155815060808 0.4774365009263714 0.03953644554711599 -0.49663553294745 0.029434682931147378
! Port Impedance 100.00000000000000 0.00000000000000 100.00000000000000 0.00000000000000
1815516.0 -0.445393566492752 0.0555477576189569 0.4733938809929278 0.03384375861837054 0.4774601305515062 0.038737140628060246 -0.49646322067793697 0.028682528817061438
! Port Impedance 100.00000000000000 0.00000000000000 100.00000000000000 0.00000000000000
1848462.0 -0.4452649224064411 0.05534086392802966 0.47356152887100855 0.03295915856144333 0.4778020891845556 0.03763111206191822 -0.49641551089926944 0.027936495187219284
! Port Impedance 100.00000000000000 0.00000000000000 100.00000000000000 0.00000000000000
1881408.0 -0.4450948422191813 0.055214340922919866 0.47375975623008193 0.03205220332278249 0.47790190071555294 0.03672208744365035 -0.496317721446068 0.02729651790126099
! Port Impedance 100.00000000000000 0.00000000000000 100.00000000000000 0.00000000000000
1914354.0 -0.44489708183823273 0.055092719876449966 0.4737298810585487 0.030902850978735692 0.4779658230174697 0.03569842336180579 -0.49646695212145836 0.026991864500616435
! Port Impedance 100.00000000000000 0.00000000000000 100.00000000000000 0.00000000000000
1947300.0 -0.44528401675034535 0.05427125552256623 0.47389080800523925 0.030204861403594584 0.47818588196296585 0.03505364231633437 -0.49620809796931814 0.026477437749699764
! Port Impedance 100.00000000000000 0.00000000000000 100.00000000000000 0.00000000000000
1980246.0 -0.44435483562741074 0.05440139868344685 0.47384850540979007 0.029140143324518322 0.4781429681384113 0.034004884503908095 -0.49634592120776805 0.02601206090420512
! Port Impedance 100.00000000000000 0.00000000000000 100.00000000000000 0.00000000000000
2013192.0 -0.4447075510905747 0.05409568004643212 0.47414889483648864 0.028357472487564393 0.4784917574741626 0.03320860228256346 -0.4961031028000685 0.025513506599949762
! Port Impedance 100.00000000000000 0.00000000000000 100.00000000000000 0.00000000000000
2046138.0 -0.4445312365329828 0.053964729214706325 0.4743152166513173 0.02748273267924336 0.47862869833333116 0.03229151709755297 -0.496139118852979 0.02521211305982618
! Port Impedance 100.00000000000000 0.00000000000000 100.00000000000000 0.00000000000000
2079084.0 -0.4441639996344835 0.05414440342454705 0.47435569919866033 0.026667473025218727 0.4787768321271435 0.031340887355091794 -0.4960265845016816 0.024835296728186546
! Port Impedance 100.00000000000000 0.00000000000000 100.00000000000000 0.00000000000000
2112030.0 -0.4443440637298421 0.05358776403904787 0.47451135827731766 0.025966573669263446 0.47891682235844296 0.030757705796309563 -0.4960606882256696 0.02434699676039393
! Port Impedance 100.00000000000000 0.00000000000000 100.00000000000000 0.00000000000000
2144976.0 -0.4441326648535223 0.05370574514108816 0.47444382184634554 0.025120134549732855 0.47913113237550053 0.02984026019000468 -0.4961917890598223 0.024150778976883912
! Port Impedance 100.00000000000000 0.00000000000000 100.00000000000000 0.00000000000000
2177922.0 -0.4439422984069269 0.05332834804725098 0.47456506981426355 0.024420179314777017 0.4791829971416247 0.029330344913173687 -0.4961653747568992 0.023676071572439877
! Port Impedance 100.00000000000000 0.00000000000000 100.00000000000000 0.00000000000000
2210868.0 -0.44410380512553393 0.053201073547248984 0.47474195950708875 0.023707506382837515 0.4791700495818975 0.028472522152368722 -0.49602774160736784 0.02346369004571933
! Port Impedance 100.00000000000000 0.00000000000000 100.00000000000000 0.00000000000000
2243814.0 -0.4435943534270962 0.053187540389200885 0.4746694332224284 0.02304550299169328 0.4791330314288044 0.027632470074801505 -0.4960160826364316 0.02305402540746994
! Port Impedance 100.00000000000000 0.00000000000000 100.00000000000000 0.00000000000000
2276760.0 -0.4435844808632803 0.053160766697595965 0.4750230080061538 0.022190141343653876 0.47942650921582386 0.026886851318226556 -0.4959206191945892 0.02266102778294788
! Port Impedance 100.00000000000000 0.00000000000000 100.00000000000000 0.00000000000000
2309706.0 -0.44373617159312073 0.052755273337821505 0.475015216574435 0.021773828962341733 0.47959808094047696 0.026369791841581336 -0.4959897445445148 0.022463272528970176
! Port Impedance 100.00000000000000 0.00000000000000 100.00000000000000 0.00000000000000
2342652.0 -0.443102275087886 0.052772647062865594 0.4748438835346237 0.020920861971241496 0.4793865672975669 0.02569988260301897 -0.4960300933388933 0.022047446974653166
! Port Impedance 100.00000000000000 0.00000000000000 100.00000000000000 0.00000000000000
2375598.0 -0.4434052308662252 0.052928655216073706 0.47505522191069155 0.020166683140109797 0.4796826475138957 0.024732679954748406 -0.4959057285845855 0.021755388532903867
! Port Impedance 100.00000000000000 0.00000000000000 100.00000000000000 0.00000000000000
2408544.0 -0.44365486304162205 0.05276410203171514 0.4752232514452882 0.019549559890957177 0.4799511657720694 0.02407984162935474 -0.4959989107423899 0.021591712032347728
! Port Impedance 100.00000000000000 0.00000000000000 100.00000000000000 0.00000000000000
2441490.0 -0.44334462815621006 0.05278735290048714 0.47510294157068955 0.018856579938134988 0.47986764911849117 0.02346722136454437 -0.4959564153284808 0.021450003971173286
! Port Impedance 100.00000000000000 0.00000000000000 100.00000000000000 0.00000000000000
2474436.0 -0.44332440157915 0.05275081082998028 0.4751968270672319 0.018227418359270994 0.4796536909090044 0.022850357389652978 -0.49593025973743543 0.02122208131273128
! Port Impedance 100.00000000000000 0.00000000000000 100.00000000000000 0.00000000000000
2507382.0 -0.4426966861264394 0.0527945834313326 0.4750531279045023 0.017689453227117645 0.47974909070716854 0.022287585255274044 -0.4958008430460696 0.0209397950048941
! Port Impedance 100.00000000000000 0.00000000000000 100.00000000000000 0.00000000000000
2540328.0 -0.4429581864984206 0.052628980692275035 0.4753294419745566 0.0171383298551831 0.480047282625119 0.021639297439955622 -0.49571379825308476 0.02074170510050079
! Port Impedance 100.00000000000000 0.00000000000000 100.00000000000000 0.00000000000000
2573274.0 -0.44306261514514955 0.05264410053271718 0.4752534612868273 0.016584709594825657 0.48010064562163 0.02117670804284907 -0.49589773564019235 0.020424625946516457
! Port Impedance 100.00000000000000 0.00000000000000 100.00000000000000 0.00000000000000
2606220.0 -0.4429133566408345 0.052955853691884484 0.4753035667855905 0.01570818290132095 0.480117206432311 0.020411630611070205 -0.49590669201814175 0.020338963773337795
! Port Impedance 100.00000000000000 0.00000000000000 100.00000000000000 0.00000000000000
2639166.0 -0.4426392608023483 0.053106522639242405 0.4753983430890396 0.01513579059425679 0.48024791508426795 0.01974391594788463 -0.496035977495461 0.020165374373379334
! Port Impedance 100.00000000000000 0.00000000000000 100.00000000000000 0.00000000000000
2672112.0 -0.4426244567513439 0.053088849762405396 0.47546681044720174 0.014591742909880414 0.48005602006327996 0.01902030000543861 -0.49551546431834936 0.019905212169505377
! Port Impedance 100.00000000000000 0.00000000000000 100.00000000000000 0.00000000000000
2705058.0 -0.44246483412814924 0.05283514419088951 0.47529943925465346 0.014073617125715174 0.48008938631845294 0.018523069691296305 -0.4956098722756241 0.019855490088549282
! Port Impedance 100.00000000000000 0.00000000000000 100.00000000000000 0.00000000000000
2738004.0 -0.4425499736135118 0.052760161755329535 0.47564066391500676 0.013668596654243331 0.48044851429588076 0.018175353336377514 -0.49584077594771625 0.019757869476312015
! Port Impedance 100.00000000000000 0.00000000000000 100.00000000000000 0.00000000000000
2770950.0 -0.4423491674991074 0.05292624432307407 0.47574138629103335 0.013040183026593107 0.48047387849577095 0.017514161399661846 -0.49565034290206145 0.01967249344188595
! Port Impedance 100.00000000000000 0.00000000000000 100.00000000000000 0.00000000000000
2803896.0 -0.4423559548303647 0.05292907895740223 0.47551122165979054 0.012529100166103993 0.48013947253727485 0.017061580508423185 -0.4956822163878335 0.019394689979208395
! Port Impedance 100.00000000000000 0.00000000000000 100.00000000000000 0.00000000000000
2836842.0 -0.442357737833602 0.05298759869077002 0.4755774371342645 0.012028016636922038 0.4802534657751908 0.01645285572411882 -0.4956556342668039 0.01907620407079591
! Port Impedance 100.00000000000000 0.00000000000000 100.00000000000000 0.00000000000000
2869788.0 -0.44239561107307257 0.05333183226726002 0.4757719779018475 0.01131168155464243 0.48046283960602276 0.01567522188538384 -0.49553592516831757 0.0192153294004642
! Port Impedance 100.00000000000000 0.00000000000000 100.00000000000000 0.00000000000000
2902734.0 -0.44177868171402895 0.05304438044058302 0.4754506044365693 0.01093336269064878 0.4805017830277629 0.0152228567981605 -0.49579487685964596 0.019175511118406676
! Port Impedance 100.00000000000000 0.00000000000000 100.00000000000000 0.00000000000000
2935680.0 -0.4421327094341416 0.05331764050103207 0.4756306498572773 0.010247463046761244 0.4805783007744626 0.014706647102869251 -0.4957032690541274 0.018841244958971548
! Port Impedance 100.00000000000000 0.00000000000000 100.00000000000000 0.00000000000000
2968626.0 -0.4422119587279791 0.05308168132003762 0.4756771452679466 0.009814395045385562 0.4805935637205187 0.014280962577137797 -0.49589462770141146 0.018926858328731935
! Port Impedance 100.00000000000000 0.00000000000000 100.00000000000000 0.00000000000000
3001572.0 -0.4420296188345618 0.05374908233438107 0.47570963032934227 0.009254748664883078 0.4805481994093938 0.013582225300578827 -0.4956771228419502 0.01868166880046661
! Port Impedance 100.00000000000000 0.00000000000000 100.00000000000000 0.00000000000000
3034518.0 -0.4418165049945308 0.053890177695859624 0.47574410577260595 0.008619245200814937 0.4806824204344319 0.012961642309119125 -0.49545690533555375 0.018806545463951815
! Port Impedance 100.00000000000000 0.00000000000000 100.00000000000000 0.00000000000000
3067464.0 -0.44161782044711423 0.05350000575576013 0.4757709086455526 0.008349041433584217 0.48076629476935084 0.012608289853455636 -0.49567837088724226 0.018808372980172988
! Port Impedance 100.00000000000000 0.00000000000000 100.00000000000000 0.00000000000000
3100410.0 -0.44167013858286613 0.05359933065596674 0.4755809792582908 0.007886284019445085 0.4805335050739139 0.012237694160589055 -0.49574082041291045 0.018454571259864917
! Port Impedance 100.00000000000000 0.00000000000000 100.00000000000000 0.00000000000000
3133356.0 -0.44195880803999005 0.054041646094925865 0.47606506924664077 0.007259396827920293 0.4808099397649278 0.011560565883263796 -0.4955090583015248 0.01833207404403497
! Port Impedance 100.00000000000000 0.00000000000000 100.00000000000000 0.00000000000000
3166302.0 -0.44132259340144664 0.05407481928857072 0.4757575031628005 0.006845631647871002 0.4806684786963746 0.011135027690343611 -0.4954663887755245 0.018163621177568763
! Port Impedance 100.00000000000000 0.00000000000000 100.00000000000000 0.00000000000000
3199248.0 -0.4416127015211346 0.054086676215674236 0.4758149011415701 0.006506149607135932 0.48064053762179604 0.010780329266809581 -0.49531566546676614 0.018218444134029656
! Port Impedance 100.00000000000000 0.00000000000000 100.00000000000000 0.00000000000000
3232194.0 -0.44146546582177437 0.054201754907672955 0.475763063343146 0.005938503349566145 0.48055652119001996 0.010147735943951512 -0.4954126960187716 0.01826228644645604
! Port Impedance 100.00000000000000 0.00000000000000 100.00000000000000 0.00000000000000
3265140.0 -0.44132167111110565 0.054272715483915115 0.47574868263378867 0.005412507241546565 0.4808116119712544 0.009717309059880134 -0.4955882663729152 0.018169479076999638
! Port Impedance 100.00000000000000 0.00000000000000 100.00000000000000 0.00000000000000
3298086.0 -0.4414943523982616 0.054242049119655224 0.47572803961374793 0.0050643067049889155 0.4807449817270639 0.00931368401370482 -0.49555522883866365 0.018006939397264148
! Port Impedance 100.00000000000000 0.00000000000000 100.00000000000000 0.00000000000000
3331032.0 -0.44145103936721075 0.05451567934634736 0.4757981585496489 0.004582605643434992 0.48074684526695205 0.008837134192321322 -0.4953068187523785 0.017926046768555144
! Port Impedance 100.00000000000000 0.00000000000000 100.00000000000000 0.00000000000000
3363978.0 -0.4410614766521908 0.05460438845255961 0.4756031739582506 0.004153926279291568 0.48044385943746465 0.00844602414998677 -0.4950648140183846 0.017795008865877426
! Port Impedance 100.00000000000000 0.00000000000000 100.00000000000000 0.00000000000000
3396924.0 -0.44104015973771804 0.05463694805806817 0.47581737281979575 0.003715596005856996 0.48076421703526573 0.008007894090456252 -0.49531881736428407 0.017948193934470225
! Port Impedance 100.00000000000000 0.00000000000000 100.00000000000000 0.00000000000000
3429870.0 -0.4415275055432952 0.05521702578898198 0.4759771888592105 0.003123556773963341 0.48096107826764045 0.007236670313809019 -0.4952908752679637 0.017898672515732853
! Port Impedance 100.00000000000000 0.00000000000000 100.00000000000000 0.00000000000000
3462816.0 -0.4410122585495971 0.05483031259926217 0.47575480343260707 0.002904940020176366 0.48061127100307566 0.007025887129888542 -0.4952362265078474 0.017770166831811
! Port Impedance 100.00000000000000 0.00000000000000 100.00000000000000 0.00000000000000
3495762.0 -0.44134672010109866 0.05525259731929214 0.47602083042927545 0.0023462979824859544 0.4810489743034334 0.006585645398851187 -0.4953774833171173 0.01776824857186574
! Port Impedance 100.00000000000000 0.00000000000000 100.00000000000000 0.00000000000000
3528708.0 -0.44066420220254876 0.05564515634173336 0.47560648506023495 0.0018112262289010249 0.4806340172865985 0.00592431889501594 -0.49511187794080647 0.017538555989631242
! Port Impedance 100.00000000000000 0.00000000000000 100.00000000000000 0.00000000000000
3561654.0 -0.4403492924849851 0.055577656182606634 0.47566030602075093 0.0015288555159624238 0.48081891153592743 0.005601622895104926 -0.495210999944278 0.01773929118127208
! Port Impedance 100.00000000000000 0.00000000000000 100.00000000000000 0.00000000000000
3594600.0 -0.4403085950169722 0.055593178185634064 0.47554532331792654 0.0011543101422400916 0.4807530802087093 0.005203421075313163 -0.4952670358429038 0.017807937296914173
! Port Impedance 100.00000000000000 0.00000000000000 100.00000000000000 0.00000000000000
3627546.0 -0.4408489275190248 0.05589728725331797 0.4760253030863781 0.0005648116115534491 0.48101664663888466 0.004657010957247192 -0.4950648113782432 0.01756513506502092
! Port Impedance 100.00000000000000 0.00000000000000 100.00000000000000 0.00000000000000
3660492.0 -0.44049416473974307 0.05575850828773031 0.47565964746791684 0.0003359563817571735 0.4807965166141921 0.0043886680437970225 -0.4953305538695217 0.01774318604724185
! Port Impedance 100.00000000000000 0.00000000000000 100.00000000000000 0.00000000000000
3693438.0 -0.44073446813467076 0.05615976040255309 0.4759252660183829 -0.0001816926801430981 0.48103095903495907 0.0038552115116184888 -0.49520858743578017 0.01760396519076487
! Port Impedance 100.00000000000000 0.00000000000000 100.00000000000000 0.00000000000000
3726384.0 -0.44049742489833194 0.055897989405029755 0.47597507487834717 -0.0004322525286159218 0.4809298243969032 0.0035394418496589525 -0.49497810663290087 0.017495468530201272
! Port Impedance 100.00000000000000 0.00000000000000 100.00000000000000 0.00000000000000
3759330.0 -0.4408430035527117 0.056454884732343766 0.4760020732083936 -0.0010751867055140145 0.4811606752406625 0.003045743452043387 -0.4951934389720068 0.017470919451698454
! Port Impedance 100.00000000000000 0.00000000000000 100.00000000000000 0.00000000000000
3792276.0 -0.4403595009396145 0.0566949775471396 0.47583765563290664 -0.0013166380084756008 0.48089877679916665 0.0026269697541438683 -0.4949614042078538 0.017347683107569588
! Port Impedance 100.00000000000000 0.00000000000000 100.00000000000000 0.00000000000000
3825222.0 -0.4402972081236275 0.05668124102024829 0.4758899838917212 -0.001731245292944778 0.4809686747184723 0.002229226794248133 -0.4947335870858054 0.017350668038222314
! Port Impedance 100.00000000000000 0.00000000000000 100.00000000000000 0.00000000000000
3858168.0 -0.44011827526421154 0.05670288768485307 0.4758293214758317 -0.002156325989840565 0.4809283020328055 0.001873609780305715 -0.4951122665670044 0.017462054007646815
! Port Impedance 100.00000000000000 0.00000000000000 100.00000000000000 0.00000000000000
3891114.0 -0.4402747715639978 0.05732101339250253 0.47585217812805825 -0.0027165619960482228 0.481006335436764 0.00131762120086526 -0.49476278796392487 0.017340309217582957
! Port Impedance 100.00000000000000 0.00000000000000 100.00000000000000 0.00000000000000
3924060.0 -0.44022470951968473 0.057274276305038424 0.4759450962705321 -0.002982451069957036 0.4808271042879597 0.0009453226426890148 -0.49484939713410725 0.017401088537768
! Port Impedance 100.00000000000000 0.00000000000000 100.00000000000000 0.00000000000000
3957006.0 -0.4398584285997347 0.05769223271065998 0.4756658677969444 -0.0034330527678967868 0.48077953583829675 0.0005716290774170185 -0.4947401772958938 0.017223075697229133
! Port Impedance 100.00000000000000 0.00000000000000 100.00000000000000 0.00000000000000
3989952.0 -0.4396303895370544 0.0576550084071428 0.47567854048948865 -0.0037225527893670913 0.4807138933866172 0.0002701537277323906 -0.49457108388820126 0.01720236287113614
! Port Impedance 100.00000000000000 0.00000000000000 100.00000000000000 0.00000000000000
4022898.0 -0.4395833245188071 0.05794173944504096 0.47580185347479387 -0.0042281857185046895 0.48091549398310257 -0.0003973854142252586 -0.49466689862291946 0.017427765043203137
! Port Impedance 100.00000000000000 0.00000000000000 100.00000000000000 0.00000000000000
4055844.0 -0.43959115707665447 0.057696599606999174 0.4757104351347179 -0.004476969685525573 0.4807296583287243 -0.0005447723030644976 -0.4944970135489787 0.017357488627124086
! Port Impedance 100.00000000000000 0.00000000000000 100.00000000000000 0.00000000000000
4088790.0 -0.4398825378326987 0.058382794176078584 0.47582354078958594 -0.005005302895888469 0.48117258264241125 -0.0012014172917047062 -0.4948367223947243 0.017381756556060002
! Port Impedance 100.00000000000000 0.00000000000000 100.00000000000000 0.00000000000000
4121736.0 -0.43965517073636207 0.058045480780147 0.47574422187502907 -0.00522193741724444 0.48079991019157614 -0.001247990296612732 -0.49448020945172677 0.017158274504825453
! Port Impedance 100.00000000000000 0.00000000000000 100.00000000000000 0.00000000000000
4154682.0 -0.43947580853408214 0.0585043247373763 0.47568040479633394 -0.005572113314170518 0.4810000013897857 -0.0017224647739421627 -0.4945482267715119 0.017170090005389965
! Port Impedance 100.00000000000000 0.00000000000000 100.00000000000000 0.00000000000000
4187628.0 -0.4392820422183725 0.05880513181954557 0.4757809246181973 -0.006021889941292541 0.4807943893079756 -0.002073081968253623 -0.49454329590352275 0.017230534183029757
! Port Impedance 100.00000000000000 0.00000000000000 100.00000000000000 0.00000000000000
4220574.0 -0.43938934755979053 0.05884913373524993 0.47579527273023986 -0.006314323454929624 0.480777554755466 -0.0024184275807055907 -0.494281859467703 0.017189952520784903
! Port Impedance 100.00000000000000 0.00000000000000 100.00000000000000 0.00000000000000
4253520.0 -0.4394765577157413 0.058883914431450926 0.47577290963202484 -0.006693368190882221 0.4807358089194562 -0.0028116955915463916 -0.49426680320237454 0.017180779816899146
! Port Impedance 100.00000000000000 0.00000000000000 100.00000000000000 0.00000000000000
4286466.0 -0.43935586993357256 0.059383361556955144 0.47577639417667544 -0.007263157056520057 0.4811436359963161 -0.003555938723548946 -0.49467055110818964 0.017331133063795797
! Port Impedance 100.00000000000000 0.00000000000000 100.00000000000000 0.00000000000000
4319412.0 -0.439047941527884 0.05922040734961962 0.47561417506025355 -0.007432907288622334 0.4807704987534331 -0.003680502821280511 -0.494463046346533 0.01725512223829616
! Port Impedance 100.00000000000000 0.00000000000000 100.00000000000000 0.00000000000000
4352358.0 -0.43932502146623253 0.059556543521631346 0.4757592890761799 -0.007931080548785724 0.48086965911307383 -0.004046669542454505 -0.4942659611537149 0.01731294472569162
! Port Impedance 100.00000000000000 0.00000000000000 100.00000000000000 0.00000000000000
4385304.0 -0.43938529104073387 0.05968944894086106 0.47574875307119413 -0.00833455585286788 0.48100269791391315 -0.004343150153745157 -0.49442403888829184 0.01713949544811776
! Port Impedance 100.00000000000000 0.00000000000000 100.00000000000000 0.00000000000000
4418250.0 -0.43880487627663334 0.06004125328657449 0.47539169981080287 -0.008516287297024725 0.4809312635546562 -0.004926390552243851 -0.49437795084019215 0.017337168071487413
! Port Impedance 100.00000000000000 0.00000000000000 100.00000000000000 0.00000000000000
4451196.0 -0.43895685501194676 0.060090957834434 0.4759120636421103 -0.008762185038409285 0.4809438769630692 -0.005013709854215818 -0.4939987778544109 0.017129552916399976
! Port Impedance 100.00000000000000 0.00000000000000 100.00000000000000 0.00000000000000
4484142.0 -0.43878632589313893 0.060209979757832 0.4757326616950162 -0.009276928754485174 0.4811308190789455 -0.005568184195956334 -0.4942588432653513 0.01737905288155976
! Port Impedance 100.00000000000000 0.00000000000000 100.00000000000000 0.00000000000000
4517088.0 -0.43891931128761097 0.06061648912498632 0.47577677048796385 -0.009677447642845642 0.4810451661245806 -0.006046636247128315 -0.49420751127035484 0.017268098498752292
! Port Impedance 100.00000000000000 0.00000000000000 100.00000000000000 0.00000000000000
4550034.0 -0.4384057894469979 0.06054351603612847 0.4755936941171266 -0.0098840081244044 0.4807671951213632 -0.0061580189156516555 -0.4941271185069832 0.01710194105107215
! Port Impedance 100.00000000000000 0.00000000000000 100.00000000000000 0.00000000000000
4582980.0 -0.4386248034593925 0.06075405482271347 0.47571934220739354 -0.010221664670931834 0.48105121795111455 -0.006539500058111464 -0.4940678878922985 0.017251451847028736
! Port Impedance 100.00000000000000 0.00000000000000 100.00000000000000 0.00000000000000
4615926.0 -0.4391180401143977 0.06144406705383898 0.4757620072188478 -0.010819067637537559 0.48109527090693327 -0.0069944343163250156 -0.49397598183366376 0.01707879504925498
! Port Impedance 100.00000000000000 0.00000000000000 100.00000000000000 0.00000000000000
4648872.0 -0.43817183078227817 0.0610310744643207 0.47541957708659127 -0.010953668893675848 0.4808223272025142 -0.007308322827991659 -0.49399133875348156 0.0172888615537133
! Port Impedance 100.00000000000000 0.00000000000000 100.00000000000000 0.00000000000000
4681818.0 -0.4382317216381524 0.06176269433116434 0.47551585271843144 -0.011384019614482264 0.48078790114413794 -0.007804480274416626 -0.4938896285871621 0.017425028207917824
! Port Impedance 100.00000000000000 0.00000000000000 100.00000000000000 0.00000000000000
4714764.0 -0.43850849331436287 0.062138473390625254 0.4758073076873811 -0.011754626213840994 0.48086761628215446 -0.008039283217757619 -0.49390183664766696 0.01721699428725514
! Port Impedance 100.00000000000000 0.00000000000000 100.00000000000000 0.00000000000000
4747710.0 -0.4388075706477963 0.06193335725946515 0.47562452549532147 -0.011787169374674396 0.48097716306492183 -0.008224351292858511 -0.49385271950703746 0.017193392564396497
! Port Impedance 100.00000000000000 0.00000000000000 100.00000000000000 0.00000000000000
4780656.0 -0.438305422265749 0.06218710794333952 0.475616678905923 -0.012463977948995252 0.48091928372678344 -0.008828421975879434 -0.4938375689415089 0.017279491306125504
! Port Impedance 100.00000000000000 0.00000000000000 100.00000000000000 0.00000000000000
4813602.0 -0.43810028253999245 0.062071340264066056 0.4755649420169017 -0.012793982484909974 0.48109266805460377 -0.00917568726912055 -0.49396526436049804 0.017384717467857608
! Port Impedance 100.00000000000000 0.00000000000000 100.00000000000000 0.00000000000000
4846548.0 -0.4383905844568098 0.06299997957482056 0.47535495180887094 -0.013085345619264999 0.48072759604641446 -0.009471092018566565 -0.49363920690486474 0.01720842784340522
! Port Impedance 100.00000000000000 0.00000000000000 100.00000000000000 0.00000000000000
4879494.0 -0.43808923355537843 0.06276423611092752 0.4757692658314423 -0.013463375126902639 0.4810587923251883 -0.009850451737394933 -0.49375305817369314 0.01726443917315941
! Port Impedance 100.00000000000000 0.00000000000000 100.00000000000000 0.00000000000000
4912440.0 -0.4381997748637243 0.06271143240509018 0.47549352104944054 -0.01359453027200658 0.48074924035000405 -0.010019755927995904 -0.4936861206286142 0.017333890339820773
! Port Impedance 100.00000000000000 0.00000000000000 100.00000000000000 0.00000000000000
4945386.0 -0.43815983554160276 0.06344289398464978 0.47563435094936135 -0.014239472791156473 0.48088767685467326 -0.01056172055588661 -0.49353211219668314 0.017163966804504143
! Port Impedance 100.00000000000000 0.00000000000000 100.00000000000000 0.00000000000000
4978332.0 -0.43819603090079595 0.06358681119337062 0.4758219646389403 -0.014391276669995557 0.48085707802496197 -0.010809522299877038 -0.49337052502435225 0.017312978985962103
! Port Impedance 100.00000000000000 0.00000000000000 100.00000000000000 0.00000000000000
5011278.0 -0.4377033955257898 0.06384016370019849 0.4752996616671288 -0.014749247845203102 0.4807430994277604 -0.011187190974913427 -0.4935594541090222 0.017276704291454423
! Port Impedance 100.00000000000000 0.00000000000000 100.00000000000000 0.00000000000000
5044224.0 -0.437620611945749 0.06411874461610027 0.4752783078286597 -0.015199517005789767 0.4806887813503193 -0.011642238849831722 -0.4934586855083547 0.017389984080175794
! Port Impedance 100.00000000000000 0.00000000000000 100.00000000000000 0.00000000000000
5077170.0 -0.4378340189994344 0.06407699434461583 0.4756101795202567 -0.015351553087137796 0.4806982255726686 -0.01173588991937455 -0.4933204103408413 0.017201632825514564
! Port Impedance 100.00000000000000 0.00000000000000 100.00000000000000 0.00000000000000
5110116.0 -0.43739032318367144 0.06395816009829977 0.4753049569732371 -0.015569342184875497 0.4806713651363219 -0.012065619471154414 -0.4934757798802175 0.01737070281199103
! Port Impedance 100.00000000000000 0.00000000000000 100.00000000000000 0.00000000000000
5143062.0 -0.43770300708025156 0.06450331318514561 0.47552088918503815 -0.0160080717914947 0.4805913670567267 -0.012377459475732655 -0.4931251825887211 0.017304213327335484
! Port Impedance 100.00000000000000 0.00000000000000 100.00000000000000 0.00000000000000
5176008.0 -0.4377609067486161 0.06483863262410043 0.47542648910589347 -0.016335614858617977 0.4806305959091086 -0.012682459182742585 -0.4930463671838525 0.017308019399247844
! Port Impedance 100.00000000000000 0.00000000000000 100.00000000000000 0.00000000000000
5208954.0 -0.4377556181234331 0.06506681182287058 0.4754097797899618 -0.016563905018870596 0.4807981203213344 -0.013045559992420856 -0.4932239418076189 0.01732050680677384
! Port Impedance 100.00000000000000 0.00000000000000 100.00000000000000 0.00000000000000
5241900.0 -0.43736474730253855 0.06549829335833382 0.4752511095496435 -0.017036225862957798 0.48057425887547023 -0.013391546950127578 -0.49309889874713686 0.017231732763980573
! Port Impedance 100.00000000000000 0.00000000000000 100.00000000000000 0.00000000000000
5274846.0 -0.43752136647472106 0.06559220209099995 0.47552789827587344 -0.017456217842431336 0.48063384146578986 -0.013906002661699907 -0.49310839427300635 0.017419865848450143
! Port Impedance 100.00000000000000 0.00000000000000 100.00000000000000 0.00000000000000
5307792.0 -0.4371950483459489 0.06533328985776952 0.475405635068481 -0.017591224984999605 0.4806719925334293 -0.014021896263303482 -0.4931230034614364 0.017238377778571748
! Port Impedance 100.00000000000000 0.00000000000000 100.00000000000000 0.00000000000000
5340738.0 -0.43714558656241864 0.06615029098434319 0.4754426004235546 -0.018090435803901496 0.4807553141940669 -0.014502120373843337 -0.4933238511885461 0.01755772953784778
! Port Impedance 100.00000000000000 0.00000000000000 100.00000000000000 0.00000000000000
5373684.0 -0.43707154037991286 0.0658784270427932 0.4753869035843691 -0.01822587227709003 0.48063770852250987 -0.014688329187549996 -0.4929547950639518 0.017341195072941316
! Port Impedance 100.00000000000000 0.00000000000000 100.00000000000000 0.00000000000000
5406630.0 -0.4373366197363481 0.0663965880805059 0.47548039276432846 -0.018654765994525372 0.4808093125174211 -0.015129267961356031 -0.4931251878694645 0.017551171507908192
! Port Impedance 100.00000000000000 0.00000000000000 100.00000000000000 0.00000000000000
5439576.0 -0.4370537068458643 0.06658279853374405 0.4754161345305837 -0.018967250729113087 0.48075077223614726 -0.01545812764869639 -0.49306982174261116 0.01760391275660234
! Port Impedance 100.00000000000000 0.00000000000000 100.00000000000000 0.00000000000000
5472522.0 -0.43692579467747406 0.06691433575537549 0.4753179459378921 -0.01936546306536905 0.48047407912726603 -0.015688715919776417 -0.49280006756920114 0.017271021668923303
! Port Impedance 100.00000000000000 0.00000000000000 100.00000000000000 0.00000000000000
5505468.0 -0.4365866913494749 0.06723203423370093 0.47512818313134964 -0.01967329024629594 0.48042995135845423 -0.016207933078986447 -0.49276396167371594 0.017420105583760802
! Port Impedance 100.00000000000000 0.00000000000000 100.00000000000000 0.00000000000000
5538414.0 -0.4366198055548398 0.06716792696893358 0.47534860435938675 -0.01997135593422724 0.4805394975767603 -0.01654839501945131 -0.49295126700772585 0.01741862589989829
! Port Impedance 100.00000000000000 0.00000000000000 100.00000000000000 0.00000000000000
5571360.0 -0.4365965231944116 0.06703784088713596 0.47511834499077593 -0.019939340700103333 0.48043949265182967 -0.016434469062743255 -0.492758773057163 0.017579660465385106
! Port Impedance 100.00000000000000 0.00000000000000 100.00000000000000 0.00000000000000
5604306.0 -0.4365405306401736 0.06744956186912268 0.4751665875193609 -0.020351017768179637 0.4803637211144991 -0.01687619569049018 -0.49271821937639887 0.017486679643414223
! Port Impedance 100.00000000000000 0.00000000000000 100.00000000000000 0.00000000000000
5637252.0 -0.43637277434985444 0.0677927233543185 0.4750697033395449 -0.020745431038656018 0.4804172871937036 -0.017398918144252026 -0.4928232204649768 0.01752728817015911
! Port Impedance 100.00000000000000 0.00000000000000 100.00000000000000 0.00000000000000
5670198.0 -0.43654038424707087 0.06816966318946832 0.4752161476329504 -0.021200044078225018 0.4805120549195101 -0.017611487435602702 -0.4924769375012731 0.017487016795379486
! Port Impedance 100.00000000000000 0.00000000000000 100.00000000000000 0.00000000000000
5703144.0 -0.4363479583702911 0.06807764933814422 0.47518829615804287 -0.02136330625867835 0.48061052112680797 -0.01799653441778181 -0.4926773329555938 0.017603594522511666
! Port Impedance 100.00000000000000 0.00000000000000 100.00000000000000 0.00000000000000
5736090.0 -0.4363495232507322 0.06822172796852506 0.4751442448736859 -0.021624273189382013 0.4805209829052066 -0.01823932636899312 -0.4926383932591343 0.017596772557326626
! Port Impedance 100.00000000000000 0.00000000000000 100.00000000000000 0.00000000000000
5769036.0 -0.43636587311296626 0.06897368640141632 0.47510059032925295 -0.022108209480590595 0.48037629446959856 -0.018795448402737926 -0.4924744264323489 0.017589757881872503
! Port Impedance 100.00000000000000 0.00000000000000 100.00000000000000 0.00000000000000
5801982.0 -0.43582735247007254 0.06861039924587561 0.4750426225415668 -0.022239775506371545 0.48030648070888704 -0.018776250794632226 -0.4922561622948375 0.017524666196156023
! Port Impedance 100.00000000000000 0.00000000000000 100.00000000000000 0.00000000000000
5834928.0 -0.4358225141986607 0.06922437993906988 0.4751439625167625 -0.022710858915284883 0.48056957010598184 -0.01946553572190519 -0.49261247051191787 0.017619932364046346
! Port Impedance 100.00000000000000 0.00000000000000 100.00000000000000 0.00000000000000
5867874.0 -0.4359835677093277 0.06948125133810681 0.47510081834396 -0.02297411210985123 0.4803774745306533 -0.019685121081325 -0.4925802425572496 0.017681587877146132
! Port Impedance 100.00000000000000 0.00000000000000 100.00000000000000 0.00000000000000
5900820.0 -0.4359532072070319 0.0696532056852021 0.4750116111749946 -0.02325421813305509 0.48043750320981693 -0.019840713477132798 -0.4922946551841029 0.017638304208088075
! Port Impedance 100.00000000000000 0.00000000000000 100.00000000000000 0.00000000000000
5933766.0 -0.43592793746388003 0.07009153444443186 0.475019102506829 -0.023597654888853473 0.48026423024153103 -0.020180059948603214 -0.4922856215411318 0.017569213965853262
! Port Impedance 100.00000000000000 0.00000000000000 100.00000000000000 0.00000000000000
5966712.0 -0.4356851960501404 0.07029916534399701 0.474912775966076 -0.0239576065887686 0.48011608529114513 -0.02050542004092483 -0.4922232790820824 0.01757694389383676
! Port Impedance 100.00000000000000 0.00000000000000 100.00000000000000 0.00000000000000
5999658.0 -0.4362178639784426 0.07042171934247599 0.47519972887567097 -0.024321828389397764 0.48041717061342865 -0.020809505233724317 -0.4922528614508925 0.017755403603949588
! Port Impedance 100.00000000000000 0.00000000000000 100.00000000000000 0.00000000000000
6032604.0 -0.43533514398068096 0.07011190567778207 0.4749036406925996 -0.024266053458647407 0.4802849781628309 -0.020960037616648667 -0.4921917240253092 0.017699484860164198
! Port Impedance 100.00000000000000 0.00000000000000 100.00000000000000 0.00000000000000
6065550.0 -0.4356961853768596 0.07094485770478313 0.4750426399023576 -0.024697195132758136 0.48013170028968605 -0.021444068307447696 -0.49213003688277784 0.017618394818091736
! Port Impedance 100.00000000000000 0.00000000000000 100.00000000000000 0.00000000000000
6098496.0 -0.43569228372937374 0.07123346763681992 0.47513483693285025 -0.025147870541790365 0.4803260388501034 -0.02183439215576944 -0.4923440054236843 0.017815074232948983
! Port Impedance 100.00000000000000 0.00000000000000 100.00000000000000 0.00000000000000
6131442.0 -0.43549804549805826 0.07145034515424226 0.47495431418569833 -0.025343380566432646 0.4802326891922875 -0.022045751859786085 -0.49186655779158744 0.017790689324250007
! Port Impedance 100.00000000000000 0.00000000000000 100.00000000000000 0.00000000000000
6164388.0 -0.4354069008896983 0.07183144954008823 0.47478700863151674 -0.0257498533785349 0.4799490911231965 -0.022417324957615024 -0.49193837624884773 0.017754302593327186
! Port Impedance 100.00000000000000 0.00000000000000 100.00000000000000 0.00000000000000
6197334.0 -0.4349287215107453 0.07149264643088901 0.4747014421719502 -0.025841255309150178 0.47999764564804703 -0.022510082862769423 -0.49199651547967815 0.017780110203198984
! Port Impedance 100.00000000000000 0.00000000000000 100.00000000000000 0.00000000000000
6230280.0 -0.4352182549392706 0.07184164715314474 0.47483794625280523 -0.02607143208649694 0.47996458081152005 -0.02275381966704399 -0.49176846900969373 0.017932436187783708
! Port Impedance 100.00000000000000 0.00000000000000 100.00000000000000 0.00000000000000
6263226.0 -0.43482514942249184 0.07222877354995806 0.47482685308041916 -0.026749221121368447 0.48008782304774256 -0.02332681212291154 -0.4919680697841423 0.01785140644192064
! Port Impedance 100.00000000000000 0.00000000000000 100.00000000000000 0.00000000000000
6296172.0 -0.435070061830653 0.07269375681425073 0.47476296209865465 -0.026737320388567458 0.48015405935302163 -0.023454722506138777 -0.49186350161297365 0.01788637934396098
! Port Impedance 100.00000000000000 0.00000000000000 100.00000000000000 0.00000000000000
6329118.0 -0.43504139191404323 0.07269635771023113 0.474631373127839 -0.02708889522526225 0.4799099468013829 -0.02385012995849984 -0.4917402483905075 0.017900206430215386
! Port Impedance 100.00000000000000 0.00000000000000 100.00000000000000 0.00000000000000
6362064.0 -0.43493931342833314 0.0728937777274894 0.47487171028076397 -0.027429804465249535 0.4800858639710678 -0.024069660660331456 -0.4917233452805224 0.017840745713061684
! Port Impedance 100.00000000000000 0.00000000000000 100.00000000000000 0.00000000000000
6395010.0 -0.4348828160778815 0.0728296106467 0.47477647069264467 -0.02761713574982297 0.47993799479990473 -0.024213826411161255 -0.49167530418651706 0.017997390906486284
! Port Impedance 100.00000000000000 0.00000000000000 100.00000000000000 0.00000000000000
6427956.0 -0.43504178600958116 0.07326114531903465 0.4746986084556188 -0.027891958941370965 0.4800414896385415 -0.024594477082703226 -0.491670093031632 0.01798787817184374
! Port Impedance 100.00000000000000 0.00000000000000 100.00000000000000 0.00000000000000
6460902.0 -0.43437523822244 0.07364510210839023 0.4745951543196767 -0.02843539737278154 0.4797713469025848 -0.025057878019834515 -0.49194023026164835 0.01799007095129959
! Port Impedance 100.00000000000000 0.00000000000000 100.00000000000000 0.00000000000000
6493848.0 -0.43479464246838345 0.07404007065797184 0.47459574239194857 -0.028521413509928775 0.4800928428069397 -0.025288529535335447 -0.49161538976782737 0.01792812529604717
! Port Impedance 100.00000000000000 0.00000000000000 100.00000000000000 0.00000000000000
6526794.0 -0.4343779742500703 0.07380988931348248 0.4746826657059674 -0.028768518508876555 0.47994762253080914 -0.0255607346904961 -0.4916610255830838 0.01804382181188705
! Port Impedance 100.00000000000000 0.00000000000000 100.00000000000000 0.00000000000000
6559740.0 -0.4343637827974872 0.07419437504252172 0.4745041137892513 -0.02923199914395177 0.4798243343458023 -0.02581823836987539 -0.49161638322716217 0.018049832507574005
! Port Impedance 100.00000000000000 0.00000000000000 100.00000000000000 0.00000000000000
6592686.0 -0.4344345446945843 0.07449121622639124 0.47467650675179224 -0.029454209927573367 0.4799411823781261 -0.02624151198016962 -0.49157899759486917 0.018134299865274487
! Port Impedance 100.00000000000000 0.00000000000000 100.00000000000000 0.00000000000000
6625632.0 -0.4344439590873974 0.07447972718589858 0.4745875156530832 -0.029568731084376014 0.47985566435416244 -0.02623508238133868 -0.4913048809383463 0.018087846989930857
! Port Impedance 100.00000000000000 0.00000000000000 100.00000000000000 0.00000000000000
6658578.0 -0.43426979332476784 0.07516667841395917 0.47445014941439045 -0.03004536726950304 0.479700773249602 -0.02670831771508493 -0.4913450290890487 0.01802123276451912
! Port Impedance 100.00000000000000 0.00000000000000 100.00000000000000 0.00000000000000
6691524.0 -0.43432684558596396 0.07535047320662051 0.4745970089218873 -0.030303250576316512 0.47970218500237793 -0.02697896456882822 -0.4912732252682578 0.017996227196053906
! Port Impedance 100.00000000000000 0.00000000000000 100.00000000000000 0.00000000000000
6724470.0 -0.4337349419275255 0.07552171289284469 0.47431935404214803 -0.030685695344837328 0.47982284355851235 -0.02750352290947876 -0.4914904743232098 0.01824959478189117
! Port Impedance 100.00000000000000 0.00000000000000 100.00000000000000 0.00000000000000
6757416.0 -0.43396226305202634 0.07581527721554615 0.4745206709086669 -0.030946933144401924 0.47981228639312196 -0.02768552690722259 -0.49148867819087266 0.018126603450675415
! Port Impedance 100.00000000000000 0.00000000000000 100.00000000000000 0.00000000000000
6790362.0 -0.4336799265946412 0.07568599690773264 0.4742690285642878 -0.031101367732755788 0.47954569281712567 -0.027817831573830328 -0.4911561880640696 0.01812770326740713
! Port Impedance 100.00000000000000 0.00000000000000 100.00000000000000 0.00000000000000
6823308.0 -0.4337078732568843 0.0761785383747553 0.4744080789468731 -0.031506134473691425 0.47969727138427604 -0.028307641633765014 -0.4911965958098422 0.01825301232932061
! Port Impedance 100.00000000000000 0.00000000000000 100.00000000000000 0.00000000000000
6856254.0 -0.43355495334382155 0.07652256394606856 0.47428913185045674 -0.031770486327778354 0.4796294194321594 -0.02851722520492546 -0.4913868698546029 0.018241296952825403
! Port Impedance 100.00000000000000 0.00000000000000 100.00000000000000 0.00000000000000
6889200.0 -0.4336693226399881 0.0767848650590206 0.47430667476522825 -0.03213016301541977 0.47976495856018564 -0.02888936389945454 -0.49143549068894804 0.018243340173201412
! Port Impedance 100.00000000000000 0.00000000000000 100.00000000000000 0.00000000000000
6922146.0 -0.43489947432509096 0.07846976764260574 0.4744244858781402 -0.035700174333093124 0.4815035541625043 -0.03593220405485289 -0.490422946182936 0.016221079291014177
! Port Impedance 100.00000000000000 0.00000000000000 100.00000000000000 0.00000000000000
6955092.0 -0.43470833209072157 0.07857675638768583 0.4743038680173351 -0.03573952765854256 0.4812452476415462 -0.0360354818308845 -0.4899365414469592 0.016238968917804554
! Port Impedance 100.00000000000000 0.00000000000000 100.00000000000000 0.00000000000000
6988038.0 -0.4347039128507256 0.07883306580206856 0.47430902565852584 -0.03599914266305694 0.48112558221043833 -0.03604685317233498 -0.4900519908219652 0.01599045047092963
! Port Impedance 100.00000000000000 0.00000000000000 100.00000000000000 0.00000000000000
7020984.0 -0.4345318588823094 0.07913333241877432 0.47425516829265424 -0.036368235293775565 0.4811582853584544 -0.036758321022604554 -0.48986113047380997 0.01627865456170533
! Port Impedance 100.00000000000000 0.00000000000000 100.00000000000000 0.00000000000000
7053930.0 -0.43436949910477207 0.07963052339938344 0.47412821875482397 -0.03671890592005818 0.48088176743283517 -0.03681867509406715 -0.48979323043638606 0.016046754104299118
! Port Impedance 100.00000000000000 0.00000000000000 100.00000000000000 0.00000000000000
7086876.0 -0.4345144273944838 0.07940713931767313 0.47425327343749113 -0.036804249831747536 0.4812222465256573 -0.03716646510254103 -0.48983377122598576 0.016271020740086947
! Port Impedance 100.00000000000000 0.00000000000000 100.00000000000000 0.00000000000000
7119822.0 -0.4343133101007328 0.07987884714761964 0.47413583024870953 -0.03712552031454248 0.48120655321761596 -0.03757163633029011 -0.48994666621419225 0.01640430367108183
! Port Impedance 100.00000000000000 0.00000000000000 100.00000000000000 0.00000000000000
7152768.0 -0.434397011114396 0.07970600487878149 0.47414062425274767 -0.0372755960329375 0.4809664803865976 -0.037412919423802656 -0.489767738954144 0.01615808300464825
! Port Impedance 100.00000000000000 0.00000000000000 100.00000000000000 0.00000000000000
7185714.0 -0.43415234585827056 0.08040195990432428 0.4740984796502761 -0.0376286572741233 0.4809406388787385 -0.03805987586845605 -0.48989956299801135 0.016484717266228213
! Port Impedance 100.00000000000000 0.00000000000000 100.00000000000000 0.00000000000000
7218660.0 -0.4340946015157434 0.08035495242199057 0.4740794097922038 -0.037879477189276034 0.48109667656771243 -0.03848838148791084 -0.4897332116778536 0.016388765495552075
! Port Impedance 100.00000000000000 0.00000000000000 100.00000000000000 0.00000000000000
7251606.0 -0.4335018927613578 0.0807315181053104 0.47384508802399333 -0.03818387101301509 0.4808419999494509 -0.03853923716746699 -0.489811013603784 0.016332361403027656
! Port Impedance 100.00000000000000 0.00000000000000 100.00000000000000 0.00000000000000
7284552.0 -0.43366335415706125 0.08096223620897583 0.47399202625512077 -0.038514242278708505 0.4809211021699316 -0.038909040106363146 -0.4896837872494588 0.016323050515787963
! Port Impedance 100.00000000000000 0.00000000000000 100.00000000000000 0.00000000000000
7317498.0 -0.43382127058503356 0.08120006404540278 0.47405832962557465 -0.03870706786802977 0.48072059509156445 -0.039058407577454754 -0.4894579249324261 0.0163374997090255
! Port Impedance 100.00000000000000 0.00000000000000 100.00000000000000 0.00000000000000
7350444.0 -0.4339637422045202 0.08181237917291657 0.47413580527943866 -0.039278104591194234 0.48092957685188537 -0.03950684217770344 -0.4896107204531265 0.01636870672116577
! Port Impedance 100.00000000000000 0.00000000000000 100.00000000000000 0.00000000000000
7383390.0 -0.4334874602783383 0.08179212680919154 0.4739678681110929 -0.03938416369693696 0.4806444222042089 -0.03981085749768706 -0.4895865395806249 0.016448370122047275
! Port Impedance 100.00000000000000 0.00000000000000 100.00000000000000 0.00000000000000
7416336.0 -0.4335270694411204 0.08191569454721759 0.47403149051413884 -0.03962465416969395 0.4808738871097705 -0.0401088911357464 -0.48942870695904156 0.016445977346127454
! Port Impedance 100.00000000000000 0.00000000000000 100.00000000000000 0.00000000000000
7449282.0 -0.43376016050579513 0.08242241410503161 0.4738830081303016 -0.03984655774191157 0.48076531792434796 -0.04021947188646442 -0.4894587550372054 0.016511907492716384
! Port Impedance 100.00000000000000 0.00000000000000 100.00000000000000 0.00000000000000
7482228.0 -0.43334909819261086 0.0824068518926307 0.4738101808963873 -0.040182035345045684 0.48052974470484927 -0.040524124047485635 -0.4893161832705483 0.016598093661732802
! Port Impedance 100.00000000000000 0.00000000000000 100.00000000000000 0.00000000000000
7515174.0 -0.4330560776936041 0.08270664028053804 0.47381461588959206 -0.04043243712119221 0.4806125952432759 -0.040946462097508976 -0.48941573545289074 0.01659716486103143
! Port Impedance 100.00000000000000 0.00000000000000 100.00000000000000 0.00000000000000
7548120.0 -0.43321075496216044 0.08328654984874208 0.4738823063959011 -0.04087735456099674 0.4806483206182109 -0.041272509711007065 -0.48944975758040976 0.016527930477031764
! Port Impedance 100.00000000000000 0.00000000000000 100.00000000000000 0.00000000000000
7581066.0 -0.4331814594667839 0.08304886104369562 0.4738359269794396 -0.04101843210491772 0.4806468521848002 -0.041571996644504686 -0.48926808585507897 0.016742810652835803
! Port Impedance 100.00000000000000 0.00000000000000 100.00000000000000 0.00000000000000
7614012.0 -0.4333986151467275 0.08352902036446115 0.4740090970636986 -0.04136689283145792 0.48073960359557977 -0.04179352070813894 -0.48924776473355724 0.016662963226223494
! Port Impedance 100.00000000000000 0.00000000000000 100.00000000000000 0.00000000000000
7646958.0 -0.43288756104575216 0.08373123142167856 0.4737816161117369 -0.041607867462865794 0.48057105416989193 -0.041959220781149886 -0.4893366156180229 0.016683411842397022
! Port Impedance 100.00000000000000 0.00000000000000 100.00000000000000 0.00000000000000
7679904.0 -0.43317311452976437 0.0840920194574638 0.4737354421240799 -0.04187940544509764 0.48051100624550486 -0.042292375552880165 -0.4891992941281975 0.016751458758906383
! Port Impedance 100.00000000000000 0.00000000000000 100.00000000000000 0.00000000000000
7712850.0 -0.4325092743100185 0.084366046891444 0.47367116161201234 -0.042142144032155035 0.4804079222353896 -0.042514621572524204 -0.4892623834307594 0.016654554528587995
! Port Impedance 100.00000000000000 0.00000000000000 100.00000000000000 0.00000000000000
7745796.0 -0.4327058240162633 0.0842104900116856 0.473522819714168 -0.042052205459174374 0.48035036501883344 -0.042618141984178716 -0.4890230240762726 0.016647263186397504
! Port Impedance 100.00000000000000 0.00000000000000 100.00000000000000 0.00000000000000
7778742.0 -0.432706827540258 0.08485449621552543 0.47373659681401004 -0.04276027226018361 0.4803906720944552 -0.0430888124259203 -0.48909281389096937 0.016614501142547068
! Port Impedance 100.00000000000000 0.00000000000000 100.00000000000000 0.00000000000000
7811688.0 -0.432635931903782 0.0852115785058083 0.4737461217992853 -0.04297364503653288 0.480382767110117 -0.04338666143966413 -0.48907042343874885 0.016597308598006514
! Port Impedance 100.00000000000000 0.00000000000000 100.00000000000000 0.00000000000000
7844634.0 -0.4325923745679561 0.08518925571581117 0.473600342931613 -0.043204260523836205 0.48034420292841573 -0.04366175528614567 -0.4890791421541673 0.016548357047756618
! Port Impedance 100.00000000000000 0.00000000000000 100.00000000000000 0.00000000000000
7877580.0 -0.432370729622321 0.08545575601020726 0.47348722490036715 -0.043421985204494834 0.48027157912636453 -0.04387353924211787 -0.4889541067762901 0.016638760890802348
! Port Impedance 100.00000000000000 0.00000000000000 100.00000000000000 0.00000000000000
7910526.0 -0.43229614823722057 0.08583295524054346 0.47359099972142604 -0.04378718309480365 0.48032878128508677 -0.04425149013523502 -0.4890194378224094 0.01685963256871909
! Port Impedance 100.00000000000000 0.00000000000000 100.00000000000000 0.00000000000000
7943472.0 -0.43204814587681045 0.08611020895248264 0.4734537334748758 -0.04409813025124976 0.48020948777219097 -0.044469197649083816 -0.4891347088622676 0.016817616526418118
! Port Impedance 100.00000000000000 0.00000000000000 100.00000000000000 0.00000000000000
7976418.0 -0.4322901246904833 0.08616636965730923 0.4733189735447732 -0.04414413261853302 0.4800288305888341 -0.04460540345280292 -0.48887137815266196 0.01674157993154493
! Port Impedance 100.00000000000000 0.00000000000000 100.00000000000000 0.00000000000000
8009364.0 -0.43243138368935996 0.08640900356065116 0.4734084634869469 -0.04441263607517256 0.4801770570929561 -0.04508866962768221 -0.48879405276847043 0.016910377816548867
! Port Impedance 100.00000000000000 0.00000000000000 100.00000000000000 0.00000000000000
8042310.0 -0.4321323660484282 0.08656117542211003 0.4733011518120822 -0.04468655823187948 0.4800748549651022 -0.04528518514810032 -0.4888157178822829 0.01686306029844299
! Port Impedance 100.00000000000000 0.00000000000000 100.00000000000000 0.00000000000000
8075256.0 -0.4316903502018894 0.08656739828098338 0.4733716125762057 -0.044963408165484366 0.48005811704243656 -0.04542640293613351 -0.4888468749391239 0.016873265858861855
! Port Impedance 100.00000000000000 0.00000000000000 100.00000000000000 0.00000000000000
8108202.0 -0.43158407348074745 0.08704992886179358 0.47337094755391695 -0.04523818283502158 0.48003201224203834 -0.045827913650249144 -0.4888085926632232 0.01700578357367414
! Port Impedance 100.00000000000000 0.00000000000000 100.00000000000000 0.00000000000000
8141148.0 -0.43184094406924645 0.08723161329155076 0.473337246383184 -0.04553252219701861 0.48013531396991493 -0.04595195532214812 -0.4889239672707623 0.01697493214200917
! Port Impedance 100.00000000000000 0.00000000000000 100.00000000000000 0.00000000000000
8174094.0 -0.4315048815317153 0.08759890382247637 0.4732509584430722 -0.04586851962722728 0.47996666473503913 -0.04633841922585104 -0.4885577494274719 0.01696615922049239
! Port Impedance 100.00000000000000 0.00000000000000 100.00000000000000 0.00000000000000
8207040.0 -0.43184379685326385 0.08798742989301538 0.47335362336121767 -0.046083512797042994 0.479917618847271 -0.04660451843912018 -0.48862698029612317 0.016995058903147862
! Port Impedance 100.00000000000000 0.00000000000000 100.00000000000000 0.00000000000000
8239986.0 -0.431116318598904 0.08790316248929134 0.4730342058217937 -0.046397676432617656 0.47989828807236673 -0.046875533500082806 -0.4886069423319547 0.01680501574614063
! Port Impedance 100.00000000000000 0.00000000000000 100.00000000000000 0.00000000000000
8272932.0 -0.4312467842076982 0.08835373119693116 0.4730072924872769 -0.04663563036073819 0.4798522406736706 -0.047306751968656933 -0.48866246220319826 0.017113006877434816
! Port Impedance 100.00000000000000 0.00000000000000 100.00000000000000 0.00000000000000
8305878.0 -0.431329612774483 0.08860930943684982 0.4731484721278289 -0.0469448091985666 0.4798784588513094 -0.04749069380728866 -0.48860059173472264 0.017088754297943532
! Port Impedance 100.00000000000000 0.00000000000000 100.00000000000000 0.00000000000000
8338824.0 -0.4314990336473938 0.08887766885834425 0.4732156836936801 -0.04720961197291586 0.4800225346613603 -0.04772641225255328 -0.4887663863690649 0.017061758245458688
! Port Impedance 100.00000000000000 0.00000000000000 100.00000000000000 0.00000000000000
8371770.0 -0.4312309323612219 0.08904605478658209 0.473128014587607 -0.047422660885372364 0.4800081368855433 -0.04798077049021669 -0.4886355820019409 0.017112168174342537
! Port Impedance 100.00000000000000 0.00000000000000 100.00000000000000 0.00000000000000
8404716.0 -0.43107897080655017 0.08915836568614863 0.4729591042292944 -0.04757832843228935 0.47968850899800725 -0.04818663050078015 -0.48852562421027734 0.01721889298874383
! Port Impedance 100.00000000000000 0.00000000000000 100.00000000000000 0.00000000000000
8437662.0 -0.43073309143588256 0.08910671270712613 0.47292124050187906 -0.04790093455033395 0.4797395345534847 -0.048441502940351405 -0.48846463998487133 0.017086157801169927
! Port Impedance 100.00000000000000 0.00000000000000 100.00000000000000 0.00000000000000
8470608.0 -0.430621841803863 0.08961282277280212 0.47301924523260125 -0.048219877447285286 0.4797102108648601 -0.04872397254722412 -0.4884480491437895 0.016885024051616845
! Port Impedance 100.00000000000000 0.00000000000000 100.00000000000000 0.00000000000000
8503554.0 -0.4307235177689188 0.09012569049149914 0.47295695043497576 -0.04856090203979476 0.47974163201214315 -0.0491538886240771 -0.4884688916646022 0.017155683466540023
! Port Impedance 100.00000000000000 0.00000000000000 100.00000000000000 0.00000000000000
8536500.0 -0.430788591409964 0.09010996215586983 0.47299652042835094 -0.048741648455215864 0.4797677603128413 -0.04933293149739114 -0.4885127170878932 0.017229156596163725
! Port Impedance 100.00000000000000 0.00000000000000 100.00000000000000 0.00000000000000
8569446.0 -0.43063878823860396 0.09086619317752023 0.4728428871333087 -0.04911432399042824 0.4796273008647398 -0.04960235095406201 -0.4884289291465575 0.017261867675899493
! Port Impedance 100.00000000000000 0.00000000000000 100.00000000000000 0.00000000000000
8602392.0 -0.4303718622074933 0.09074871698966555 0.4726270362529249 -0.0493746670791945 0.47937420439257805 -0.04988010253591613 -0.4883525035132299 0.017217628367820145
! Port Impedance 100.00000000000000 0.00000000000000 100.00000000000000 0.00000000000000
8635338.0 -0.4303005527264274 0.09095869643235696 0.4727411076813548 -0.049566393845964965 0.47938261663528214 -0.05026457309357456 -0.4883694600402202 0.017400112804820317
! Port Impedance 100.00000000000000 0.00000000000000 100.00000000000000 0.00000000000000
8668284.0 -0.43039223581161246 0.09125214110963355 0.4727335252295071 -0.04980114821118788 0.47959460449017904 -0.05068304145746251 -0.4883459685339035 0.01735726448115304
! Port Impedance 100.00000000000000 0.00000000000000 100.00000000000000 0.00000000000000
8701230.0 -0.43016134689843677 0.09138350481907927 0.4726251077408217 -0.050086075325689 0.4795090432034122 -0.05064156903010679 -0.48825724736207 0.017374668274819476
! Port Impedance 100.00000000000000 0.00000000000000 100.00000000000000 0.00000000000000
8734176.0 -0.4304076103137602 0.09194490670231527 0.47263205739353403 -0.05027673887829036 0.4795959097155554 -0.050893523834274125 -0.4882719168447538 0.01727345166664769
! Port Impedance 100.00000000000000 0.00000000000000 100.00000000000000 0.00000000000000
8767122.0 -0.43032227086660507 0.09227418641735548 0.4725638275702492 -0.05066005849343447 0.47955891226698644 -0.051162294930473404 -0.4882831726803204 0.017359031481596093
! Port Impedance 100.00000000000000 0.00000000000000 100.00000000000000 0.00000000000000
8800068.0 -0.42982705176446034 0.09222616001029348 0.47241664767224334 -0.050745267002099984 0.4791330174489026 -0.05141793581889008 -0.4880085320138597 0.017382792582626247
! Port Impedance 100.00000000000000 0.00000000000000 100.00000000000000 0.00000000000000
8833014.0 -0.4300235665639085 0.09248543870702236 0.4727554668938301 -0.05114140448485752 0.47940641168916875 -0.05172779810336448 -0.48817747696547115 0.017298227355214055
! Port Impedance 100.00000000000000 0.00000000000000 100.00000000000000 0.00000000000000
8865960.0 -0.43000601380395254 0.09288451748801553 0.47241438652826473 -0.051352605296375545 0.4792094196506737 -0.05206230834174688 -0.48797376225623673 0.01739818908686844
! Port Impedance 100.00000000000000 0.00000000000000 100.00000000000000 0.00000000000000
8898906.0 -0.42978100630128585 0.09308495110304454 0.4725339796027492 -0.05162375322439368 0.4794111141395699 -0.05226180651285028 -0.48825411704964117 0.017472051671925122
! Port Impedance 100.00000000000000 0.00000000000000 100.00000000000000 0.00000000000000
8931852.0 -0.4295173656478291 0.0935598769352652 0.4724219175040464 -0.051982294462211684 0.4791477127013838 -0.052617079841171185 -0.4880758411967235 0.017501861211552
! Port Impedance 100.00000000000000 0.00000000000000 100.00000000000000 0.00000000000000
8964798.0 -0.42928462396641415 0.09358280901856864 0.4724211505569554 -0.05218345648362578 0.47911300846940114 -0.05283541236980626 -0.48795486590037673 0.017567786295799442
! Port Impedance 100.00000000000000 0.00000000000000 100.00000000000000 0.00000000000000
8997744.0 -0.42980226807941385 0.09374358814811423 0.4723392526678296 -0.05237304679158372 0.47914871352889254 -0.053150581245253986 -0.48803862217925764 0.017542902171554103
! Port Impedance 100.00000000000000 0.00000000000000 100.00000000000000 0.00000000000000
9030690.0 -0.42931882929071025 0.09395450465140713 0.4724226061374017 -0.05268421238697077 0.4790017675736421 -0.053153528901825106 -0.4879513106106209 0.017409721019477645
! Port Impedance 100.00000000000000 0.00000000000000 100.00000000000000 0.00000000000000
9063636.0 -0.42918433758836827 0.09435127001584412 0.47213820990026173 -0.052927123939548654 0.4789979583438831 -0.05369995050670801 -0.48801634831326485 0.017548366882163435
! Port Impedance 100.00000000000000 0.00000000000000 100.00000000000000 0.00000000000000
9096582.0 -0.4291930017126381 0.0944609141994897 0.4723491404575918 -0.05315070639528799 0.47908387801584795 -0.05379340356142902 -0.4880900378302383 0.017677075993316575
! Port Impedance 100.00000000000000 0.00000000000000 100.00000000000000 0.00000000000000
9129528.0 -0.42908694203164405 0.09473191246876343 0.47232567993152175 -0.05357666726194506 0.47899696761423044 -0.05421730112636518 -0.4879793104361653 0.017665899693375432
! Port Impedance 100.00000000000000 0.00000000000000 100.00000000000000 0.00000000000000
9162474.0 -0.42914184658471943 0.09501517811929815 0.4722041641243424 -0.05367504367356914 0.4791106522253768 -0.05452553194070057 -0.4878354673739829 0.01758007542653118
! Port Impedance 100.00000000000000 0.00000000000000 100.00000000000000 0.00000000000000
9195420.0 -0.42906609584646166 0.09512201428017006 0.47225004130940695 -0.05393820024837296 0.47889857203336755 -0.05461649705123325 -0.48788653120997905 0.01758832198836871
! Port Impedance 100.00000000000000 0.00000000000000 100.00000000000000 0.00000000000000
9228366.0 -0.42883721078981585 0.09557280262295366 0.4721228326424163 -0.05431145845791448 0.4786864618367928 -0.05489578411283298 -0.4877130861923157 0.017648978255877697
! Port Impedance 100.00000000000000 0.00000000000000 100.00000000000000 0.00000000000000
9261312.0 -0.42903039305932344 0.09572414802986191 0.4720960629399752 -0.05451212867997671 0.4789224383424585 -0.055359374758479615 -0.48781741949526014 0.01774708446705496
! Port Impedance 100.00000000000000 0.00000000000000 100.00000000000000 0.00000000000000
9294258.0 -0.42853782566051923 0.09605559621644691 0.4720852116621518 -0.05482140579208887 0.47880738934907885 -0.05562592360157317 -0.4878423646247956 0.01789459315960353
! Port Impedance 100.00000000000000 0.00000000000000 100.00000000000000 0.00000000000000
9327204.0 -0.42834757521819733 0.09655405439115422 0.4719113705103567 -0.055142898137910804 0.47871997382549303 -0.05581710051826372 -0.4877767875856506 0.017735083025741807
! Port Impedance 100.00000000000000 0.00000000000000 100.00000000000000 0.00000000000000
9360150.0 -0.42855679180627265 0.09653709270817784 0.47190167065966115 -0.05513789455842788 0.4788717620377109 -0.055902560947785264 -0.4878160348957829 0.01771091847609041
! Port Impedance 100.00000000000000 0.00000000000000 100.00000000000000 0.00000000000000
9393096.0 -0.42823388509206417 0.09667042739202773 0.4719662280276572 -0.05550294883380857 0.47855531707615984 -0.05619711777719619 -0.4877058095976889 0.017814232701032336
! Port Impedance 100.00000000000000 0.00000000000000 100.00000000000000 0.00000000000000
9426042.0 -0.4283902662274489 0.09703522392214711 0.471827537518409 -0.055706871324817886 0.47868145863906 -0.05653043301268376 -0.48765252978701956 0.017800358394432364
! Port Impedance 100.00000000000000 0.00000000000000 100.00000000000000 0.00000000000000
9458988.0 -0.4279830550094954 0.09708290751529809 0.47183942746115226 -0.05603234635847787 0.4785215132357427 -0.056695177320213876 -0.4877170855318434 0.01782244651599784
! Port Impedance 100.00000000000000 0.00000000000000 100.00000000000000 0.00000000000000
9491934.0 -0.42800440110844995 0.09770078758326181 0.4717897086502185 -0.05636824866429589 0.4786315455454619 -0.057346828321986044 -0.48760452393304204 0.01793156041931533
! Port Impedance 100.00000000000000 0.00000000000000 100.00000000000000 0.00000000000000
9524880.0 -0.42787355773731456 0.09763872740563866 0.47184810135332617 -0.056553438215887056 0.4786584330798275 -0.05726261450344612 -0.4877200295289889 0.018077486999070757
! Port Impedance 100.00000000000000 0.00000000000000 100.00000000000000 0.00000000000000
9557826.0 -0.42817995290220984 0.09803798382020178 0.4718252393726582 -0.05677612034409606 0.47867712814102265 -0.05748075864067076 -0.4877108682562559 0.0178714417621298
! Port Impedance 100.00000000000000 0.00000000000000 100.00000000000000 0.00000000000000
9590772.0 -0.42779942667623855 0.09849407077492218 0.4717319939850821 -0.0571371378291492 0.47846369569547625 -0.05792648126750186 -0.4876154230338466 0.018011122973999864
! Port Impedance 100.00000000000000 0.00000000000000 100.00000000000000 0.00000000000000
9623718.0 -0.427691575790179 0.09870482137528659 0.4715739308414307 -0.05735546327370623 0.4784368576382549 -0.05811584615158934 -0.4875689127747571 0.017829816038367054
! Port Impedance 100.00000000000000 0.00000000000000 100.00000000000000 0.00000000000000
9656664.0 -0.4277041148120428 0.09870468701664707 0.4717076227628671 -0.05761497682967189 0.4784356229855489 -0.05827639923120203 -0.48752298080342116 0.01805648511999977
! Port Impedance 100.00000000000000 0.00000000000000 100.00000000000000 0.00000000000000
9689610.0 -0.4272937177476259 0.09879407057346523 0.4715698740471289 -0.057751545910610734 0.47833398666389315 -0.05866639788017982 -0.487489275142563 0.018118641302268416
! Port Impedance 100.00000000000000 0.00000000000000 100.00000000000000 0.00000000000000
9722556.0 -0.42756705983114485 0.09910181494644534 0.47158052855746024 -0.057991679358314153 0.4783226664093411 -0.05876803091591733 -0.4875220638522596 0.018039568238247365
! Port Impedance 100.00000000000000 0.00000000000000 100.00000000000000 0.00000000000000
9755502.0 -0.4271255764557804 0.0993614648574948 0.4715734955047957 -0.05833911532516514 0.4780765889277038 -0.059117689088093506 -0.4874453640641533 0.01813774645565173
! Port Impedance 100.00000000000000 0.00000000000000 100.00000000000000 0.00000000000000
9788448.0 -0.42707190737376666 0.09967367192523745 0.4712383575828843 -0.058622995798860024 0.4780642254429195 -0.05941765500871852 -0.48746782348849294 0.018043813035433717
! Port Impedance 100.00000000000000 0.00000000000000 100.00000000000000 0.00000000000000
9821394.0 -0.42705335622011675 0.09987481980674937 0.47140938919460074 -0.05878030839994249 0.4780107208648555 -0.05957181973297288 -0.4872880274819842 0.018112612793765862
! Port Impedance 100.00000000000000 0.00000000000000 100.00000000000000 0.00000000000000
9854340.0 -0.4271077168688627 0.10027504123507047 0.4713422381580486 -0.059130842508141025 0.47815548249915923 -0.06003379052749549 -0.48725673622626 0.01815353043881999
! Port Impedance 100.00000000000000 0.00000000000000 100.00000000000000 0.00000000000000
9887286.0 -0.42689662426134034 0.10018148518458908 0.47128362294281556 -0.059302759737692064 0.47811727344969 -0.06012404240970842 -0.48751510659733116 0.018273844657267994
! Port Impedance 100.00000000000000 0.00000000000000 100.00000000000000 0.00000000000000
9920232.0 -0.4270775705558661 0.10071462652108135 0.47148658289289563 -0.059443026003162286 0.47822921706007926 -0.06038173121761938 -0.4874489893362241 0.01825176471655983
! Port Impedance 100.00000000000000 0.00000000000000 100.00000000000000 0.00000000000000
9953178.0 -0.4267721461280204 0.10113459167905499 0.4713559851733203 -0.05992971299707511 0.4780740664165057 -0.06069842058046134 -0.4874516677522268 0.018203744551415935
! Port Impedance 100.00000000000000 0.00000000000000 100.00000000000000 0.00000000000000
9986124.0 -0.4267786069878601 0.10123363756422353 0.4711195356279876 -0.06013237403613557 0.4779798831496398 -0.06102328071361651 -0.48736927979244615 0.0182553618524701
! Port Impedance 100.00000000000000 0.00000000000000 100.00000000000000 0.00000000000000
10019070.0 -0.42622983813728466 0.10156090470648835 0.4711746444472884 -0.06045684443387762 0.47785451584701627 -0.06122452964765149 -0.4873094709606007 0.01827286962178721
! Port Impedance 100.00000000000000 0.00000000000000 100.00000000000000 0.00000000000000
10052016.0 -0.42639580159764234 0.10152000315448693 0.47102866555754946 -0.06061018877136471 0.47765724583317865 -0.06145975511571475 -0.48706187168851106 0.018228823208669538
! Port Impedance 100.00000000000000 0.00000000000000 100.00000000000000 0.00000000000000
10084962.0 -0.4263995463019249 0.10183968509435337 0.47114156920186145 -0.06089136818713689 0.4778572449499534 -0.061730136363748286 -0.4873704589784302 0.01840798299365504
! Port Impedance 100.00000000000000 0.00000000000000 100.00000000000000 0.00000000000000
10117908.0 -0.4263469384868017 0.10231358815792527 0.47113489125257935 -0.06114074400733056 0.47792248612645843 -0.061976936232937235 -0.48741630826619087 0.018294907145217705
! Port Impedance 100.00000000000000 0.00000000000000 100.00000000000000 0.00000000000000
10150854.0 -0.4261235286103019 0.10250896734257692 0.47116839918424264 -0.061478242174078365 0.47773790591309884 -0.062328494924471296 -0.48721956969655933 0.018412659778145803
! Port Impedance 100.00000000000000 0.00000000000000 100.00000000000000 0.00000000000000
10183800.0 -0.42606090358090304 0.10277424805262578 0.4707977065506751 -0.06157726220630143 0.4776105106063849 -0.06253804985303248 -0.4872699964009229 0.01842394835645074
! Port Impedance 100.00000000000000 0.00000000000000 100.00000000000000 0.00000000000000
10216746.0 -0.4260494586602607 0.10302960868055816 0.470888928097327 -0.06193818035170114 0.477840387382664 -0.06290316236912431 -0.4873065417800072 0.018574224760334622
! Port Impedance 100.00000000000000 0.00000000000000 100.00000000000000 0.00000000000000
10249692.0 -0.42575479434666347 0.10319312063051793 0.47095650612835205 -0.06209159623625265 0.47772969728504 -0.06298557719623811 -0.4871851775791526 0.01853253708608368
! Port Impedance 100.00000000000000 0.00000000000000 100.00000000000000 0.00000000000000
10282638.0 -0.4259639830446713 0.10330879913249576 0.4710707389902534 -0.062486148211556854 0.4776734355785721 -0.06335779263280854 -0.48730413237980885 0.018631879229974727
! Port Impedance 100.00000000000000 0.00000000000000 100.00000000000000 0.00000000000000
10315584.0 -0.4257866662511167 0.10377348541904978 0.470746365577854 -0.06261592164183839 0.4776671764045767 -0.06346277303620275 -0.48716825363227945 0.01854117789314811
! Port Impedance 100.00000000000000 0.00000000000000 100.00000000000000 0.00000000000000
10348530.0 -0.4256847703837461 0.10363591927193952 0.4707907605308117 -0.06265204142346853 0.4776850572999186 -0.06372537648385404 -0.48724007827063026 0.018478155824359452
! Port Impedance 100.00000000000000 0.00000000000000 100.00000000000000 0.00000000000000
10381476.0 -0.42548359743193837 0.1041516795477461 0.4708660299209376 -0.0631711002537603 0.4774035491519057 -0.06410209351305593 -0.4870024016929033 0.018609240190643105
! Port Impedance 100.00000000000000 0.00000000000000 100.00000000000000 0.00000000000000
10414422.0 -0.42556380082881773 0.10443804043368651 0.4707442287236969 -0.06341468662577533 0.47736398115319434 -0.06438923695251733 -0.48706084283317175 0.018506133117967373
! Port Impedance 100.00000000000000 0.00000000000000 100.00000000000000 0.00000000000000
10447368.0 -0.42537462238459195 0.10462547568010133 0.47067643425458455 -0.06358428529856928 0.47743644249977374 -0.0646697554790509 -0.48707045860034737 0.01861787419694496
! Port Impedance 100.00000000000000 0.00000000000000 100.00000000000000 0.00000000000000
10480314.0 -0.4252553364971499 0.10476529538886863 0.47052474299718217 -0.06388490724996626 0.47736387957555054 -0.06474176197077015 -0.48705331764781595 0.018733059506012433
! Port Impedance 100.00000000000000 0.00000000000000 100.00000000000000 0.00000000000000
10513260.0 -0.4249228866292961 0.10512973929300556 0.47052757508606213 -0.06419431423393805 0.4773351699912801 -0.06511121756060792 -0.4871749104518651 0.018647840367327313
! Port Impedance 100.00000000000000 0.00000000000000 100.00000000000000 0.00000000000000
10546206.0 -0.4246702472846544 0.10552570793361041 0.4703561071660518 -0.0643376624489037 0.47701330025499494 -0.06542175905290722 -0.4869453447271974 0.018724490360027032
! Port Impedance 100.00000000000000 0.00000000000000 100.00000000000000 0.00000000000000
10579152.0 -0.42505020981396185 0.10565343047257875 0.4704807895378509 -0.06457634214482887 0.4773216185842003 -0.06552674968255835 -0.4870412491271696 0.018799884119310547
! Port Impedance 100.00000000000000 0.00000000000000 100.00000000000000 0.00000000000000
10612098.0 -0.4249058752457767 0.10591789053358795 0.4705305672732296 -0.06492129417617666 0.4773219842382682 -0.06586661638813243 -0.48708651532157854 0.018854298873789917
! Port Impedance 100.00000000000000 0.00000000000000 100.00000000000000 0.00000000000000
10645044.0 -0.42444000437201 0.10610608091274044 0.47036026151803473 -0.06510354615685124 0.477215189463326 -0.06612862140505285 -0.4871349141603667 0.018930815276527166
! Port Impedance 100.00000000000000 0.00000000000000 100.00000000000000 0.00000000000000
10677990.0 -0.42462421484536766 0.1064138869972266 0.4702809111047762 -0.06544035348146894 0.4770781583767062 -0.06638018045221322 -0.48694232065572873 0.019004852518481274
! Port Impedance 100.00000000000000 0.00000000000000 100.00000000000000 0.00000000000000
10710936.0 -0.424704812524275 0.1068690404887923 0.4703403911821465 -0.06562487903246106 0.4769865236553455 -0.06678582291329928 -0.4869616899456723 0.01894354651380474
! Port Impedance 100.00000000000000 0.00000000000000 100.00000000000000 0.00000000000000
10743882.0 -0.42418352063666037 0.10702035934196319 0.4702684064074506 -0.06599259884127304 0.47718983506508794 -0.06712581221353002 -0.48695222924477677 0.01899953091360993
! Port Impedance 100.00000000000000 0.00000000000000 100.00000000000000 0.00000000000000
10776828.0 -0.42403402702537996 0.10711984941153681 0.47014183712723295 -0.06601924571088257 0.47695534594447087 -0.06715840669986328 -0.4868760758477485 0.019031347455783457
! Port Impedance 100.00000000000000 0.00000000000000 100.00000000000000 0.00000000000000
10809774.0 -0.42429773137510285 0.10746250576649179 0.47009868328302074 -0.0663571353822264 0.47690140058735364 -0.06736264959535838 -0.4868914577199583 0.019048274761893705
! Port Impedance 100.00000000000000 0.00000000000000 100.00000000000000 0.00000000000000
10842720.0 -0.4242427525046225 0.10756053572938568 0.47002125385256527 -0.06657878142781079 0.47687105184974965 -0.06753922364729242 -0.48688574033332266 0.019045513221264243
! Port Impedance 100.00000000000000 0.00000000000000 100.00000000000000 0.00000000000000
10875666.0 -0.42364190139513336 0.10796435978303473 0.4698019810221705 -0.06683976490271029 0.47649091787576586 -0.06786591872467501 -0.48672519278869714 0.018909142797187296
! Port Impedance 100.00000000000000 0.00000000000000 100.00000000000000 0.00000000000000
10908612.0 -0.42399624977783146 0.10802825309931294 0.4700638185025877 -0.0670820164973554 0.4768438250524226 -0.06817745734303947 -0.4870915391040826 0.01906876630895813
! Port Impedance 100.00000000000000 0.00000000000000 100.00000000000000 0.00000000000000
10941558.0 -0.42362937169360904 0.10842573035139925 0.46997339626691226 -0.06729217075550227 0.47671307253394085 -0.06841023265954119 -0.48685415275435295 0.019181017879774047
! Port Impedance 100.00000000000000 0.00000000000000 100.00000000000000 0.00000000000000
10974504.0 -0.4235252756643983 0.10854800546258694 0.4698877246732255 -0.06755160079480854 0.47676732844110004 -0.06876999560365822 -0.48696848076395477 0.019225562165209754
! Port Impedance 100.00000000000000 0.00000000000000 100.00000000000000 0.00000000000000
11007450.0 -0.42371414697128534 0.10886077059000773 0.46980793355137596 -0.0679143188908883 0.4765826844182905 -0.06887290713973555 -0.4867551960049186 0.019131711059381454
! Port Impedance 100.00000000000000 0.00000000000000 100.00000000000000 0.00000000000000
11040396.0 -0.42331120218254614 0.10892313401201989 0.469873873633475 -0.068048831285042 0.4765930847544765 -0.06908603815452483 -0.48696776996550073 0.019110846974319782
! Port Impedance 100.00000000000000 0.00000000000000 100.00000000000000 0.00000000000000
11073342.0 -0.4235743152544772 0.10948334594103812 0.4698790997817413 -0.06840598622113273 0.47649195490341445 -0.06942231255771576 -0.48674721147661953 0.019244123991193546
! Port Impedance 100.00000000000000 0.00000000000000 100.00000000000000 0.00000000000000
11106288.0 -0.42301947647208055 0.10970792147050601 0.4696366935635682 -0.06859872262512504 0.47625771111686865 -0.06964374188728789 -0.4866338737738124 0.019238711764592027
! Port Impedance 100.00000000000000 0.00000000000000 100.00000000000000 0.00000000000000
11139234.0 -0.4231277445555888 0.10985192219045165 0.4697865557279227 -0.06887750400163986 0.4766272625283024 -0.0699684832743586 -0.48682493569069446 0.019325046108694798
! Port Impedance 100.00000000000000 0.00000000000000 100.00000000000000 0.00000000000000
11172180.0 -0.423088066649003 0.10993032895505321 0.4697886743358051 -0.06899627781685022 0.47646933962546684 -0.07020385166780187 -0.4867393095939154 0.01924574478391875
! Port Impedance 100.00000000000000 0.00000000000000 100.00000000000000 0.00000000000000
11205126.0 -0.42275401064668866 0.11030984615204902 0.46952548350823753 -0.0691183279623964 0.4762331756836191 -0.07039819943058451 -0.48660286341255166 0.019310503051005196
! Port Impedance 100.00000000000000 0.00000000000000 100.00000000000000 0.00000000000000
11238072.0 -0.4226399044497247 0.11069106976941698 0.46951349560109934 -0.06970319805807718 0.476266537055273 -0.07086674154618136 -0.486843039877221 0.0194519511494105
! Port Impedance 100.00000000000000 0.00000000000000 100.00000000000000 0.00000000000000
11271018.0 -0.423248061558539 0.11070722284783427 0.4696620329287039 -0.06983747841175265 0.47637892573738977 -0.07083040805960181 -0.4867534985731118 0.019375359561496344
! Port Impedance 100.00000000000000 0.00000000000000 100.00000000000000 0.00000000000000
11303964.0 -0.422558955350016 0.11098340067520754 0.4695507706783693 -0.06998285360642657 0.47635298196303666 -0.07122324676309996 -0.4867758250817822 0.01939531018097232
! Port Impedance 100.00000000000000 0.00000000000000 100.00000000000000 0.00000000000000
11336910.0 -0.42239385188312717 0.11151267527052319 0.4692836348363052 -0.07026863020046732 0.4758674109314839 -0.07143167932350827 -0.4865343418338635 0.01941033210679367
! Port Impedance 100.00000000000000 0.00000000000000 100.00000000000000 0.00000000000000
11369856.0 -0.42219896099120136 0.11140654868739225 0.46932025553038037 -0.0704692348289309 0.4758814845042976 -0.07165500212353283 -0.4866081738119072 0.019462276101478323
! Port Impedance 100.00000000000000 0.00000000000000 100.00000000000000 0.00000000000000
11402802.0 -0.42235735460617196 0.11170617330124734 0.4695225201273264 -0.07087504792219193 0.47614385400473724 -0.07191328082268783 -0.4865954019211888 0.01929833379642967
! Port Impedance 100.00000000000000 0.00000000000000 100.00000000000000 0.00000000000000
11435748.0 -0.4222236001084243 0.11208601457961512 0.46933420740307114 -0.07101361513820341 0.47600935143793977 -0.07218521897092063 -0.4866072196369453 0.01927267868986576
! Port Impedance 100.00000000000000 0.00000000000000 100.00000000000000 0.00000000000000
11468694.0 -0.421892201077645 0.11235981222651197 0.4693153857398019 -0.07122143423717782 0.4760603065721595 -0.07252447233709786 -0.48674061889310677 0.019561811004808506
! Port Impedance 100.00000000000000 0.00000000000000 100.00000000000000 0.00000000000000
11501640.0 -0.42182706265481296 0.1124919980364887 0.4692410123490188 -0.07149776632092915 0.47604605784181314 -0.07277747588834786 -0.48660644799048214 0.019512387048054875
! Port Impedance 100.00000000000000 0.00000000000000 100.00000000000000 0.00000000000000
11534586.0 -0.4221209244101777 0.11283569670537716 0.46930435913015556 -0.07175645049653254 0.47593519504793225 -0.07302278928148864 -0.486560434818671 0.019637413242958344
! Port Impedance 100.00000000000000 0.00000000000000 100.00000000000000 0.00000000000000
11567532.0 -0.42176327808372727 0.11302279481280274 0.46917408799675675 -0.07210091859175319 0.4758496032105884 -0.07332193199417977 -0.48658754613586985 0.019656548411282483
! Port Impedance 100.00000000000000 0.00000000000000 100.00000000000000 0.00000000000000
11600478.0 -0.4214763367620866 0.1134506762661189 0.46897479577899825 -0.07225610061073877 0.4757100752676049 -0.07347230095073552 -0.4864753340647821 0.01957649036850796
! Port Impedance 100.00000000000000 0.00000000000000 100.00000000000000 0.00000000000000
11633424.0 -0.42166819413376244 0.11347547805521334 0.46909257177290153 -0.0724180831352482 0.47579759179276254 -0.07372542926771544 -0.4865416313290927 0.01964511457807782
! Port Impedance 100.00000000000000 0.00000000000000 100.00000000000000 0.00000000000000
11666370.0 -0.421433821985602 0.11395775657095064 0.4690322124279772 -0.07282570749727704 0.4758450230047436 -0.07414800316354161 -0.4864420774559481 0.01987788771049961
! Port Impedance 100.00000000000000 0.00000000000000 100.00000000000000 0.00000000000000
11699316.0 -0.42146252435139075 0.11421577217735979 0.468806413776524 -0.07315919488444272 0.4756884170393503 -0.07429364501331612 -0.4866085463250594 0.019774022993331444
! Port Impedance 100.00000000000000 0.00000000000000 100.00000000000000 0.00000000000000
11732262.0 -0.4214309777498054 0.11427964576776445 0.4690614006348385 -0.07319440308541754 0.4756966497315435 -0.07443194712935945 -0.48653103518566004 0.019746728959077867
! Port Impedance 100.00000000000000 0.00000000000000 100.00000000000000 0.00000000000000
11765208.0 -0.4210087687230861 0.11449656246525948 0.4688250903322141 -0.07362395671141617 0.47563466118200537 -0.07481889422052314 -0.48651045507297536 0.019833617692176318
! Port Impedance 100.00000000000000 0.00000000000000 100.00000000000000 0.00000000000000
11798154.0 -0.42115951818451763 0.11460561033880019 0.4688322461187334 -0.07365935171989314 0.47561381825713356 -0.074977219820147 -0.48646987224538324 0.019808643512827694
! Port Impedance 100.00000000000000 0.00000000000000 100.00000000000000 0.00000000000000
11831100.0 -0.4206032679499136 0.1150121676135409 0.468755477500129 -0.07393156856369656 0.47543932946382655 -0.07526964211839175 -0.48641018037584166 0.01993537568916971
! Port Impedance 100.00000000000000 0.00000000000000 100.00000000000000 0.00000000000000
11864046.0 -0.4209082022876234 0.11522880456271199 0.4686359775633549 -0.07430341386717396 0.47542612035992665 -0.07544970387010692 -0.4864857465662972 0.01992222009792784
! Port Impedance 100.00000000000000 0.00000000000000 100.00000000000000 0.00000000000000
11896992.0 -0.42069927683278435 0.11527269036060739 0.46851198667502236 -0.07446618803568204 0.47552409265467344 -0.07571617646319628 -0.48660455482112075 0.019852419455678498
! Port Impedance 100.00000000000000 0.00000000000000 100.00000000000000 0.00000000000000
11929938.0 -0.420470303475441 0.11569452092746738 0.4686090974951937 -0.07465942206729295 0.4751377375123159 -0.07587270708495632 -0.4864852429809207 0.020039991441823883
! Port Impedance 100.00000000000000 0.00000000000000 100.00000000000000 0.00000000000000
11962884.0 -0.4204444108326008 0.11568294434515759 0.468599352015477 -0.07489763925291516 0.4752740131119129 -0.07628018369076303 -0.48644710194285556 0.019967812596334768
! Port Impedance 100.00000000000000 0.00000000000000 100.00000000000000 0.00000000000000
11995830.0 -0.4202430655075127 0.11606169303681067 0.4685642153337724 -0.07518107802173128 0.4751321667159538 -0.07646082506062847 -0.48637659357220886 0.01992268660442363
! Port Impedance 100.00000000000000 0.00000000000000 100.00000000000000 0.00000000000000
12028776.0 -0.4199997922784928 0.11651774574884777 0.468391601104193 -0.07543372884901917 0.4752146915114972 -0.0767793563247143 -0.4862328201443094 0.020003631588675876
! Port Impedance 100.00000000000000 0.00000000000000 100.00000000000000 0.00000000000000
12061722.0 -0.4200954380104547 0.11664487040588135 0.4683733986642957 -0.0757031451819768 0.47514525909651206 -0.07684538431262025 -0.48644081332391764 0.02009565962626753
! Port Impedance 100.00000000000000 0.00000000000000 100.00000000000000 0.00000000000000
12094668.0 -0.41988401206204407 0.11680607325712647 0.4683674093554342 -0.07590229336112757 0.47511799054405335 -0.07723468061607015 -0.48630887461004 0.02016605202554656
! Port Impedance 100.00000000000000 0.00000000000000 100.00000000000000 0.00000000000000
12127614.0 -0.4199811160799798 0.1172867656987139 0.46843004256277065 -0.07632561944775228 0.4750777002565721 -0.07751832915015398 -0.4864227145604929 0.02029035230282545
! Port Impedance 100.00000000000000 0.00000000000000 100.00000000000000 0.00000000000000
12160560.0 -0.4199952218112871 0.11752851229882183 0.46832981067728396 -0.07643605512444195 0.47519526716697846 -0.0777494400324447 -0.48650498430128586 0.020100797929497243
! Port Impedance 100.00000000000000 0.00000000000000 100.00000000000000 0.00000000000000
12193506.0 -0.4196936558983133 0.11800075797848769 0.468215486387169 -0.07678596339128327 0.4749499589135765 -0.0780947514906661 -0.48640471502333427 0.020212870564060126
! Port Impedance 100.00000000000000 0.00000000000000 100.00000000000000 0.00000000000000
12226452.0 -0.41964878937501765 0.11805246506392751 0.4682269797654877 -0.07693597906830284 0.47481043189174843 -0.0782430276861566 -0.48621119686699427 0.020243547714813435
! Port Impedance 100.00000000000000 0.00000000000000 100.00000000000000 0.00000000000000
12259398.0 -0.4193367616174976 0.1180567915605385 0.46806207300278857 -0.07709995164806369 0.4748628632868811 -0.07837090063444645 -0.4864045530763299 0.020291542270696638
! Port Impedance 100.00000000000000 0.00000000000000 100.00000000000000 0.00000000000000
12292344.0 -0.41914784667614546 0.1184634174472534 0.4680276376266329 -0.07727952586399003 0.4748176797480058 -0.07869885126257418 -0.486514111815141 0.02044228481138866
! Port Impedance 100.00000000000000 0.00000000000000 100.00000000000000 0.00000000000000
12325290.0 -0.4191420248858805 0.11851982521301276 0.4679214201224431 -0.07761498070600818 0.4747051410421805 -0.07892695022301222 -0.48618279629539773 0.020166088828036687
! Port Impedance 100.00000000000000 0.00000000000000 100.00000000000000 0.00000000000000
12358236.0 -0.41916425440072014 0.11872456974147953 0.46805925284676486 -0.07795308614814271 0.47472393336083385 -0.07926195150665258 -0.48639705853454274 0.020372108670630724
! Port Impedance 100.00000000000000 0.00000000000000 100.00000000000000 0.00000000000000
12391182.0 -0.4193885146023363 0.11930546343321474 0.46801040987205617 -0.07814307640115903 0.4747240771908882 -0.07949505333930046 -0.4861060249559945 0.0202647379720838
! Port Impedance 100.00000000000000 0.00000000000000 100.00000000000000 0.00000000000000
12424128.0 -0.4186120455695591 0.11969446324757879 0.4678022694864062 -0.07845892466939802 0.474557270966077 -0.07982497611801964 -0.48617619664342765 0.020358920234953382
! Port Impedance 100.00000000000000 0.00000000000000 100.00000000000000 0.00000000000000
12457074.0 -0.4188281966702975 0.11965403374401093 0.46790423382653135 -0.07855284547619891 0.47466166332441206 -0.07997164520418698 -0.48634134427460735 0.020373189770900267
! Port Impedance 100.00000000000000 0.00000000000000 100.00000000000000 0.00000000000000
12490020.0 -0.41848382198684214 0.11979922799917644 0.46779648408851676 -0.07882939938757245 0.47446935297541315 -0.08022761080478355 -0.4864050939001755 0.020638176651108554
! Port Impedance 100.00000000000000 0.00000000000000 100.00000000000000 0.00000000000000
12522966.0 -0.41831372516043863 0.11992643094276977 0.467663235889371 -0.07902960390630785 0.474399194514709 -0.08042425826724321 -0.4863588589040644 0.020735298354319646
! Port Impedance 100.00000000000000 0.00000000000000 100.00000000000000 0.00000000000000
12555912.0 -0.41810419235807544 0.12052700219285518 0.46760288677217116 -0.07932547470762749 0.47428304385449466 -0.08069194436434249 -0.48632023675702735 0.02073477123007647
! Port Impedance 100.00000000000000 0.00000000000000 100.00000000000000 0.00000000000000
12588858.0 -0.41811109179752015 0.1206799335477856 0.46762480139011375 -0.07964615330950281 0.4743119460277822 -0.08097405873182179 -0.48637981758358045 0.020633661516712812
! Port Impedance 100.00000000000000 0.00000000000000 100.00000000000000 0.00000000000000
12621804.0 -0.4181256197619905 0.12084928700769572 0.46770042207909623 -0.07992056706813985 0.4743995131635905 -0.08134849347499018 -0.4862683088137915 0.020470020862371166
! Port Impedance 100.00000000000000 0.00000000000000 100.00000000000000 0.00000000000000
12654750.0 -0.4179842385810376 0.12084053489539827 0.46762719407031195 -0.07999388015844888 0.47424512190812884 -0.08136833838567017 -0.48618865113224863 0.020696467805977267
! Port Impedance 100.00000000000000 0.00000000000000 100.00000000000000 0.00000000000000
12687696.0 -0.4179998019538803 0.1215247793717992 0.46735057411127817 -0.0802638853965374 0.4741610794219381 -0.0817203777725041 -0.48599652760406314 0.020578101916415462
! Port Impedance 100.00000000000000 0.00000000000000 100.00000000000000 0.00000000000000
12720642.0 -0.41784655933238196 0.1219631620706689 0.4674606069025909 -0.08061293309178988 0.4742024874054063 -0.08213154248233581 -0.48605959456111353 0.020797204868165338
! Port Impedance 100.00000000000000 0.00000000000000 100.00000000000000 0.00000000000000
12753588.0 -0.41800481219395846 0.1219490460196612 0.4674436696036952 -0.08072300116675851 0.4742048913070214 -0.08216648660264744 -0.4860290880987174 0.020740693886483287
! Port Impedance 100.00000000000000 0.00000000000000 100.00000000000000 0.00000000000000
12786534.0 -0.4175029048066281 0.12204416002811123 0.46726770602364676 -0.08099964687923131 0.4739303773981933 -0.08249692621493185 -0.48616183188139206 0.020857228508049164
! Port Impedance 100.00000000000000 0.00000000000000 100.00000000000000 0.00000000000000
12819480.0 -0.4174900964778814 0.12224050698858924 0.4673555639249173 -0.0811437868884936 0.4740606284528869 -0.08266906294397125 -0.4862530528894043 0.02092383382143372
! Port Impedance 100.00000000000000 0.00000000000000 100.00000000000000 0.00000000000000
12852426.0 -0.41739764816214975 0.12271562158191288 0.4671794859372569 -0.08156572537336257 0.4739655905714929 -0.08300833530795146 -0.4860623680524462 0.02084027654660861
! Port Impedance 100.00000000000000 0.00000000000000 100.00000000000000 0.00000000000000
12885372.0 -0.4174100673861527 0.12281568870025085 0.4671888061828888 -0.08170248964745207 0.4739976845106505 -0.08322917378714752 -0.4860640158093288 0.020880284226972905
! Port Impedance 100.00000000000000 0.00000000000000 100.00000000000000 0.00000000000000
12918318.0 -0.4170443256093922 0.12310978412773804 0.4671381253016188 -0.08201135184691408 0.47388122588645787 -0.08356436461530306 -0.48597190167553656 0.021025670208357865
! Port Impedance 100.00000000000000 0.00000000000000 100.00000000000000 0.00000000000000
12951264.0 -0.4169555729945668 0.12346283891290781 0.46697737948653767 -0.08225657218153681 0.4737146946792271 -0.08372199484729448 -0.4862624193939461 0.02098234118944598
! Port Impedance 100.00000000000000 0.00000000000000 100.00000000000000 0.00000000000000
12984210.0 -0.41714263554030473 0.12349028607200709 0.4670134106369222 -0.08240818889962923 0.4737939394670866 -0.08394343001483995 -0.48611265521693325 0.020971406505639466
! Port Impedance 100.00000000000000 0.00000000000000 100.00000000000000 0.00000000000000
13017156.0 -0.416895035085072 0.12369857336434656 0.4669991476919941 -0.08267543112664254 0.47355787473612276 -0.08429092084790053 -0.48612000238215 0.02112184131425205
! Port Impedance 100.00000000000000 0.00000000000000 100.00000000000000 0.00000000000000
13050102.0 -0.41673712180189704 0.12412709571823916 0.46684805712025235 -0.0829442961599148 0.47366089301115893 -0.08444269154514351 -0.4859753982596369 0.02099979224939305
! Port Impedance 100.00000000000000 0.00000000000000 100.00000000000000 0.00000000000000
13083048.0 -0.4166259172457475 0.12433513411596636 0.4668999663712491 -0.08319838355281485 0.4736684005020201 -0.08464367746457742 -0.48610966471994954 0.020973838113147094
! Port Impedance 100.00000000000000 0.00000000000000 100.00000000000000 0.00000000000000
13115994.0 -0.4164131689495842 0.1248350500527805 0.46691844978930236 -0.08350499425233328 0.47365631307294365 -0.08508756971249343 -0.48608577486200344 0.021152114314927743
! Port Impedance 100.00000000000000 0.00000000000000 100.00000000000000 0.00000000000000
13148940.0 -0.4165471677539294 0.12457195659198556 0.4667660908519702 -0.08348681396487742 0.4735862693927206 -0.08504476733322261 -0.48608225783866343 0.021033581568186074
! Port Impedance 100.00000000000000 0.00000000000000 100.00000000000000 0.00000000000000
13181886.0 -0.4164437607331071 0.12533682150478878 0.4667222382528628 -0.08393659938577336 0.4734238992352051 -0.08553503434085304 -0.4860076233474155 0.021173730825166052
! Port Impedance 100.00000000000000 0.00000000000000 100.00000000000000 0.00000000000000
13214832.0 -0.4162724169743291 0.12532648530982302 0.46678361662736095 -0.08416104526845006 0.4735266843520339 -0.08578168698964735 -0.4859746029056229 0.02112844647568409
! Port Impedance 100.00000000000000 0.00000000000000 100.00000000000000 0.00000000000000
13247778.0 -0.41626619044525115 0.12529309502653313 0.46662143397342704 -0.0841634304709271 0.4733801901158604 -0.08574523805095559 -0.4861089291516524 0.021196155749220656
! Port Impedance 100.00000000000000 0.00000000000000 100.00000000000000 0.00000000000000
13280724.0 -0.41611396772406584 0.12590384214986824 0.46663421201819316 -0.08449922073740619 0.47340406972440546 -0.08609731471979647 -0.4859462225330321 0.02121958371937135
! Port Impedance 100.00000000000000 0.00000000000000 100.00000000000000 0.00000000000000
13313670.0 -0.41558228871740127 0.12577749415338174 0.46638783786560795 -0.08476894528975146 0.47298627503788354 -0.08623564773028806 -0.4859454706446739 0.02134453044057915
! Port Impedance 100.00000000000000 0.00000000000000 100.00000000000000 0.00000000000000
13346616.0 -0.41560908133138763 0.12637136945713764 0.46641991350418865 -0.08511060081490518 0.4733343748764466 -0.08671992898256067 -0.4860401242619058 0.02142678840205378
! Port Impedance 100.00000000000000 0.00000000000000 100.00000000000000 0.00000000000000
13379562.0 -0.41557110147026144 0.12631488166894225 0.46638856663397604 -0.08525911148118862 0.4730118864383498 -0.08682078985084878 -0.4860367763259254 0.021522630909982923
! Port Impedance 100.00000000000000 0.00000000000000 100.00000000000000 0.00000000000000
13412508.0 -0.41564695538834096 0.12691227554142548 0.46640765750464575 -0.08542228051859807 0.47315625235163217 -0.08708968826687258 -0.4858311251386377 0.021418262426393567
! Port Impedance 100.00000000000000 0.00000000000000 100.00000000000000 0.00000000000000
13445454.0 -0.4151998409805673 0.12688332554415946 0.466231339264736 -0.08574462650031604 0.4727939844447187 -0.08721700040636082 -0.4859682906118713 0.021503294552821642
! Port Impedance 100.00000000000000 0.00000000000000 100.00000000000000 0.00000000000000
13478400.0 -0.41522070005855793 0.127369713252372 0.46638448474366895 -0.08615099745382597 0.4730594570514394 -0.0877676067237833 -0.4860745388088153 0.0214585299277653
! Port Impedance 100.00000000000000 0.00000000000000 100.00000000000000 0.00000000000000
13511346.0 -0.4151256036002926 0.1276756065270803 0.4661435165647313 -0.08636811608308559 0.472865879681884 -0.08787932352218025 -0.48586320608933775 0.02157329808217952
! Port Impedance 100.00000000000000 0.00000000000000 100.00000000000000 0.00000000000000
13544292.0 -0.4153212508707318 0.12769223622318987 0.4664301290612422 -0.0866365102197271 0.4730192117233454 -0.08824601146454303 -0.48605871865224476 0.021542704720278225
! Port Impedance 100.00000000000000 0.00000000000000 100.00000000000000 0.00000000000000
13577238.0 -0.41498781357198045 0.1281694862279341 0.4661858073538276 -0.086787632453143 0.47291304238729176 -0.08849002624032623 -0.4859820192160984 0.021659924791940694
! Port Impedance 100.00000000000000 0.00000000000000 100.00000000000000 0.00000000000000
13610184.0 -0.41476621083404575 0.12830556836380747 0.4661214276203369 -0.08698316939482365 0.4727431582140387 -0.08851420292502757 -0.4858612498774283 0.021569446496396208
! Port Impedance 100.00000000000000 0.00000000000000 100.00000000000000 0.00000000000000
13643130.0 -0.4143837376879103 0.1284296248974811 0.46597087441382173 -0.08716262978726563 0.4725604165428392 -0.08894753419597587 -0.4858779493021019 0.021704356763086605
! Port Impedance 100.00000000000000 0.00000000000000 100.00000000000000 0.00000000000000
13676076.0 -0.4145503985818755 0.12862890460983428 0.4660530392892943 -0.08744556201910467 0.47293303616842386 -0.08905166527385881 -0.4860430808147786 0.021634888303398686
! Port Impedance 100.00000000000000 0.00000000000000 100.00000000000000 0.00000000000000
13709022.0 -0.4143707099119507 0.12903734422166915 0.46593275087153974 -0.08782515445937407 0.4727155167586937 -0.08939136493104273 -0.4859396880897507 0.02179833981782543
! Port Impedance 100.00000000000000 0.00000000000000 100.00000000000000 0.00000000000000
13741968.0 -0.41434385207931834 0.12911637167788054 0.46588078260344956 -0.08783652418209412 0.47254541292715396 -0.08936397723286443 -0.48577158394314635 0.021699707959970067
! Port Impedance 100.00000000000000 0.00000000000000 100.00000000000000 0.00000000000000
13774914.0 -0.41412810436746594 0.12902991544411058 0.465831944783977 -0.08805010893153849 0.4724611710439649 -0.08962311010808592 -0.48579061151932895 0.021702919581995432
! Port Impedance 100.00000000000000 0.00000000000000 100.00000000000000 0.00000000000000
13807860.0 -0.4141179864831347 0.12948801036219068 0.4658264456593042 -0.08843890448764474 0.47233160342909714 -0.08998066081024819 -0.48565943057404576 0.021719667783850788
! Port Impedance 100.00000000000000 0.00000000000000 100.00000000000000 0.00000000000000
13840806.0 -0.4141205037542609 0.12998891498937112 0.4657741569682513 -0.08868298211054486 0.47263162396269687 -0.09066299873056229 -0.48602795843014757 0.02197507264596676
! Port Impedance 100.00000000000000 0.00000000000000 100.00000000000000 0.00000000000000
13873752.0 -0.4135574657662718 0.13007576841133223 0.4657046168441228 -0.08880202442407945 0.47223506602764154 -0.09046178001503605 -0.48577966863000543 0.021973199451630874
! Port Impedance 100.00000000000000 0.00000000000000 100.00000000000000 0.00000000000000
13906698.0 -0.41343366112812974 0.13020338716916854 0.4655224972579064 -0.089012868986647 0.47216042094056077 -0.09054198975673056 -0.4856994431514509 0.021890214118911948
! Port Impedance 100.00000000000000 0.00000000000000 100.00000000000000 0.00000000000000
13939644.0 -0.41360176002746746 0.13060439713565922 0.46563194099811533 -0.08927378320560851 0.4721892123112966 -0.09091525216760815 -0.48583669791628203 0.021886602015497126
! Port Impedance 100.00000000000000 0.00000000000000 100.00000000000000 0.00000000000000
13972590.0 -0.4134913588055309 0.13093648390247214 0.4655095175349345 -0.08968239720958683 0.47210190918547457 -0.09122797162276144 -0.48570306197768326 0.021897990339966387
! Port Impedance 100.00000000000000 0.00000000000000 100.00000000000000 0.00000000000000
14005536.0 -0.41338212330949253 0.13127253315918014 0.46535033627179 -0.08983015431798205 0.47220732504826446 -0.09178203370801721 -0.4860094601582473 0.022155635073601052
! Port Impedance 100.00000000000000 0.00000000000000 100.00000000000000 0.00000000000000
14038482.0 -0.4132392126600893 0.13144688113978426 0.46546950861682224 -0.09003611769842876 0.47218495508666414 -0.09175884938724724 -0.4856971020898713 0.02211346481195698
! Port Impedance 100.00000000000000 0.00000000000000 100.00000000000000 0.00000000000000
14071428.0 -0.4132788696105802 0.13157243525435472 0.4654699727512487 -0.09023366079900846 0.47246756805915757 -0.09207011791057365 -0.48609489994930855 0.022197105519020162
! Port Impedance 100.00000000000000 0.00000000000000 100.00000000000000 0.00000000000000
14104374.0 -0.41319111977989287 0.13193752324188632 0.4652753613778466 -0.09054144266086332 0.47186642932330897 -0.0920497389882567 -0.48580761408449746 0.02204245687573282
! Port Impedance 100.00000000000000 0.00000000000000 100.00000000000000 0.00000000000000
14137320.0 -0.4130403709677695 0.1320884052066378 0.4652902306148595 -0.09071989082763027 0.4719746207952095 -0.09247459526878851 -0.48590218795732554 0.022149303563531807
! Port Impedance 100.00000000000000 0.00000000000000 100.00000000000000 0.00000000000000
14170266.0 -0.412772523346301 0.13225792060147357 0.4651961632720498 -0.09091848990623697 0.47179801471934624 -0.09271001599648507 -0.4858737564792249 0.022317935301822397
! Port Impedance 100.00000000000000 0.00000000000000 100.00000000000000 0.00000000000000
14203212.0 -0.41277507535121405 0.13252914108445868 0.4651534023380231 -0.09122084240750426 0.471640736627604 -0.09278572061062987 -0.48565059612070594 0.022129798338821925
! Port Impedance 100.00000000000000 0.00000000000000 100.00000000000000 0.00000000000000
14236158.0 -0.41232643234863764 0.13297971521890772 0.4649874185098021 -0.0914379634431057 0.4717052364370846 -0.0935551589282499 -0.48585128927639587 0.022514702200406064
! Port Impedance 100.00000000000000 0.00000000000000 100.00000000000000 0.00000000000000
14269104.0 -0.41208322839028433 0.13295606374952076 0.4648715611381731 -0.09162892990532244 0.47158765507853384 -0.09349075985015151 -0.48570641891847505 0.022478568957784717
! Port Impedance 100.00000000000000 0.00000000000000 100.00000000000000 0.00000000000000
14302050.0 -0.41209609082791154 0.1333657914492101 0.464797928201425 -0.09198623449122179 0.471752665360594 -0.09373026428858623 -0.48598795420152885 0.022360623253334946
! Port Impedance 100.00000000000000 0.00000000000000 100.00000000000000 0.00000000000000
14334996.0 -0.41187432905684607 0.1334802577280075 0.46477386825763345 -0.09213520303523012 0.47165875514052213 -0.09392603640584375 -0.4858690261949382 0.022520038561569294
! Port Impedance 100.00000000000000 0.00000000000000 100.00000000000000 0.00000000000000
14367942.0 -0.41205111526410504 0.13378140289515034 0.4648937645794753 -0.09241471655785938 0.47133456669181684 -0.09406833213829233 -0.48553376463727355 0.022284101527235336
! Port Impedance 100.00000000000000 0.00000000000000 100.00000000000000 0.00000000000000
14400888.0 -0.4117928745590153 0.1341464102185034 0.46471274354096903 -0.09273188474910904 0.4713819525846258 -0.09448224868808845 -0.4856151227973037 0.022391467461201065
! Port Impedance 100.00000000000000 0.00000000000000 100.00000000000000 0.00000000000000
14433834.0 -0.41128034449422346 0.13424853136337278 0.4646484063428774 -0.09297036616003382 0.4712137210137536 -0.09490573592374799 -0.4857546070868037 0.022576559104653796
! Port Impedance 100.00000000000000 0.00000000000000 100.00000000000000 0.00000000000000
14466780.0 -0.41172620319850217 0.13427923057816477 0.4647912093034121 -0.09306540560486534 0.47157770515733277 -0.09490876029817248 -0.4859930543768554 0.02252123134117382
! Port Impedance 100.00000000000000 0.00000000000000 100.00000000000000 0.00000000000000
14499726.0 -0.41172835615397013 0.13475919406141723 0.46481841412825015 -0.09344309788539741 0.47174792923796 -0.0952502340836695 -0.48609393766646647 0.022642865631784626
! Port Impedance 100.00000000000000 0.00000000000000 100.00000000000000 0.00000000000000
14532672.0 -0.4114930557098569 0.13502772011618994 0.4647465623503841 -0.09365875130399579 0.4715229448254543 -0.09556566014907523 -0.4859602881938896 0.022840260696624454
! Port Impedance 100.00000000000000 0.00000000000000 100.00000000000000 0.00000000000000
14565618.0 -0.41125731618284334 0.13499279858376417 0.4645803024243328 -0.09369891511440426 0.4711545711679349 -0.09542942446495792 -0.48550218738800077 0.022499884288432536
! Port Impedance 100.00000000000000 0.00000000000000 100.00000000000000 0.00000000000000
14598564.0 -0.4109422555700256 0.13538729485323367 0.4643453616306966 -0.09404268863213736 0.4710305712051046 -0.09588080261962727 -0.4857942271804203 0.022559072230994955
! Port Impedance 100.00000000000000 0.00000000000000 100.00000000000000 0.00000000000000
14631510.0 -0.41119036168782397 0.13569484578890065 0.464582450884957 -0.0943986814614631 0.4712795069161359 -0.0962298755860393 -0.4858266278348668 0.02271500924122842
! Port Impedance 100.00000000000000 0.00000000000000 100.00000000000000 0.00000000000000
14664456.0 -0.41069803348960404 0.13610656844817093 0.4643336348073487 -0.0945727818214107 0.47096178468782646 -0.09656625603328303 -0.4856443844112135 0.022771145115634286
! Port Impedance 100.00000000000000 0.00000000000000 100.00000000000000 0.00000000000000
14697402.0 -0.41083988765745294 0.13607802552925594 0.4644030329053433 -0.09485456356153475 0.471275900776884 -0.09663213973042109 -0.4859417461145175 0.023047506416840138
! Port Impedance 100.00000000000000 0.00000000000000 100.00000000000000 0.00000000000000
14730348.0 -0.4105997449891532 0.13641851692121174 0.4641713204468033 -0.09497307647425496 0.4707612855578501 -0.09679881625762989 -0.48545704384265514 0.02278167088180308
! Port Impedance 100.00000000000000 0.00000000000000 100.00000000000000 0.00000000000000
14763294.0 -0.41036320502001533 0.13668425940944168 0.46413397112772564 -0.09525026879215037 0.4707539937118419 -0.09706781037227126 -0.48549100693301617 0.02279755412530514
! Port Impedance 100.00000000000000 0.00000000000000 100.00000000000000 0.00000000000000
14796240.0 -0.41044463040252044 0.1368789083942429 0.46433109266071404 -0.09546526568294077 0.47102863633472764 -0.09744146966865855 -0.4860358634145926 0.023046070630148335
! Port Impedance 100.00000000000000 0.00000000000000 100.00000000000000 0.00000000000000
14829186.0 -0.4101057629532545 0.13703703740538012 0.46402766084616176 -0.09574922909257863 0.47054923400588333 -0.09752842315558892 -0.4853223266021117 0.022907164642614983
! Port Impedance 100.00000000000000 0.00000000000000 100.00000000000000 0.00000000000000
14862132.0 -0.4097665458359423 0.1372899426106845 0.4638263373387693 -0.09591442725271017 0.47052209878652784 -0.09801903347741331 -0.48572160522807195 0.02315074273931291
! Port Impedance 100.00000000000000 0.00000000000000 100.00000000000000 0.00000000000000
14895078.0 -0.4097514164295064 0.13746326393346942 0.4638301484927546 -0.0960818605307143 0.4708004485940848 -0.09807603993292233 -0.4858636585636133 0.023140022952388314
! Port Impedance 100.00000000000000 0.00000000000000 100.00000000000000 0.00000000000000
14928024.0 -0.40984399409945405 0.13767030117918627 0.4638295000126478 -0.0963278354087242 0.47039012115504564 -0.09814038406481354 -0.48545514979188814 0.02291867559058852
! Port Impedance 100.00000000000000 0.00000000000000 100.00000000000000 0.00000000000000
14960970.0 -0.40949196731930904 0.13811772846478668 0.46388383916997344 -0.09655602655079504 0.47059895692957787 -0.09854007496589345 -0.48578152779320066 0.023034005806301425
! Port Impedance 100.00000000000000 0.00000000000000 100.00000000000000 0.00000000000000
14993916.0 -0.4094695852185042 0.1382448688201362 0.46375255862316556 -0.09681875637489817 0.4703828369786808 -0.09888754781771215 -0.4857162688932382 0.023187370213375864
! Port Impedance 100.00000000000000 0.00000000000000 100.00000000000000 0.00000000000000
15026862.0 -0.4096538417369181 0.13887618478383013 0.4638727904746713 -0.09730872981741258 0.4704384877066188 -0.09925071279613615 -0.4856955362806366 0.023196363178517303
! Port Impedance 100.00000000000000 0.00000000000000 100.00000000000000 0.00000000000000
15059808.0 -0.40930622199355776 0.1388325239104337 0.4635766317652975 -0.09721564705839782 0.47041135039951976 -0.0994014963136055 -0.4859498699632935 0.02344116956718008
! Port Impedance 100.00000000000000 0.00000000000000 100.00000000000000 0.00000000000000
15092754.0 -0.40951247800729307 0.13909260134551185 0.4638433741178034 -0.09765528415652922 0.47053737461708917 -0.0996538988272288 -0.48586167688437876 0.023341575364720077
! Port Impedance 100.00000000000000 0.00000000000000 100.00000000000000 0.00000000000000
15125700.0 -0.40930168832288233 0.13932059315965062 0.46377983273975076 -0.09796498732223967 0.4705585937622163 -0.09989533927337882 -0.4858813699824039 0.023342043120746492
! Port Impedance 100.00000000000000 0.00000000000000 100.00000000000000 0.00000000000000
15158646.0 -0.4089338971826336 0.13953713095603176 0.46349700290122575 -0.09804882058019684 0.47018999575564124 -0.09992721142433669 -0.48559530937667 0.023237855300860165
! Port Impedance 100.00000000000000 0.00000000000000 100.00000000000000 0.00000000000000
15191592.0 -0.4090131866750619 0.1395631527805739 0.4634408451662547 -0.09814477263153909 0.47008538185343085 -0.10006091947055923 -0.4855825665955914 0.023243913002865657
! Port Impedance 100.00000000000000 0.00000000000000 100.00000000000000 0.00000000000000
15224538.0 -0.4084524830287287 0.14001107838631244 0.4632185910718085 -0.09839519869366409 0.46986232621563384 -0.100467266590502 -0.4856929192265769 0.023310902764469166
! Port Impedance 100.00000000000000 0.00000000000000 100.00000000000000 0.00000000000000
15257484.0 -0.4087179269253953 0.14046272685342936 0.4635115693341688 -0.09891964036108543 0.4701555427178233 -0.10100559635475333 -0.48578498710687956 0.023570709575838532
! Port Impedance 100.00000000000000 0.00000000000000 100.00000000000000 0.00000000000000
15290430.0 -0.4080646577863614 0.14034696381088863 0.46315195781456253 -0.09887135861152048 0.4698494087121972 -0.10085497694940253 -0.4856336548187752 0.023322838668396784
! Port Impedance 100.00000000000000 0.00000000000000 100.00000000000000 0.00000000000000
15323376.0 -0.40799411914185457 0.140805149873473 0.4631612252638593 -0.09918893698197181 0.46989168014977883 -0.10119050014919878 -0.48570180216837644 0.02356086178920968
! Port Impedance 100.00000000000000 0.00000000000000 100.00000000000000 0.00000000000000
15356322.0 -0.4079951692971203 0.14092267801146038 0.4630736330911832 -0.09940375713830192 0.4695317105741909 -0.10132513308196767 -0.48546375244948115 0.023522719404985105
! Port Impedance 100.00000000000000 0.00000000000000 100.00000000000000 0.00000000000000
15389268.0 -0.4078556605328248 0.14108136370484406 0.46304695008357755 -0.09958730651366797 0.46962637848024114 -0.10153001158405889 -0.4854557079286857 0.023495947844623593
! Port Impedance 100.00000000000000 0.00000000000000 100.00000000000000 0.00000000000000
15422214.0 -0.4078331898617804 0.1413985021601387 0.4629703265622779 -0.09986944421536184 0.46960637087012325 -0.10177317029268662 -0.48552928374560633 0.0234573608339936
! Port Impedance 100.00000000000000 0.00000000000000 100.00000000000000 0.00000000000000
15455160.0 -0.40777120740525885 0.14191489145246908 0.4630755010189979 -0.10022357347267197 0.46960152783258724 -0.10216238955052265 -0.4854532242087146 0.023689603559385944
! Port Impedance 100.00000000000000 0.00000000000000 100.00000000000000 0.00000000000000
15488106.0 -0.40727141328338956 0.14182065580488243 0.46289912090339314 -0.10033770889770602 0.46941371627035616 -0.10227085128256067 -0.48550712547196817 0.023759494909404662
! Port Impedance 100.00000000000000 0.00000000000000 100.00000000000000 0.00000000000000
15521052.0 -0.4073748867251584 0.14183557785994583 0.46279580801271153 -0.1004944114892149 0.46942179200217343 -0.10254033301456611 -0.4856049559698795 0.02379217569194978
! Port Impedance 100.00000000000000 0.00000000000000 100.00000000000000 0.00000000000000
15553998.0 -0.4072657011118771 0.14217606044738743 0.4627817021127162 -0.10083035191174984 0.46939347100745843 -0.10291875940270268 -0.4856333049412438 0.023811067817881795
! Port Impedance 100.00000000000000 0.00000000000000 100.00000000000000 0.00000000000000
15586944.0 -0.40696694547043155 0.1427081877804711 0.46263997381329913 -0.10112469152904938 0.4692666657798428 -0.10310772734882426 -0.48545244714168195 0.023641523317492717
! Port Impedance 100.00000000000000 0.00000000000000 100.00000000000000 0.00000000000000
15619890.0 -0.40679916995958376 0.14271051843540086 0.46252985017169823 -0.10122819073125308 0.4693114758859815 -0.10348853287665233 -0.48553641890762433 0.02402619490828759
! Port Impedance 100.00000000000000 0.00000000000000 100.00000000000000 0.00000000000000
15652836.0 -0.4072464283964195 0.14308343782649066 0.4627594789453249 -0.10159607188472401 0.4695268873225976 -0.10356118754571181 -0.4855842844355654 0.023841259180135438
! Port Impedance 100.00000000000000 0.00000000000000 100.00000000000000 0.00000000000000
15685782.0 -0.4069188574930614 0.14349935616055226 0.46261486185640577 -0.10183866822023445 0.4693426448140231 -0.10394354384035323 -0.48562342975909345 0.023920303777086302
! Port Impedance 100.00000000000000 0.00000000000000 100.00000000000000 0.00000000000000
15718728.0 -0.40666410088050536 0.14339625701421987 0.46253780596294525 -0.10198627528280742 0.46903212693569907 -0.10394874119082902 -0.48540011523096743 0.02381601394459002
! Port Impedance 100.00000000000000 0.00000000000000 100.00000000000000 0.00000000000000
15751674.0 -0.40643290407614 0.1438735299605336 0.46226106293188507 -0.10222151691909663 0.46892154181329965 -0.10429016694575483 -0.48565811888132787 0.023885405117024083
! Port Impedance 100.00000000000000 0.00000000000000 100.00000000000000 0.00000000000000
15784620.0 -0.40623109806275154 0.14403061041963325 0.46213423427686634 -0.10231857855044954 0.4688485445906114 -0.10463716942199532 -0.4856104048509133 0.02426055262527229
! Port Impedance 100.00000000000000 0.00000000000000 100.00000000000000 0.00000000000000
15817566.0 -0.40663288352505683 0.14433410044257158 0.46252556004472356 -0.10271135932973496 0.4692913708662723 -0.10479470738673373 -0.4854723580996548 0.0240284192524374
! Port Impedance 100.00000000000000 0.00000000000000 100.00000000000000 0.00000000000000
15850512.0 -0.40636720692186423 0.14449003618291797 0.46236836265217873 -0.10291121026272598 0.46891507329302134 -0.1049079000390595 -0.4854903522875263 0.023981467972358846
! Port Impedance 100.00000000000000 0.00000000000000 100.00000000000000 0.00000000000000
15883458.0 -0.4058451328143284 0.1447087851278976 0.46214807029539107 -0.10308489079334766 0.4686219116751191 -0.10537512876861269 -0.48566164069374057 0.024350089394065265
! Port Impedance 100.00000000000000 0.00000000000000 100.00000000000000 0.00000000000000
15916404.0 -0.4057245297388703 0.1450704534434596 0.4620365661490956 -0.10350003494809346 0.46854566071932724 -0.10539988993041624 -0.48548046850409937 0.024021321099782424
! Port Impedance 100.00000000000000 0.00000000000000 100.00000000000000 0.00000000000000
15949350.0 -0.40563570842114466 0.14531480774750116 0.4618086136459757 -0.10352419794542107 0.46860375636394835 -0.1057817380005797 -0.48562821158437275 0.02431127658800092
! Port Impedance 100.00000000000000 0.00000000000000 100.00000000000000 0.00000000000000
15982296.0 -0.4058634457267065 0.145508575594206 0.46232896215948904 -0.10405803987829831 0.46887984245810177 -0.10614190098359075 -0.4853472604163595 0.02425924761311384
! Port Impedance 100.00000000000000 0.00000000000000 100.00000000000000 0.00000000000000
16015242.0 -0.405414974955399 0.1458704847380542 0.461822431912224 -0.10398839766080918 0.46851251959547857 -0.10613799081067826 -0.48548486204553976 0.024278052212831733
! Port Impedance 100.00000000000000 0.00000000000000 100.00000000000000 0.00000000000000
16048188.0 -0.4056242336694563 0.14611819648867222 0.461950665919425 -0.1044440050669407 0.46848238089618444 -0.10648664956259443 -0.48541588258564905 0.024322358212316562
! Port Impedance 100.00000000000000 0.00000000000000 100.00000000000000 0.00000000000000
16081134.0 -0.4049495855117121 0.1460913989775169 0.46175143226636906 -0.10461452503955529 0.46829197060887906 -0.10671939730176895 -0.4855141510449507 0.02452055717851524
! Port Impedance 100.00000000000000 0.00000000000000 100.00000000000000 0.00000000000000
16114080.0 -0.40552294354066365 0.14661280785149325 0.46196078584327827 -0.10493418341776815 0.46850549890545773 -0.10703017737970574 -0.4853043916717961 0.02441103556033087
! Port Impedance 100.00000000000000 0.00000000000000 100.00000000000000 0.00000000000000
16147026.0 -0.4048441529080886 0.14666768346478143 0.4616146289224434 -0.10488101266859964 0.4682198073958313 -0.10721404402500105 -0.48554974346417634 0.0245037592140238
! Port Impedance 100.00000000000000 0.00000000000000 100.00000000000000 0.00000000000000
16179972.0 -0.40461949187346063 0.14675890115015378 0.4617028447584564 -0.10520872270873385 0.4682050731539164 -0.1073517821316537 -0.4854374757108332 0.024579544498386608
! Port Impedance 100.00000000000000 0.00000000000000 100.00000000000000 0.00000000000000
16212918.0 -0.40435368096876273 0.1468345873080243 0.46144723595795906 -0.10537314118909281 0.46822457434159376 -0.10755544119339239 -0.4855593615736861 0.024578798275863702
! Port Impedance 100.00000000000000 0.00000000000000 100.00000000000000 0.00000000000000
16245864.0 -0.4047465432273393 0.14736983649720034 0.46165770594693456 -0.10577463410125201 0.46819531609022014 -0.1078059746126847 -0.48530964900631 0.024420189989140605
! Port Impedance 100.00000000000000 0.00000000000000 100.00000000000000 0.00000000000000
16278810.0 -0.40493011832505105 0.14766758282348674 0.46163495576283675 -0.10594570009930836 0.4682618899724088 -0.10820403906324438 -0.4853309859833574 0.024585852200139667
! Port Impedance 100.00000000000000 0.00000000000000 100.00000000000000 0.00000000000000
16311756.0 -0.4042354785970762 0.14806646935538834 0.46130711550597014 -0.10615821120151711 0.4678482267277908 -0.10854129611448247 -0.4853919798045802 0.02467145679094633
! Port Impedance 100.00000000000000 0.00000000000000 100.00000000000000 0.00000000000000
16344702.0 -0.40395788442808866 0.14774435375642564 0.4612893846455871 -0.10625257800183996 0.46786326658714616 -0.10849234493207766 -0.48543058538618356 0.02468021333838606
! Port Impedance 100.00000000000000 0.00000000000000 100.00000000000000 0.00000000000000
16377648.0 -0.40380609500834136 0.14781245436468313 0.46123040674572535 -0.10650743620767282 0.4679430578734866 -0.10866371008916681 -0.485722125056399 0.024734838222958785
! Port Impedance 100.00000000000000 0.00000000000000 100.00000000000000 0.00000000000000
16410594.0 -0.4037750460825988 0.14898811406427342 0.46121905791831996 -0.10687240183712308 0.4677868407128658 -0.1091988893869652 -0.4853665577682774 0.024824990885164613
! Port Impedance 100.00000000000000 0.00000000000000 100.00000000000000 0.00000000000000
16443540.0 -0.4033036938995705 0.14867179895880092 0.46106771900856414 -0.1070827209778587 0.4676465403976043 -0.10933708116708882 -0.48547214566550945 0.024966267812426054
! Port Impedance 100.00000000000000 0.00000000000000 100.00000000000000 0.00000000000000
16476486.0 -0.40340364400228756 0.14891992283672736 0.46094625469932216 -0.10725459666038652 0.4675338973772529 -0.1095585138482977 -0.4854265201899504 0.02480975778505587
! Port Impedance 100.00000000000000 0.00000000000000 100.00000000000000 0.00000000000000
16509432.0 -0.4035152992777802 0.14949268274554153 0.4609423032703228 -0.10762638077493583 0.467752862215359 -0.10989708194559417 -0.4854073169274388 0.024828055892910136
! Port Impedance 100.00000000000000 0.00000000000000 100.00000000000000 0.00000000000000
16542378.0 -0.40329292387991467 0.14918492262263847 0.46098903910114836 -0.10762328033886565 0.46756510242715094 -0.10995453335889227 -0.48539858031149785 0.024913817658892758
! Port Impedance 100.00000000000000 0.00000000000000 100.00000000000000 0.00000000000000
16575324.0 -0.4029799542883358 0.1496249499301659 0.460748897013122 -0.10780575659504284 0.4672903670385147 -0.11009172030013589 -0.4853614175823435 0.024977875314324695
! Port Impedance 100.00000000000000 0.00000000000000 100.00000000000000 0.00000000000000
16608270.0 -0.4029257288812179 0.14987014393088613 0.4609148128411226 -0.10838913498980882 0.46743044749697127 -0.11065624876559954 -0.48536793348360985 0.025183431640842358
! Port Impedance 100.00000000000000 0.00000000000000 100.00000000000000 0.00000000000000
16641216.0 -0.40277472031213823 0.1503192933455538 0.4605902483101246 -0.1085226011631585 0.4672231354746968 -0.11083397215767495 -0.48521679883902924 0.025170206718291132
! Port Impedance 100.00000000000000 0.00000000000000 100.00000000000000 0.00000000000000
16674162.0 -0.4027114170834979 0.15022638967923524 0.4608056676763005 -0.10855843276988654 0.4674224331958443 -0.1108490763263609 -0.4854584850143841 0.025247241218183364
! Port Impedance 100.00000000000000 0.00000000000000 100.00000000000000 0.00000000000000
16707108.0 -0.40213419942899675 0.1504405163361911 0.4606449024981304 -0.10873225197024441 0.4673073128876998 -0.11108131443143587 -0.4852602590428631 0.02535328340602911
! Port Impedance 100.00000000000000 0.00000000000000 100.00000000000000 0.00000000000000
16740054.0 -0.40264131989492524 0.15098018482000902 0.4606697758392376 -0.10914772273803366 0.46733756184512193 -0.11145706761584 -0.4854377258336385 0.02516047794355141
! Port Impedance 100.00000000000000 0.00000000000000 100.00000000000000 0.00000000000000
16773000.0 -0.40238583265099337 0.15101539649025125 0.4605861023967414 -0.10936011627670365 0.4669659900211924 -0.11163639359399669 -0.4855563858116553 0.025258636590732315
! Port Impedance 100.00000000000000 0.00000000000000 100.00000000000000 0.00000000000000
16805946.0 -0.40152660996652056 0.15114842099433756 0.46028475481528613 -0.10950663650330464 0.466942226873002 -0.11191320175223865 -0.48525516828537096 0.025277898763060642
! Port Impedance 100.00000000000000 0.00000000000000 100.00000000000000 0.00000000000000
16838892.0 -0.4029023734290986 0.15138844764268924 0.46051640071460087 -0.10983001137648415 0.46714743524965097 -0.11227232577024004 -0.4855157217080588 0.025028661574519613
! Port Impedance 100.00000000000000 0.00000000000000 100.00000000000000 0.00000000000000
16871838.0 -0.40159972779816916 0.15160107575494625 0.4601924579013587 -0.10990662213109426 0.4667199140376675 -0.11234858185299623 -0.4856636708117573 0.02547068429408273
! Port Impedance 100.00000000000000 0.00000000000000 100.00000000000000 0.00000000000000
16904784.0 -0.40140658363737036 0.1518116054409866 0.4600955261644166 -0.11013547826496108 0.46675143248822965 -0.11243248774652002 -0.48545915271270507 0.025382812132676392
! Port Impedance 100.00000000000000 0.00000000000000 100.00000000000000 0.00000000000000
16937730.0 -0.40195387645507646 0.1524144431080206 0.46029142731119776 -0.11058381619490532 0.4667965509080333 -0.11292168244946313 -0.48523882985130545 0.025357200488273397
! Port Impedance 100.00000000000000 0.00000000000000 100.00000000000000 0.00000000000000
16970676.0 -0.40122058888094336 0.15221021834473838 0.46003059138060365 -0.1105216514029731 0.4668149691217016 -0.11296869445997851 -0.4854450487050107 0.025338117411976467
! Port Impedance 100.00000000000000 0.00000000000000 100.00000000000000 0.00000000000000
17003622.0 -0.40108264687181816 0.15286405441831596 0.4599492650933722 -0.11118630145006314 0.46657138524282943 -0.11350717647396465 -0.4854173277600746 0.02553300827275655
! Port Impedance 100.00000000000000 0.00000000000000 100.00000000000000 0.00000000000000
17036568.0 -0.40123255662517043 0.15328573581216506 0.4598418022772658 -0.1111897116049856 0.46649876483722774 -0.11374163079392571 -0.4853579066864349 0.025567020560690067
! Port Impedance 100.00000000000000 0.00000000000000 100.00000000000000 0.00000000000000
17069514.0 -0.4011969097483161 0.15302842610476775 0.4601330266374686 -0.11141262935583426 0.4666447586412477 -0.11384838348284368 -0.4853544711610361 0.02569202255032279
! Port Impedance 100.00000000000000 0.00000000000000 100.00000000000000 0.00000000000000
17102460.0 -0.4009506119734022 0.15371415395158594 0.4598854531268435 -0.11168765783264871 0.46632631254639406 -0.11404481581569426 -0.4851900878814356 0.025671258582696414
! Port Impedance 100.00000000000000 0.00000000000000 100.00000000000000 0.00000000000000
17135406.0 -0.4008407541200951 0.15369673379260537 0.45995735836813106 -0.11200058437936997 0.4664021691311139 -0.11440926410693464 -0.48537736883227034 0.02578583603218334
! Port Impedance 100.00000000000000 0.00000000000000 100.00000000000000 0.00000000000000
17168352.0 -0.4009912682230315 0.15408589277151186 0.4599031734557878 -0.11221773654720318 0.4663831000884117 -0.11466838258953578 -0.4851983451147038 0.025617791309049707
! Port Impedance 100.00000000000000 0.00000000000000 100.00000000000000 0.00000000000000
17201298.0 -0.4007327019601787 0.15396890293761745 0.45981193141877524 -0.1124048285415033 0.46646417219866154 -0.11457824262606943 -0.48532499599919776 0.025613659723315824
! Port Impedance 100.00000000000000 0.00000000000000 100.00000000000000 0.00000000000000
17234244.0 -0.4000247853611156 0.15417762281867853 0.45960484847146704 -0.11248790706035616 0.46614549266907557 -0.1149395944279643 -0.4855898879706567 0.025807134278972854
! Port Impedance 100.00000000000000 0.00000000000000 100.00000000000000 0.00000000000000
17267190.0 -0.4001812753825815 0.1545131474010971 0.4596073791718248 -0.11285507075293519 0.46614507973951336 -0.11521784933615836 -0.4854095008108114 0.025794072273739678
! Port Impedance 100.00000000000000 0.00000000000000 100.00000000000000 0.00000000000000
17300136.0 -0.399944200811716 0.15461020995111588 0.4593191762003993 -0.11290276904683001 0.4658515372516388 -0.11543678091271548 -0.4852988654067467 0.025967445370853923
! Port Impedance 100.00000000000000 0.00000000000000 100.00000000000000 0.00000000000000
17333082.0 -0.3994716145079901 0.15464813068121053 0.4594284095753971 -0.11316548329676569 0.4658918452372641 -0.11564785162838015 -0.48535090961527433 0.026160804424516425
! Port Impedance 100.00000000000000 0.00000000000000 100.00000000000000 0.00000000000000
17366028.0 -0.399964986351702 0.15519033300852225 0.4592101221304823 -0.11342635579554178 0.4657351203352207 -0.11597107272997467 -0.48533422033532303 0.026000399882532083
! Port Impedance 100.00000000000000 0.00000000000000 100.00000000000000 0.00000000000000
17398974.0 -0.39988804336409955 0.1557693212812812 0.4594985324479706 -0.11372289228112348 0.46593629418948546 -0.11611146198813159 -0.48544999754313 0.02628991918573822
! Port Impedance 100.00000000000000 0.00000000000000 100.00000000000000 0.00000000000000
17431920.0 -0.3993228434731392 0.15580810000940448 0.4591240755966799 -0.1138716189124443 0.465752566193264 -0.11636346166354039 -0.4853521069278377 0.02603759085009491
! Port Impedance 100.00000000000000 0.00000000000000 100.00000000000000 0.00000000000000
17464866.0 -0.3988468088524757 0.15560673389760707 0.4592174340464358 -0.11421938130063271 0.4657394069808178 -0.11672033032597723 -0.48531665988509926 0.025954623175122468
! Port Impedance 100.00000000000000 0.00000000000000 100.00000000000000 0.00000000000000
17497812.0 -0.39908887551724914 0.15591063469996208 0.45916284033519644 -0.11416006419384649 0.46552390372186236 -0.11674335423820054 -0.4854028591746612 0.02603447513227518
! Port Impedance 100.00000000000000 0.00000000000000 100.00000000000000 0.00000000000000
17530758.0 -0.3985607510379337 0.15641326613340115 0.45887327120301225 -0.11502077724522355 0.4657068068132893 -0.1172520706700206 -0.48486655169413306 0.025996334217711244
! Port Impedance 100.00000000000000 0.00000000000000 100.00000000000000 0.00000000000000
17563704.0 -0.3986981489893443 0.15644870685955695 0.45896729573822964 -0.11495007741202884 0.4655431470791227 -0.1175756951860108 -0.48562566657378087 0.02607644677407443
! Port Impedance 100.00000000000000 0.00000000000000 100.00000000000000 0.00000000000000
17596650.0 -0.39863498680219844 0.15698679085421594 0.4587384797626745 -0.1150310768485602 0.46534588913783037 -0.11735342155610526 -0.485378944963981 0.02627932029135481
! Port Impedance 100.00000000000000 0.00000000000000 100.00000000000000 0.00000000000000
17629596.0 -0.39805753202457506 0.15668917973933583 0.45866038344655125 -0.11510266136160846 0.4650238238344603 -0.11775987480804122 -0.48527686905382456 0.026278825666145467
! Port Impedance 100.00000000000000 0.00000000000000 100.00000000000000 0.00000000000000
17662542.0 -0.39797965801802343 0.15704776230085188 0.4585011261255074 -0.11526633261928276 0.4650078904508897 -0.11788770434680657 -0.4853168102892162 0.026724050906966116
! Port Impedance 100.00000000000000 0.00000000000000 100.00000000000000 0.00000000000000
17695488.0 -0.39787386489181387 0.157131646724065 0.4586365500924522 -0.11560548088511656 0.46528329812793434 -0.1181822889982774 -0.4854960495075388 0.02654990144235668
! Port Impedance 100.00000000000000 0.00000000000000 100.00000000000000 0.00000000000000
17728434.0 -0.39781965356115956 0.15733177570955167 0.45861117478426794 -0.11589215644884529 0.46511348103550293 -0.1183933808104573 -0.48532283236285967 0.026459763570385347
! Port Impedance 100.00000000000000 0.00000000000000 100.00000000000000 0.00000000000000
17761380.0 -0.39840792313897655 0.15825687141676276 0.4586183884674506 -0.11617996339978001 0.4651810805789007 -0.1188037648216071 -0.4855015820153342 0.026390002033451848
! Port Impedance 100.00000000000000 0.00000000000000 100.00000000000000 0.00000000000000
17794326.0 -0.3982682315882816 0.15808030760671352 0.4587101739665943 -0.11636796141041955 0.46526306945102225 -0.11880991623567203 -0.4851877589525662 0.02649898667495698
! Port Impedance 100.00000000000000 0.00000000000000 100.00000000000000 0.00000000000000
17827272.0 -0.3977405622095702 0.15843082653104837 0.45838816310621416 -0.11662534652649648 0.4650622426607507 -0.11923268167907952 -0.4852630878142482 0.026652510279029408
! Port Impedance 100.00000000000000 0.00000000000000 100.00000000000000 0.00000000000000
17860218.0 -0.39789769084287535 0.15861857826584402 0.45845987242631275 -0.11671476019038352 0.4650966462645493 -0.11938647625760437 -0.48533290972072785 0.026669766894350876
! Port Impedance 100.00000000000000 0.00000000000000 100.00000000000000 0.00000000000000
17893164.0 -0.39721962861721694 0.1584609609136432 0.45819184581185646 -0.11688128511563389 0.46482999126902336 -0.11946885652486097 -0.48521981480415594 0.026584107207968763
! Port Impedance 100.00000000000000 0.00000000000000 100.00000000000000 0.00000000000000
17926110.0 -0.3970727096318055 0.15885244191441553 0.4581155401190756 -0.11722351936634501 0.464674275384653 -0.11985363280660587 -0.4853580542722177 0.02669038511332736
! Port Impedance 100.00000000000000 0.00000000000000 100.00000000000000 0.00000000000000
17959056.0 -0.3974641065705591 0.15964198314518252 0.45818491428276 -0.11765297379915271 0.46468214665028695 -0.12030911783175584 -0.48519223611450724 0.02666796352474952
! Port Impedance 100.00000000000000 0.00000000000000 100.00000000000000 0.00000000000000
17992002.0 -0.39671968452127365 0.15905876472314218 0.4580319924822976 -0.11757703314442504 0.46472217358062534 -0.1203399862381363 -0.48544029759273943 0.0268861035872668
! Port Impedance 100.00000000000000 0.00000000000000 100.00000000000000 0.00000000000000
18024948.0 -0.3965542692142019 0.15939966709331455 0.4580468857029874 -0.11780104110434611 0.4646322584265319 -0.12040573277178064 -0.4855407488720227 0.02672953386173781
! Port Impedance 100.00000000000000 0.00000000000000 100.00000000000000 0.00000000000000
18057894.0 -0.39667285646156586 0.160042573205153 0.4579686854153089 -0.11827705391311939 0.4643589331687845 -0.12086570498473843 -0.48511403503005357 0.026700301564722417
! Port Impedance 100.00000000000000 0.00000000000000 100.00000000000000 0.00000000000000
18090840.0 -0.3969922490135388 0.16076542401522856 0.45793454710119463 -0.1185248522988061 0.46437309226015633 -0.12108647404497094 -0.4854000446889421 0.027170297625966136
! Port Impedance 100.00000000000000 0.00000000000000 100.00000000000000 0.00000000000000
18123786.0 -0.3963362730054857 0.160145478984358 0.4577767763169488 -0.11852592119931891 0.4642020587876574 -0.1211132342476131 -0.485245840290594 0.026888712231462386
! Port Impedance 100.00000000000000 0.00000000000000 100.00000000000000 0.00000000000000
18156732.0 -0.3961559216572107 0.16094692165914154 0.4576712105931055 -0.1189891358457478 0.4643464154115851 -0.12168746674646387 -0.4853209983588895 0.027187492145686356
! Port Impedance 100.00000000000000 0.00000000000000 100.00000000000000 0.00000000000000
18189678.0 -0.39561600269521857 0.16048140832978708 0.4576699402359461 -0.1189683646929161 0.46427549192342404 -0.12160001857440439 -0.4853057541944199 0.027009175912123415
! Port Impedance 100.00000000000000 0.00000000000000 100.00000000000000 0.00000000000000
18222624.0 -0.3958283257109174 0.16120553838860727 0.4576847667235393 -0.11931510355608367 0.46411657904498993 -0.12191002133874973 -0.4851545975973046 0.02678058200500113
! Port Impedance 100.00000000000000 0.00000000000000 100.00000000000000 0.00000000000000
18255570.0 -0.3955391102977668 0.16123338865042655 0.4573002317495243 -0.11954772354613313 0.46386642826132196 -0.12227382793753655 -0.4853503638871267 0.02722557669759692
! Port Impedance 100.00000000000000 0.00000000000000 100.00000000000000 0.00000000000000
18288516.0 -0.39526066397119486 0.16135292839161258 0.4574883619828803 -0.11991848714385592 0.4638340865365251 -0.12263347026950924 -0.48495100821119874 0.02697930993748967
! Port Impedance 100.00000000000000 0.00000000000000 100.00000000000000 0.00000000000000
18321462.0 -0.3954544706966694 0.16201477681625773 0.4573525099071056 -0.12006730511378183 0.4638679391669008 -0.12277756370655221 -0.4855130242324137 0.027153697145258716
! Port Impedance 100.00000000000000 0.00000000000000 100.00000000000000 0.00000000000000
18354408.0 -0.39542783907317514 0.16180811247443944 0.45756433389645434 -0.12027932455540694 0.4639850144308778 -0.122801021367517 -0.4851100792751508 0.027194792356632094
! Port Impedance 100.00000000000000 0.00000000000000 100.00000000000000 0.00000000000000
18387354.0 -0.39512035011484625 0.16207094812402145 0.45727519128177596 -0.12028349671648762 0.46385890446991745 -0.12309781198374925 -0.48533460292195435 0.027228765138334235
! Port Impedance 100.00000000000000 0.00000000000000 100.00000000000000 0.00000000000000
18420300.0 -0.3946345323991626 0.16208397142482756 0.4570837937214918 -0.12028732308260605 0.4635421817146332 -0.1228830151767766 -0.4851928332288551 0.02715298286731322
! Port Impedance 100.00000000000000 0.00000000000000 100.00000000000000 0.00000000000000
18453246.0 -0.39518524848594627 0.16294290207687262 0.4572287340377948 -0.12103782468916582 0.46356941386438744 -0.12380330705034678 -0.4850176449340694 0.027372908046144843
! Port Impedance 100.00000000000000 0.00000000000000 100.00000000000000 0.00000000000000
18486192.0 -0.39491829513089605 0.16315873944613937 0.45711615609935746 -0.12122483651723778 0.4635756511410679 -0.12397881796092049 -0.4853627008254311 0.02729016420721257
! Port Impedance 100.00000000000000 0.00000000000000 100.00000000000000 0.00000000000000
18519138.0 -0.3942132692452107 0.1630326629938899 0.4569152213439069 -0.1212665905282894 0.4635288632680984 -0.1240549616621 -0.48532545589805653 0.027498787469447485
! Port Impedance 100.00000000000000 0.00000000000000 100.00000000000000 0.00000000000000
18552084.0 -0.39426585533393066 0.16309600866574014 0.4569258331061304 -0.12143458636877655 0.46350692966737694 -0.12418263162824214 -0.4853489781944156 0.027471525059571372
! Port Impedance 100.00000000000000 0.00000000000000 100.00000000000000 0.00000000000000
18585030.0 -0.3942136399831241 0.16391384495156852 0.45690445120175716 -0.12185485876438282 0.4633379188611264 -0.12457149667577117 -0.4851928610826054 0.027566201522401034
! Port Impedance 100.00000000000000 0.00000000000000 100.00000000000000 0.00000000000000
18617976.0 -0.3941164194009209 0.16397114737834886 0.4568289253129256 -0.12195673807577159 0.46325520884826293 -0.12474943534074384 -0.4852007068868876 0.027439980547069788
! Port Impedance 100.00000000000000 0.00000000000000 100.00000000000000 0.00000000000000
18650922.0 -0.3938744397640219 0.16403986392142458 0.4565872668181793 -0.12232627097070968 0.46304495602691076 -0.12509378978052843 -0.4851733338355866 0.027734444035749456
! Port Impedance 100.00000000000000 0.00000000000000 100.00000000000000 0.00000000000000
18683868.0 -0.3941980602388959 0.1644650062835394 0.4567324755208976 -0.12256962973257571 0.463119872268545 -0.12533112031037083 -0.48519713633913797 0.027569699070021235
! Port Impedance 100.00000000000000 0.00000000000000 100.00000000000000 0.00000000000000
18716814.0 -0.3934356746624005 0.16422055755854684 0.4566312561059901 -0.12251912501000008 0.4631604695974434 -0.12523855084850175 -0.48533317698114786 0.02776507915775161
! Port Impedance 100.00000000000000 0.00000000000000 100.00000000000000 0.00000000000000
18749760.0 -0.3931778856340372 0.1643321343960595 0.45638953741379473 -0.12272138254941879 0.4629281309604411 -0.12558747562785352 -0.4853951786328674 0.027729486851472848
! Port Impedance 100.00000000000000 0.00000000000000 100.00000000000000 0.00000000000000
18782706.0 -0.3935499803715562 0.1649091577426058 0.45664001006886346 -0.12315062495744308 0.46305461637793954 -0.12588458502086866 -0.48506833984013364 0.027707402421609476
! Port Impedance 100.00000000000000 0.00000000000000 100.00000000000000 0.00000000000000
18815652.0 -0.3932192840477925 0.16478015515060812 0.4563416893066452 -0.12313529283939356 0.4630332414042562 -0.12597538074383474 -0.4853418070629656 0.028044213890626092
! Port Impedance 100.00000000000000 0.00000000000000 100.00000000000000 0.00000000000000
18848598.0 -0.3930056569909518 0.16538620594622397 0.4563299345956023 -0.12354343093259926 0.46282100770327966 -0.12630967222911818 -0.4853923307550207 0.027817439271468618
! Port Impedance 100.00000000000000 0.00000000000000 100.00000000000000 0.00000000000000
18881544.0 -0.39252738048924474 0.16561148860184205 0.45607560112272155 -0.12370843520028608 0.4626295159010782 -0.12657476655651698 -0.4851954628729066 0.027963499236968233
! Port Impedance 100.00000000000000 0.00000000000000 100.00000000000000 0.00000000000000
18914490.0 -0.3931582913962526 0.1659857041664289 0.456444591077558 -0.12412186610842874 0.46280311042428474 -0.12694191580036593 -0.48519187088633664 0.027795323838778065
! Port Impedance 100.00000000000000 0.00000000000000 100.00000000000000 0.00000000000000
18947436.0 -0.39271557524104617 0.16585249644604125 0.4563932111652347 -0.12428620777449462 0.46275207576804933 -0.12704237955663286 -0.4852772145121814 0.028063303542656626
! Port Impedance 100.00000000000000 0.00000000000000 100.00000000000000 0.00000000000000
18980382.0 -0.3922471698594037 0.16595035000847 0.4559348247302604 -0.12425575120162526 0.4624617189957745 -0.12710444296988355 -0.48525542280570877 0.027994135367512545
! Port Impedance 100.00000000000000 0.00000000000000 100.00000000000000 0.00000000000000
19013328.0 -0.3925909750146971 0.16652461012237865 0.4560129685037638 -0.12462988119473399 0.46247787164517123 -0.1275324090351579 -0.48518399409863866 0.028043789810164865
! Port Impedance 100.00000000000000 0.00000000000000 100.00000000000000 0.00000000000000
19046274.0 -0.39196820333989746 0.1666606608945661 0.4558262823196481 -0.12485577379893273 0.46231829221531495 -0.12766105406002543 -0.48534560812629735 0.028226226289553305
! Port Impedance 100.00000000000000 0.00000000000000 100.00000000000000 0.00000000000000
19079220.0 -0.3923910399796317 0.1672248469335199 0.45603211804560184 -0.12538497741306143 0.4622720102400235 -0.12811920542984542 -0.48499765460881183 0.028146416471050772
! Port Impedance 100.00000000000000 0.00000000000000 100.00000000000000 0.00000000000000
19112166.0 -0.39182435334714594 0.16716372138102698 0.45567590868903635 -0.12529102477927373 0.462256419424079 -0.12827538825030205 -0.4853048515975319 0.028237596942994627
! Port Impedance 100.00000000000000 0.00000000000000 100.00000000000000 0.00000000000000
19145112.0 -0.3918550766245089 0.16741121217416044 0.455814388802289 -0.12564417651761173 0.4623310890352271 -0.12831586275233003 -0.48511010797539567 0.028234007780873184
! Port Impedance 100.00000000000000 0.00000000000000 100.00000000000000 0.00000000000000
19178058.0 -0.3915202134879455 0.16786607563421863 0.45575390500393786 -0.12590214972070685 0.46200355451036423 -0.1287462686794391 -0.4853465700713247 0.02826875554097686
! Port Impedance 100.00000000000000 0.00000000000000 100.00000000000000 0.00000000000000
19211004.0 -0.3911490872970569 0.16780697784172427 0.455397608205367 -0.1259548397179656 0.4619312994496518 -0.12899533857957535 -0.48522637188180284 0.028423938664984008
! Port Impedance 100.00000000000000 0.00000000000000 100.00000000000000 0.00000000000000
19243950.0 -0.3911100291700321 0.16803322391614345 0.4553881575379458 -0.12625339787855985 0.4619867071449391 -0.12922140216760805 -0.48523846188996506 0.02852974057260857
! Port Impedance 100.00000000000000 0.00000000000000 100.00000000000000 0.00000000000000
19276896.0 -0.39130876894844535 0.16861092276855372 0.4554278298000473 -0.1266884222564374 0.4617353535919161 -0.12953680542632084 -0.4851029734433058 0.02839977361136274
! Port Impedance 100.00000000000000 0.00000000000000 100.00000000000000 0.00000000000000
19309842.0 -0.3910355896648208 0.16852429141981937 0.4554286668755638 -0.12677470488389658 0.46192431256047367 -0.12960085225950368 -0.48530567146486103 0.028535533204446253
! Port Impedance 100.00000000000000 0.00000000000000 100.00000000000000 0.00000000000000
19342788.0 -0.39066128793329175 0.16883755254345612 0.45530282840989056 -0.12697497207397407 0.46177626145876016 -0.12987356576003334 -0.4853081194556298 0.028575981033426484
! Port Impedance 100.00000000000000 0.00000000000000 100.00000000000000 0.00000000000000
19375734.0 -0.3906132915480376 0.16878275521620925 0.4550705743110135 -0.12705709878069602 0.46155495678818115 -0.13003055094708504 -0.48519351999607846 0.028450495858314342
! Port Impedance 100.00000000000000 0.00000000000000 100.00000000000000 0.00000000000000
19408680.0 -0.39076768318690835 0.169260889597836 0.4552604904183701 -0.12745099086621642 0.4615997670904327 -0.1303830871663999 -0.48518178417957303 0.02864142104202999
! Port Impedance 100.00000000000000 0.00000000000000 100.00000000000000 0.00000000000000
19441626.0 -0.3903073558082235 0.16925213787579763 0.4550147400988697 -0.12745040163444588 0.46148757146298636 -0.13038321228575356 -0.48530252990393974 0.02858996552832496
! Port Impedance 100.00000000000000 0.00000000000000 100.00000000000000 0.00000000000000
19474572.0 -0.3901982370181278 0.16959549609322563 0.45504759064572237 -0.12792921489120182 0.46153543875828795 -0.1307972544233069 -0.4851701314982361 0.028777242207637665
! Port Impedance 100.00000000000000 0.00000000000000 100.00000000000000 0.00000000000000
19507518.0 -0.38997294625276757 0.16975567049368392 0.45493990064583045 -0.12785701161394877 0.4613166560138346 -0.13094056043867092 -0.4852481678332877 0.028828384257556985
! Port Impedance 100.00000000000000 0.00000000000000 100.00000000000000 0.00000000000000
19540464.0 -0.38958601838581924 0.1704116567416027 0.4548739500584501 -0.12839758706524138 0.4613108667116491 -0.13141735792193562 -0.48534737745917317 0.028762600902296327
! Port Impedance 100.00000000000000 0.00000000000000 100.00000000000000 0.00000000000000
19573410.0 -0.3896158858759036 0.1704279880686207 0.45466684066584784 -0.12853760481900922 0.4610941519158826 -0.13153218931966254 -0.4851040774710862 0.028987300451404095
! Port Impedance 100.00000000000000 0.00000000000000 100.00000000000000 0.00000000000000
19606356.0 -0.3893693919820683 0.170469864019505 0.45447103583350923 -0.12872313400061092 0.4610522990669486 -0.1316896000797496 -0.4853672849664182 0.0288215968481648
! Port Impedance 100.00000000000000 0.00000000000000 100.00000000000000 0.00000000000000
19639302.0 -0.38929036629737135 0.17072207587871224 0.45457576667254906 -0.1289386312914339 0.4610069922988148 -0.1319855740276307 -0.4852370660430311 0.02879696394161689
! Port Impedance 100.00000000000000 0.00000000000000 100.00000000000000 0.00000000000000
19672248.0 -0.38910334372820043 0.17072170952220828 0.4544806036166719 -0.12898908778896803 0.4610045311507906 -0.13198600864333898 -0.4852950321394497 0.028928025486336575
! Port Impedance 100.00000000000000 0.00000000000000 100.00000000000000 0.00000000000000
19705194.0 -0.389199266762171 0.17095506224963877 0.4544671074387336 -0.12923210017776904 0.46088618609349485 -0.13227375767617774 -0.48511949103762386 0.0290219540239818
! Port Impedance 100.00000000000000 0.00000000000000 100.00000000000000 0.00000000000000
19738140.0 -0.3889149955027371 0.17086549446021604 0.45438830812600156 -0.1292307929199181 0.46073211672995984 -0.1324642860798108 -0.48529838562003846 0.0290362110230271
! Port Impedance 100.00000000000000 0.00000000000000 100.00000000000000 0.00000000000000
19771086.0 -0.38873092668082376 0.17158097575899833 0.4543418679606193 -0.12995506357527628 0.4607507960615338 -0.13287764892881965 -0.4849308587390155 0.028895420992386477
! Port Impedance 100.00000000000000 0.00000000000000 100.00000000000000 0.00000000000000
19804032.0 -0.38873784212337703 0.1719771630379908 0.4542901022672253 -0.13012643590647902 0.4606767722733618 -0.13312755677046234 -0.48521964255801975 0.02918594611423371
! Port Impedance 100.00000000000000 0.00000000000000 100.00000000000000 0.00000000000000
19836978.0 -0.3881294784251745 0.1714898329930863 0.4540251272185937 -0.1299838253144587 0.46048870599794445 -0.1331033323992837 -0.4852181692788281 0.029218538374087378
! Port Impedance 100.00000000000000 0.00000000000000 100.00000000000000 0.00000000000000
19869924.0 -0.3882414408037528 0.17211123761753194 0.45416713751630894 -0.13042629690629257 0.4606371355513814 -0.13351043902513499 -0.4853546850948409 0.02936497648490493
! Port Impedance 100.00000000000000 0.00000000000000 100.00000000000000 0.00000000000000
19902870.0 -0.388020120568939 0.17258771408045356 0.45410181098153896 -0.13074333255903509 0.46056971779009936 -0.13382645497324835 -0.48502163567084833 0.029215009353115783
! Port Impedance 100.00000000000000 0.00000000000000 100.00000000000000 0.00000000000000
19935816.0 -0.38784492192966696 0.17250584925523776 0.4538515545856736 -0.13085492571781135 0.46031013843997737 -0.1340577015194383 -0.48509518582185296 0.029448958884083207
! Port Impedance 100.00000000000000 0.00000000000000 100.00000000000000 0.00000000000000
19968762.0 -0.3878243717701769 0.1730341254342963 0.45383094254037776 -0.13118730386791652 0.46039581530686646 -0.13432784275908366 -0.48521225756439906 0.029355503185755687
! Port Impedance 100.00000000000000 0.00000000000000 100.00000000000000 0.00000000000000
20001708.0 -0.38775410298870994 0.17317609323094627 0.45393864012139684 -0.13133329415603848 0.4603747665830998 -0.13443228721959016 -0.48527335646531633 0.029468529853208122
! Port Impedance 100.00000000000000 0.00000000000000 100.00000000000000 0.00000000000000
20034654.0 -0.3877592883372507 0.17343226466014142 0.45379548005577997 -0.1317294257785117 0.4602341993313046 -0.1346723608100961 -0.48509977462430864 0.029404507859987234
! Port Impedance 100.00000000000000 0.00000000000000 100.00000000000000 0.00000000000000
20067600.0 -0.387366771915815 0.1732438214050205 0.4536338972563088 -0.13150947612286057 0.46011658276131506 -0.13466772883608658 -0.4851679309413077 0.029450773320780884
! Port Impedance 100.00000000000000 0.00000000000000 100.00000000000000 0.00000000000000
20100546.0 -0.38706065967587433 0.17382158298251799 0.45354421742299117 -0.1320922554822587 0.4599637716669456 -0.13519814377815398 -0.4851134366714955 0.029564579373513842
! Port Impedance 100.00000000000000 0.00000000000000 100.00000000000000 0.00000000000000
20133492.0 -0.38711770815855456 0.17411723857543715 0.4535548575091002 -0.13230269478098577 0.45998857164874973 -0.13542616646564748 -0.4851604520933519 0.029657556306086068
! Port Impedance 100.00000000000000 0.00000000000000 100.00000000000000 0.00000000000000
20166438.0 -0.38680944269878076 0.174175499476873 0.4535391572000462 -0.13263872460065068 0.4599237232550624 -0.13587418382654073 -0.48525385481203864 0.029565223283633472
! Port Impedance 100.00000000000000 0.00000000000000 100.00000000000000 0.00000000000000
20199384.0 -0.3866143441311668 0.17425564878176095 0.4532672650254718 -0.13257121861405308 0.4596622965835565 -0.13584158804726604 -0.4850242395174328 0.029681957112912712
! Port Impedance 100.00000000000000 0.00000000000000 100.00000000000000 0.00000000000000
20232330.0 -0.3867640198350658 0.17472609299990946 0.4534125092522213 -0.1329552433883645 0.4598186082779824 -0.13594673752423336 -0.48517784273771963 0.02991318361250334
! Port Impedance 100.00000000000000 0.00000000000000 100.00000000000000 0.00000000000000
20265276.0 -0.38636558428962053 0.17487741928903583 0.453213373294802 -0.13313755254496906 0.45954620852737926 -0.13637326537566147 -0.4854010927403739 0.029692291394135366
! Port Impedance 100.00000000000000 0.00000000000000 100.00000000000000 0.00000000000000
20298222.0 -0.3862793931839436 0.17518036112345542 0.45325377372474035 -0.1334337113161576 0.4597096157571645 -0.136625294190853 -0.4854042871452473 0.02965946235219447
! Port Impedance 100.00000000000000 0.00000000000000 100.00000000000000 0.00000000000000
20331168.0 -0.3857793656417333 0.17543143471609562 0.45291102893441815 -0.1336177425089244 0.45931330786924895 -0.13678090587688937 -0.48506720920574053 0.029860508029497627
! Port Impedance 100.00000000000000 0.00000000000000 100.00000000000000 0.00000000000000
20364114.0 -0.3859252583470526 0.17582534391375246 0.45296541642934585 -0.13393818800521756 0.4593158379966864 -0.13706878036527975 -0.4850008524676752 0.029735087701160373
! Port Impedance 100.00000000000000 0.00000000000000 100.00000000000000 0.00000000000000
20397060.0 -0.38600415581249514 0.1756437100216488 0.4530429072634734 -0.13398525219083945 0.4593969850910384 -0.13707817571211123 -0.4850911508366075 0.030135153330535375
! Port Impedance 100.00000000000000 0.00000000000000 100.00000000000000 0.00000000000000
20430006.0 -0.38589031179661243 0.17616161097678876 0.4529892307400738 -0.13427258594280436 0.4593202486341248 -0.1375990408889101 -0.4854123847834296 0.029986378344792567
! Port Impedance 100.00000000000000 0.00000000000000 100.00000000000000 0.00000000000000
20462952.0 -0.3852947502258912 0.17632742952073213 0.4526142630730371 -0.13460310271026388 0.4588411056616659 -0.137712221281061 -0.4850305662845561 0.02987774876347623
! Port Impedance 100.00000000000000 0.00000000000000 100.00000000000000 0.00000000000000
20495898.0 -0.3853172720241943 0.17653566479078342 0.45292801324873444 -0.1348004377535582 0.45934463465585934 -0.13796488719577857 -0.48522640972863 0.030070029059720393
! Port Impedance 100.00000000000000 0.00000000000000 100.00000000000000 0.00000000000000
20528844.0 -0.385189753394623 0.17689948523197135 0.45265698819856603 -0.1351080865163491 0.4590111926313444 -0.1383233613749406 -0.4849220452770624 0.030034351050698557
! Port Impedance 100.00000000000000 0.00000000000000 100.00000000000000 0.00000000000000
20561790.0 -0.38523825801425166 0.17690792851307405 0.45279084368761185 -0.13526297677470517 0.45911702175212143 -0.13839899876460093 -0.48510785436210513 0.03038525038856526
! Port Impedance 100.00000000000000 0.00000000000000 100.00000000000000 0.00000000000000
20594736.0 -0.38482223634145163 0.17698925658540912 0.4524760607899979 -0.13538172832879045 0.458797102902372 -0.1386305653951774 -0.48541375380443985 0.03027130475481994
! Port Impedance 100.00000000000000 0.00000000000000 100.00000000000000 0.00000000000000
20627682.0 -0.3845160260342398 0.17736418729839623 0.45221578910708604 -0.13551570698801532 0.45866949035083815 -0.1387731854422767 -0.485079889370743 0.030191188915912746
! Port Impedance 100.00000000000000 0.00000000000000 100.00000000000000 0.00000000000000
20660628.0 -0.3843656252879749 0.1778094203834542 0.45247807974800736 -0.13592561153768973 0.4587451890882475 -0.13909318138867593 -0.48513685707956844 0.030257249602242436
! Port Impedance 100.00000000000000 0.00000000000000 100.00000000000000 0.00000000000000
20693574.0 -0.38453036128806056 0.17807431216003025 0.45247093954796946 -0.1361516916824314 0.45880462203265276 -0.13945456467075054 -0.4849035590235564 0.030352111220773782
! Port Impedance 100.00000000000000 0.00000000000000 100.00000000000000 0.00000000000000
20726520.0 -0.38451454941143215 0.17811455007199198 0.4522992119932999 -0.1363929472910944 0.4585720067755456 -0.1397259463915158 -0.48493299185718236 0.030263227112216736
! Port Impedance 100.00000000000000 0.00000000000000 100.00000000000000 0.00000000000000
20759466.0 -0.3841806941114192 0.17822033422207276 0.4519680879277733 -0.13643211298944266 0.45828050123476005 -0.13969179822076333 -0.4849185854593219 0.030293097306591722
! Port Impedance 100.00000000000000 0.00000000000000 100.00000000000000 0.00000000000000
20792412.0 -0.38419409351028944 0.17834061335834506 0.4522065886470795 -0.13674137566605166 0.4585924722507426 -0.14000023110650706 -0.4852333251671811 0.030670577551191083
! Port Impedance 100.00000000000000 0.00000000000000 100.00000000000000 0.00000000000000
20825358.0 -0.3834189456696722 0.1783340758678119 0.4518682709347499 -0.13685674374816337 0.4581374424293434 -0.14001009003200662 -0.48531638913536 0.03040165760121738
! Port Impedance 100.00000000000000 0.00000000000000 100.00000000000000 0.00000000000000
20858304.0 -0.38337971588821373 0.17895834486764828 0.45178438655018943 -0.13719384331457596 0.45823258466898187 -0.14047335164005356 -0.485179781210448 0.030462654296306943
! Port Impedance 100.00000000000000 0.00000000000000 100.00000000000000 0.00000000000000
20891250.0 -0.38343941870353104 0.17918603305312894 0.4517818821030551 -0.13748436656802557 0.4580308130896254 -0.14070562710788198 -0.48504511907245673 0.030547802471017224
! Port Impedance 100.00000000000000 0.00000000000000 100.00000000000000 0.00000000000000
20924196.0 -0.3833063476878759 0.17935974451645814 0.45162507779281535 -0.13759792283380481 0.4579742849561963 -0.14101668228072098 -0.4849666190136118 0.030508321215358132
! Port Impedance 100.00000000000000 0.00000000000000 100.00000000000000 0.00000000000000
20957142.0 -0.38317291125875785 0.1796952558776544 0.4518483369177639 -0.13781613437176515 0.4581719300088961 -0.14110141509918553 -0.4852127311135128 0.03093179841852064
! Port Impedance 100.00000000000000 0.00000000000000 100.00000000000000 0.00000000000000
20990088.0 -0.3828635799150231 0.17974913653850585 0.45169299187685735 -0.13806923578750574 0.4578558943491394 -0.1413313180819908 -0.4854346236037912 0.030776560550043235
! Port Impedance 100.00000000000000 0.00000000000000 100.00000000000000 0.00000000000000
21023034.0 -0.3826732597272421 0.18008631737941722 0.45137042315166936 -0.13833498278346848 0.45774806291357234 -0.14177145765852162 -0.48520647367317127 0.030695942514148436
! Port Impedance 100.00000000000000 0.00000000000000 100.00000000000000 0.00000000000000
21055980.0 -0.3824003948772452 0.1800142603289116 0.45151713576784686 -0.13833939991487842 0.4577944812253566 -0.14175526429905771 -0.4851415845417183 0.030793383706052432
! Port Impedance 100.00000000000000 0.00000000000000 100.00000000000000 0.00000000000000
21088926.0 -0.3828189185762051 0.18044765093524734 0.45158765006214063 -0.13882958682520782 0.4578246172849007 -0.1422830627980441 -0.48502450678137843 0.030808129515968993
! Port Impedance 100.00000000000000 0.00000000000000 100.00000000000000 0.00000000000000
21121872.0 -0.38215684800703215 0.18041924346894567 0.451146019354787 -0.13879214576662563 0.45761041036509353 -0.14211354567139167 -0.4851320748804431 0.03087725581897407
! Port Impedance 100.00000000000000 0.00000000000000 100.00000000000000 0.00000000000000
21154818.0 -0.38200462662572154 0.1805690374067073 0.451313803192754 -0.13907183738066123 0.45765938623470526 -0.1423373633947987 -0.48523231422420926 0.03117197322190609
! Port Impedance 100.00000000000000 0.00000000000000 100.00000000000000 0.00000000000000
21187764.0 -0.3820982591898783 0.18114706910640888 0.4512571747870192 -0.1394370296581754 0.45757225146578967 -0.14271846987201714 -0.4851156822766389 0.03119266287114269
! Port Impedance 100.00000000000000 0.00000000000000 100.00000000000000 0.00000000000000
21220710.0 -0.38173861789976876 0.18085127080767555 0.45112328449969796 -0.13915790852296694 0.4573818374737246 -0.14248741556880035 -0.4850902372219683 0.031133592598561924
! Port Impedance 100.00000000000000 0.00000000000000 100.00000000000000 0.00000000000000
21253656.0 -0.3814836023952734 0.18109644765440847 0.45098408094701353 -0.13975785514486982 0.4573163633794559 -0.14313473152696704 -0.48552043854161087 0.031132401387798717
! Port Impedance 100.00000000000000 0.00000000000000 100.00000000000000 0.00000000000000
21286602.0 -0.38142211894065375 0.1817456686116187 0.4507965528807655 -0.13997526231161866 0.4570667555146371 -0.14343894948889352 -0.4851507043010609 0.031006960047496653
! Port Impedance 100.00000000000000 0.00000000000000 100.00000000000000 0.00000000000000
21319548.0 -0.38114591764250166 0.181685682219938 0.451047905222587 -0.14024794050158307 0.45718530345360714 -0.1435669128664929 -0.4850387659262439 0.031223834555369704
! Port Impedance 100.00000000000000 0.00000000000000 100.00000000000000 0.00000000000000
21352494.0 -0.3808191135616362 0.18177577716657733 0.45062538129750435 -0.1403213630734858 0.4569183176776655 -0.14358784423815404 -0.4850072619222059 0.03124153038510198
! Port Impedance 100.00000000000000 0.00000000000000 100.00000000000000 0.00000000000000
21385440.0 -0.380487488150646 0.18204403470243355 0.4505348673950552 -0.14047758230963436 0.45680553609702607 -0.14377437284230682 -0.4849623844853878 0.03134186189531824
! Port Impedance 100.00000000000000 0.00000000000000 100.00000000000000 0.00000000000000
21418386.0 -0.3807952258816316 0.1824015301429565 0.4507861875750254 -0.1409144624202473 0.4571241242435433 -0.144238734714419 -0.4853116558550278 0.03150972006957362
! Port Impedance 100.00000000000000 0.00000000000000 100.00000000000000 0.00000000000000
21451332.0 -0.3805226562565458 0.18246742310080152 0.45046105980361256 -0.14066993450787013 0.4567598241325884 -0.14410934860476288 -0.48507437908320405 0.03137613638831495
! Port Impedance 100.00000000000000 0.00000000000000 100.00000000000000 0.00000000000000
21484278.0 -0.3804151612989824 0.18270149292036442 0.45042393360602684 -0.14126479731727018 0.45671426858951825 -0.14470555826820541 -0.4853339274007718 0.03144201966613768
! Port Impedance 100.00000000000000 0.00000000000000 100.00000000000000 0.00000000000000
21517224.0 -0.3802183489208816 0.18342649436223074 0.4503299165542177 -0.1417276510587114 0.45665634285817513 -0.14523795313897875 -0.48535068494568967 0.031493540279066395
! Port Impedance 100.00000000000000 0.00000000000000 100.00000000000000 0.00000000000000
21550170.0 -0.379774299182103 0.1833485314130499 0.45027640391495244 -0.14177520038579505 0.4566296441022615 -0.14531696545599593 -0.48514888774800585 0.03154118779776544
! Port Impedance 100.00000000000000 0.00000000000000 100.00000000000000 0.00000000000000
21583116.0 -0.37944002059557547 0.18317291589622273 0.4501282658543224 -0.1418560661171161 0.4564018333898176 -0.1452331526922338 -0.4850437134047748 0.031614700648076505
! Port Impedance 100.00000000000000 0.00000000000000 100.00000000000000 0.00000000000000
21616062.0 -0.3799612571697847 0.1839563110324185 0.4503344981897391 -0.14222271492602764 0.45672394862303434 -0.14568862810503058 -0.4852113310876453 0.03178122277496094
! Port Impedance 100.00000000000000 0.00000000000000 100.00000000000000 0.00000000000000
21649008.0 -0.3792243826120927 0.18347551035044352 0.4498953094713758 -0.14214111234275434 0.4561294423769414 -0.14565863462427456 -0.48519157542754887 0.03165231669437196
! Port Impedance 100.00000000000000 0.00000000000000 100.00000000000000 0.00000000000000
21681954.0 -0.3792404640514185 0.1838216859474722 0.449918588594086 -0.14249272783372627 0.4560769962909704 -0.14584308440137173 -0.48509952682614393 0.031609690295676146
! Port Impedance 100.00000000000000 0.00000000000000 100.00000000000000 0.00000000000000
21714900.0 -0.3795183084714436 0.1846091515739594 0.44998484187991455 -0.14284032313827416 0.45628224303924936 -0.1464137783321952 -0.4852929736789117 0.03163098058185992
! Port Impedance 100.00000000000000 0.00000000000000 100.00000000000000 0.00000000000000
21747846.0 -0.3792111606405885 0.18484073184944086 0.44978253591270667 -0.14307197522079085 0.4559700325520823 -0.14666404230541275 -0.4849107002607612 0.03171854856714233
! Port Impedance 100.00000000000000 0.00000000000000 100.00000000000000 0.00000000000000
21780792.0 -0.37884463722383566 0.18468166355644405 0.44982415598825354 -0.1431826484564331 0.45614897906842444 -0.14657838984727603 -0.4852187160473195 0.031992307077099054
! Port Impedance 100.00000000000000 0.00000000000000 100.00000000000000 0.00000000000000
21813738.0 -0.378507128847467 0.18464414518638514 0.4495734806267134 -0.14333626654205942 0.455753247971403 -0.146681188871195 -0.48515364595693056 0.03172934746174932
! Port Impedance 100.00000000000000 0.00000000000000 100.00000000000000 0.00000000000000
21846684.0 -0.37844034854225317 0.18502223434205212 0.4495434300243159 -0.1437632065354903 0.4556631160698146 -0.14730031753620548 -0.4853366821661901 0.031972228045192314
! Port Impedance 100.00000000000000 0.00000000000000 100.00000000000000 0.00000000000000
21879630.0 -0.3780706462977117 0.1855072676975484 0.44926680201566915 -0.14389728122332998 0.4555744720089219 -0.14734295255569935 -0.48494868159626014 0.03189891967757358
! Port Impedance 100.00000000000000 0.00000000000000 100.00000000000000 0.00000000000000
21912576.0 -0.37821635576973167 0.18574931371779713 0.4493561903098972 -0.14411810029664188 0.4556297154824006 -0.1476482049349307 -0.4850296330328024 0.031927634245583786
! Port Impedance 100.00000000000000 0.00000000000000 100.00000000000000 0.00000000000000
21945522.0 -0.37781371939555264 0.18579376538068457 0.4492515880126264 -0.14430745375518167 0.4554263787929986 -0.14776336011439167 -0.48496382926837556 0.03199617518856013
! Port Impedance 100.00000000000000 0.00000000000000 100.00000000000000 0.00000000000000
21978468.0 -0.3778243120408068 0.18587654659419556 0.449199467305699 -0.1443546500559266 0.455423833618835 -0.1478463784194114 -0.4850557525514245 0.03202511066210493
! Port Impedance 100.00000000000000 0.00000000000000 100.00000000000000 0.00000000000000
22011414.0 -0.37796445566509007 0.18651735821395304 0.44923562233067615 -0.14475342981192713 0.45553197063799744 -0.14832470354732047 -0.4850894561706134 0.032153806173992584
! Port Impedance 100.00000000000000 0.00000000000000 100.00000000000000 0.00000000000000
22044360.0 -0.37747388550346966 0.18584539810086248 0.44904769211291895 -0.14477286605431663 0.4551994212105246 -0.14822518394580778 -0.4850879151437471 0.03202497531425369
! Port Impedance 100.00000000000000 0.00000000000000 100.00000000000000 0.00000000000000
22077306.0 -0.3772335354914206 0.1864816094311641 0.449126267323801 -0.1452055431579593 0.4551976065013084 -0.14882052976314186 -0.485444527831274 0.03217577848639953
! Port Impedance 100.00000000000000 0.00000000000000 100.00000000000000 0.00000000000000
22110252.0 -0.3769152898801421 0.18691666492641856 0.4489822187822803 -0.14554705478008026 0.4551847194101695 -0.14917648094390948 -0.48504216234640085 0.032265399944254855
! Port Impedance 100.00000000000000 0.00000000000000 100.00000000000000 0.00000000000000
22143198.0 -0.37729454543546487 0.18733712153891532 0.4489743271915504 -0.14579196290179014 0.4551484592563237 -0.14949444370664228 -0.4850356886537855 0.03257494414138314
! Port Impedance 100.00000000000000 0.00000000000000 100.00000000000000 0.00000000000000
22176144.0 -0.37672394710186263 0.1873755718630013 0.4489555442089864 -0.14595712413095177 0.4551695402046487 -0.14943576605628583 -0.48517075323880016 0.03254354441597256
! Port Impedance 100.00000000000000 0.00000000000000 100.00000000000000 0.00000000000000
22209090.0 -0.37671368741579425 0.18754479932417284 0.44877245716225245 -0.14617459172402553 0.4549584941249186 -0.14973524869285795 -0.4853922032243787 0.032372244141497364
! Port Impedance 100.00000000000000 0.00000000000000 100.00000000000000 0.00000000000000
22242036.0 -0.3765011025960404 0.1878637475977627 0.4485196904088564 -0.1463652715413985 0.45471310353219974 -0.15006452794423514 -0.485105223294989 0.032499827535194856
! Port Impedance 100.00000000000000 0.00000000000000 100.00000000000000 0.00000000000000
22274982.0 -0.37627722604652014 0.1880017797499051 0.4485975290846785 -0.14657625232822852 0.4547277679834514 -0.15016180308951066 -0.4849785047517081 0.03241052100828087
! Port Impedance 100.00000000000000 0.00000000000000 100.00000000000000 0.00000000000000
22307928.0 -0.37669676518057127 0.18835211815583697 0.44856573132920213 -0.1468467839776811 0.4547563090378451 -0.15068581139173826 -0.4851264008692156 0.03267454798573129
! Port Impedance 100.00000000000000 0.00000000000000 100.00000000000000 0.00000000000000
22340874.0 -0.37612228283161764 0.1882598135511384 0.44848649813989944 -0.1469473224637861 0.45457508243663436 -0.1504361294924381 -0.484959305376313 0.03270556073044624
! Port Impedance 100.00000000000000 0.00000000000000 100.00000000000000 0.00000000000000
22373820.0 -0.3756526152708837 0.1884968705701251 0.44844417117763746 -0.1472192201921033 0.4545816375471109 -0.15055729877273294 -0.48508057579958364 0.03278459907340692
! Port Impedance 100.00000000000000 0.00000000000000 100.00000000000000 0.00000000000000
22406766.0 -0.37560352153947657 0.18848808115826918 0.4481666943155565 -0.14709193236834336 0.45431230442854875 -0.1507253370266895 -0.48505237729170214 0.03261537495507066
! Port Impedance 100.00000000000000 0.00000000000000 100.00000000000000 0.00000000000000
22439712.0 -0.3753366938640185 0.1887651887430376 0.4481617490559743 -0.14760680255215824 0.4542734446145665 -0.15124682752271207 -0.48527054342785375 0.03260919874301186
! Port Impedance 100.00000000000000 0.00000000000000 100.00000000000000 0.00000000000000
22472658.0 -0.3753359659864375 0.18937658223507156 0.4479873680553085 -0.14790763789611328 0.4541641790585038 -0.15162562774626792 -0.48512025094114375 0.03278976293744287
! Port Impedance 100.00000000000000 0.00000000000000 100.00000000000000 0.00000000000000
22505604.0 -0.3750250207645084 0.18940397537429726 0.44781395482597947 -0.14793884478449834 0.4540172384607998 -0.15162337351098681 -0.4848949447704702 0.032788784358973005
! Port Impedance 100.00000000000000 0.00000000000000 100.00000000000000 0.00000000000000
22538550.0 -0.37486071519436387 0.18965577814149912 0.44801911339877004 -0.14844920463817743 0.454034727395607 -0.15203987179618011 -0.4849554447779438 0.0328307587869126
! Port Impedance 100.00000000000000 0.00000000000000 100.00000000000000 0.00000000000000
22571496.0 -0.3746910358952439 0.1894032365172684 0.44767819749490867 -0.14823785851310464 0.4539374324609057 -0.15187358301979798 -0.4850308086599271 0.03285259942073494
! Port Impedance 100.00000000000000 0.00000000000000 100.00000000000000 0.00000000000000
22604442.0 -0.374699718498123 0.190167011009367 0.4479526610744635 -0.14873925212454622 0.45406785272475414 -0.15237845434226926 -0.4851838286587984 0.033239106408582894
! Port Impedance 100.00000000000000 0.00000000000000 100.00000000000000 0.00000000000000
22637388.0 -0.37456444646870846 0.19004767689301247 0.44763924244524517 -0.14881804310495667 0.4537435562430239 -0.1524409653256155 -0.4851266424698653 0.0329881382040037
! Port Impedance 100.00000000000000 0.00000000000000 100.00000000000000 0.00000000000000
22670334.0 -0.37423790749773955 0.19041281667663643 0.44758581015408877 -0.1491893998405227 0.4536743150975016 -0.1528959057886903 -0.485364991887665 0.03310951035784796
! Port Impedance 100.00000000000000 0.00000000000000 100.00000000000000 0.00000000000000
22703280.0 -0.374047419902677 0.19060070928647505 0.44748445121167013 -0.14933863197427502 0.4536289779568009 -0.153069761192761 -0.48510190312043233 0.033026036619393795
! Port Impedance 100.00000000000000 0.00000000000000 100.00000000000000 0.00000000000000
22736226.0 -0.3741437438048457 0.190962167234655 0.44747008231381025 -0.1497138570974782 0.4535027766803494 -0.15333762353887403 -0.4850705863548028 0.03321347516137099
! Port Impedance 100.00000000000000 0.00000000000000 100.00000000000000 0.00000000000000
22769172.0 -0.37361526340578766 0.1907455727114355 0.44727169651576026 -0.14956704850667732 0.45336237104806926 -0.15328165325644538 -0.48486265284355257 0.03310413764290001
! Port Impedance 100.00000000000000 0.00000000000000 100.00000000000000 0.00000000000000
22802118.0 -0.3736956744866641 0.1912240797173909 0.4473135010270829 -0.14998842686829555 0.4535039921244339 -0.15365993899145755 -0.48521634606111114 0.03324628087131791
! Port Impedance 100.00000000000000 0.00000000000000 100.00000000000000 0.00000000000000
22835064.0 -0.37329743498316426 0.19169729391505796 0.4470960874248977 -0.15034381679929204 0.45320136225444896 -0.15410840925264535 -0.48541637413598016 0.03335478855368587
! Port Impedance 100.00000000000000 0.00000000000000 100.00000000000000 0.00000000000000
22868010.0 -0.3728319656595925 0.19154336793181176 0.44694293987749656 -0.15026094303232007 0.45303419340840617 -0.15409105505807708 -0.4850226783083048 0.033407839047160284
! Port Impedance 100.00000000000000 0.00000000000000 100.00000000000000 0.00000000000000
22900956.0 -0.37289618505060945 0.19187052698022858 0.44705491007037146 -0.15069647883925086 0.45317320022249297 -0.1544098617043309 -0.48493057265490336 0.03333297583984783
! Port Impedance 100.00000000000000 0.00000000000000 100.00000000000000 0.00000000000000
22933902.0 -0.37274490798311094 0.19184346922292556 0.44689281074048687 -0.15065827591170217 0.452954188489939 -0.154517602346279 -0.48492634554694247 0.03345580750909406
! Port Impedance 100.00000000000000 0.00000000000000 100.00000000000000 0.00000000000000
22966848.0 -0.3731971265785399 0.1923583277707511 0.4470364907315818 -0.15110279738716417 0.45325292430271136 -0.1548353314728959 -0.4851071466428126 0.033538091860418666
! Port Impedance 100.00000000000000 0.00000000000000 100.00000000000000 0.00000000000000
22999794.0 -0.3726752112166518 0.19203603421178686 0.44681571601527664 -0.15101907037976509 0.4528509403412387 -0.15474682165128265 -0.48512926428451303 0.03346706317471926
! Port Impedance 100.00000000000000 0.00000000000000 100.00000000000000 0.00000000000000
23032740.0 -0.37236664347665505 0.19279829280169852 0.4467253706328559 -0.1516232388383568 0.4526942773049717 -0.15546476648032956 -0.4853175277840476 0.03361751760777605
! Port Impedance 100.00000000000000 0.00000000000000 100.00000000000000 0.00000000000000
23065686.0 -0.37213921081657825 0.19298244935891543 0.4466577596541164 -0.1518384682564468 0.45278562317137183 -0.15558571252015418 -0.48496315890004993 0.03362735058616317
! Port Impedance 100.00000000000000 0.00000000000000 100.00000000000000 0.00000000000000
23098632.0 -0.3719331169557697 0.1932931946608202 0.4465867181738876 -0.15212279386583263 0.45266271104038863 -0.15587124480931003 -0.48502540128640714 0.03366415729862812
! Port Impedance 100.00000000000000 0.00000000000000 100.00000000000000 0.00000000000000
23131578.0 -0.3722773764659507 0.1933233104377623 0.44661676417900376 -0.1520623078331204 0.45279871187099996 -0.15599432876446442 -0.4850610911541493 0.03379691168286618
! Port Impedance 100.00000000000000 0.00000000000000 100.00000000000000 0.00000000000000
23164524.0 -0.3719022234994428 0.19343066189753094 0.44641073080328714 -0.15222364814601566 0.4524811707137841 -0.1561747697136682 -0.4849887698765649 0.033762569827447006
! Port Impedance 100.00000000000000 0.00000000000000 100.00000000000000 0.00000000000000
23197470.0 -0.3714436381937427 0.1937323645703045 0.4463585077477681 -0.15252762190381317 0.45246987898904123 -0.15619454908064406 -0.4850308078278004 0.03382309130362986
! Port Impedance 100.00000000000000 0.00000000000000 100.00000000000000 0.00000000000000
23230416.0 -0.37108175856803444 0.1936795898702626 0.44602336846227597 -0.15248531120680586 0.4522800258223316 -0.156428338477324 -0.4851990806573433 0.03394239044317045
! Port Impedance 100.00000000000000 0.00000000000000 100.00000000000000 0.00000000000000
23263362.0 -0.3710964567637191 0.19389453241476218 0.4460226490301479 -0.15284658074921642 0.452088260694054 -0.15669495961065905 -0.4851107675472462 0.03385755445793594
! Port Impedance 100.00000000000000 0.00000000000000 100.00000000000000 0.00000000000000
23296308.0 -0.37088784378244566 0.19425232021664707 0.44605449726380664 -0.15326119926098417 0.45201260189787035 -0.1570312760939049 -0.4852340910470755 0.033917722042975884
! Port Impedance 100.00000000000000 0.00000000000000 100.00000000000000 0.00000000000000
23329254.0 -0.3709431050153705 0.19451228896792655 0.4459758974497353 -0.15346209824927096 0.45195631157719807 -0.15735947278728618 -0.48508596742443455 0.03395749869638039
! Port Impedance 100.00000000000000 0.00000000000000 100.00000000000000 0.00000000000000
23362200.0 -0.37069525108083345 0.19487954462617119 0.4459353738863018 -0.1538081652643264 0.45194581159326336 -0.157622318730957 -0.4849037858998906 0.033930163282764665
! Port Impedance 100.00000000000000 0.00000000000000 100.00000000000000 0.00000000000000
23395146.0 -0.3705285677168409 0.19488370855012496 0.44582806917140205 -0.1536706930170238 0.4518422339631918 -0.15762516903058335 -0.484935172696784 0.034122636028464305
! Port Impedance 100.00000000000000 0.00000000000000 100.00000000000000 0.00000000000000
23428092.0 -0.37027689160958277 0.19501776479211932 0.4457261512540201 -0.15384264171300535 0.45184045273769424 -0.15781225205944527 -0.485162399054443 0.03409021246947105
! Port Impedance 100.00000000000000 0.00000000000000 100.00000000000000 0.00000000000000
23461038.0 -0.3700024501890322 0.1955002574108092 0.445703038078206 -0.15441670487587417 0.451628369330876 -0.1583565159290559 -0.48536603423105873 0.03422852970105399
! Port Impedance 100.00000000000000 0.00000000000000 100.00000000000000 0.00000000000000
23493984.0 -0.3699259738304229 0.19552576463263502 0.4456545301344278 -0.15464951486001927 0.4516380875867333 -0.1584306782315365 -0.48495188699155367 0.034183795564723236
! Port Impedance 100.00000000000000 0.00000000000000 100.00000000000000 0.00000000000000
23526930.0 -0.36990479866316406 0.1957309075630396 0.4454843536948594 -0.15458168522901056 0.4515991561566801 -0.1586726531778993 -0.48498364630708807 0.034419612065918655
! Port Impedance 100.00000000000000 0.00000000000000 100.00000000000000 0.00000000000000
23559876.0 -0.369537345287353 0.19596696353019322 0.44532237826383925 -0.15478015245282933 0.4515174403743365 -0.15869467686719715 -0.4850965495797757 0.034250997179856225
! Port Impedance 100.00000000000000 0.00000000000000 100.00000000000000 0.00000000000000
23592822.0 -0.3694446472457342 0.19631194970122054 0.44535897043699324 -0.15526432062941686 0.451316627637219 -0.1591705300157244 -0.4853427198453949 0.03447565445853575
! Port Impedance 100.00000000000000 0.00000000000000 100.00000000000000 0.00000000000000
23625768.0 -0.3692714769541277 0.1967180665319024 0.44514073701473794 -0.15542946355000084 0.45125858237663663 -0.1594093105234593 -0.4851547306894787 0.03440745371212972
! Port Impedance 100.00000000000000 0.00000000000000 100.00000000000000 0.00000000000000
23658714.0 -0.36881772609368574 0.1965538236911832 0.4451806389302567 -0.15568130640353225 0.45113360441583006 -0.15955844399441907 -0.4850188935582335 0.034399247812096745
! Port Impedance 100.00000000000000 0.00000000000000 100.00000000000000 0.00000000000000
23691660.0 -0.36887728684072585 0.19662034433689948 0.4451364436668901 -0.1559163346046603 0.45096852117589525 -0.1598146849250791 -0.4849256508561234 0.03458229505577481
! Port Impedance 100.00000000000000 0.00000000000000 100.00000000000000 0.00000000000000
23724606.0 -0.3688320353141477 0.19688222883728573 0.44492552725976053 -0.15583767886986208 0.4509524062557005 -0.15983864507503745 -0.48492323986764174 0.03450553585320324
! Port Impedance 100.00000000000000 0.00000000000000 100.00000000000000 0.00000000000000
23757552.0 -0.3683892493656335 0.19709174037726726 0.4450271078251959 -0.1560866975558847 0.4510200931298697 -0.15998189339417995 -0.48512857595316106 0.03464592070694775
! Port Impedance 100.00000000000000 0.00000000000000 100.00000000000000 0.00000000000000
23790498.0 -0.36851029009522795 0.19722877754594015 0.444803066006246 -0.1563545505411921 0.4508104166780319 -0.160366034310209 -0.4851821117404913 0.034754352439716384
! Port Impedance 100.00000000000000 0.00000000000000 100.00000000000000 0.00000000000000
23823444.0 -0.36805654024193607 0.1975309685959138 0.4446741399847424 -0.15657314310241988 0.4508087438737512 -0.16069991716004312 -0.4853144012353186 0.034706002624351306
! Port Impedance 100.00000000000000 0.00000000000000 100.00000000000000 0.00000000000000
23856390.0 -0.3682312724676884 0.19773627666964513 0.4448188989277345 -0.15682281977054086 0.45073503459031544 -0.16080257539678516 -0.4849900517054239 0.03484376010031355
! Port Impedance 100.00000000000000 0.00000000000000 100.00000000000000 0.00000000000000
23889336.0 -0.3678472166063675 0.1978630674576015 0.4444589707240686 -0.15680252338475012 0.4504486847643173 -0.16090701908868513 -0.48491732572304325 0.03476533168240451
! Port Impedance 100.00000000000000 0.00000000000000 100.00000000000000 0.00000000000000
23922282.0 -0.367473820565249 0.19804336585253432 0.4446238443582603 -0.15736226716809448 0.4505860940865619 -0.1611743321393202 -0.48508803558709485 0.03492927630846323
! Port Impedance 100.00000000000000 0.00000000000000 100.00000000000000 0.00000000000000
23955228.0 -0.36762086085503565 0.19821413384134481 0.4445142499547591 -0.15752076789541863 0.45035327120127033 -0.16143466154404568 -0.48515872468979127 0.0348883269865924
! Port Impedance 100.00000000000000 0.00000000000000 100.00000000000000 0.00000000000000
23988174.0 -0.3672276156777 0.19880971622796037 0.44410171136103854 -0.15782179224799692 0.4501963297076792 -0.16192283095661097 -0.4852021188478305 0.03503099775533068
! Port Impedance 100.00000000000000 0.00000000000000 100.00000000000000 0.00000000000000
24021120.0 -0.36696106641120174 0.19873625407113477 0.4442517158613652 -0.157943828033065 0.450210489718028 -0.1620055436101882 -0.4852282432245436 0.03504005444050107
! Port Impedance 100.00000000000000 0.00000000000000 100.00000000000000 0.00000000000000
24054066.0 -0.3671272197154215 0.19889807516605001 0.44433248445114304 -0.15825621590326433 0.4503011072728103 -0.16225903851520584 -0.4850173128937991 0.03505782828138853
! Port Impedance 100.00000000000000 0.00000000000000 100.00000000000000 0.00000000000000
24087012.0 -0.36639242370624536 0.19903857423798726 0.44401692967093565 -0.15833174714221498 0.4500795314133298 -0.16215810373161765 -0.4850325453133556 0.035119216032144365
! Port Impedance 100.00000000000000 0.00000000000000 100.00000000000000 0.00000000000000
24119958.0 -0.3663795984323937 0.19921951203526614 0.4437868427626264 -0.15831244638154152 0.44991521944611645 -0.16244225719545918 -0.48531109611479406 0.035207262993888606
! Port Impedance 100.00000000000000 0.00000000000000 100.00000000000000 0.00000000000000
24152904.0 -0.366258169312738 0.19952072313782646 0.4439359940541598 -0.15875182469312907 0.44975540202827213 -0.1627583298494098 -0.48517758293684315 0.03501953543889945
! Port Impedance 100.00000000000000 0.00000000000000 100.00000000000000 0.00000000000000
24185850.0 -0.36617766473779506 0.19994464618680452 0.4436675518574636 -0.159155545372477 0.44973170747724245 -0.16325397717102294 -0.4852216971992756 0.03524824778853652
! Port Impedance 100.00000000000000 0.00000000000000 100.00000000000000 0.00000000000000
24218796.0 -0.36599049272203077 0.20000087276722775 0.44356964622294215 -0.15910043110883215 0.4496493297159136 -0.16334799367236552 -0.4849149514061001 0.03534899240617002
! Port Impedance 100.00000000000000 0.00000000000000 100.00000000000000 0.00000000000000
24251742.0 -0.36571045589844586 0.20012621903477637 0.44360974350862054 -0.1593137995648553 0.44959486634045587 -0.16321893584659283 -0.4851745348699754 0.03520821241277782
! Port Impedance 100.00000000000000 0.00000000000000 100.00000000000000 0.00000000000000
24284688.0 -0.36587866507427635 0.20036588755551427 0.4437719807019431 -0.15965865342786045 0.4497773646193645 -0.16366815973065366 -0.485122125834049 0.03542831174089346
! Port Impedance 100.00000000000000 0.00000000000000 100.00000000000000 0.00000000000000
24317634.0 -0.36554666736946484 0.20041468129182927 0.443485438608219 -0.15980774317973598 0.4492163631334679 -0.16383877478537653 -0.48521536570922696 0.03525110333650569
! Port Impedance 100.00000000000000 0.00000000000000 100.00000000000000 0.00000000000000
24350580.0 -0.36520214964563313 0.20068300058578517 0.44320431513613723 -0.16002112808128405 0.44932434527089476 -0.16419053841887007 -0.48534096288958556 0.03565100551622602
! Port Impedance 100.00000000000000 0.00000000000000 100.00000000000000 0.00000000000000
24383526.0 -0.3651741403916907 0.20084318814298688 0.4433447662534589 -0.16028960467515205 0.44928140169487035 -0.16437243382882866 -0.4850049009303601 0.03554002929322484
! Port Impedance 100.00000000000000 0.00000000000000 100.00000000000000 0.00000000000000
24416472.0 -0.36484116513778575 0.20109020859543567 0.4431873022589907 -0.16033048538359282 0.44909870527417883 -0.16426749939847562 -0.48503373930351484 0.03559223870378759
! Port Impedance 100.00000000000000 0.00000000000000 100.00000000000000 0.00000000000000
24449418.0 -0.3648215500379926 0.20128144174905654 0.44311318558665586 -0.16067672121843876 0.4492346118213488 -0.16483615344321054 -0.48532440895509243 0.03551410793094056
! Port Impedance 100.00000000000000 0.00000000000000 100.00000000000000 0.00000000000000
24482364.0 -0.3644065047459648 0.20130338535807898 0.44295976105344914 -0.16063795866441485 0.44896154390941073 -0.1649043051239501 -0.48519729886983054 0.03574864249236784
! Port Impedance 100.00000000000000 0.00000000000000 100.00000000000000 0.00000000000000
24515310.0 -0.36452229990438595 0.2020111822131669 0.4429380052182178 -0.1612238985191815 0.4488597469888347 -0.16539464432219267 -0.48528216355336223 0.03565732258413147
! Port Impedance 100.00000000000000 0.00000000000000 100.00000000000000 0.00000000000000
24548256.0 -0.36405063879372696 0.20191072549819583 0.44271289660908997 -0.16131007051349375 0.44874198371451424 -0.16555819160060567 -0.48522189354834155 0.03584182497022336
! Port Impedance 100.00000000000000 0.00000000000000 100.00000000000000 0.00000000000000
24581202.0 -0.36423893823874387 0.20223361265162065 0.4429296557457117 -0.16173746707633369 0.4486801685600248 -0.1657313891423515 -0.4849229007770215 0.03572122116506331
! Port Impedance 100.00000000000000 0.00000000000000 100.00000000000000 0.00000000000000
24614148.0 -0.36396957171783584 0.20219152145266292 0.4427060533661017 -0.16156786009854218 0.4486368510966195 -0.16580740482577191 -0.4849813538512542 0.035869696876017404
! Port Impedance 100.00000000000000 0.00000000000000 100.00000000000000 0.00000000000000
24647094.0 -0.36367998666459694 0.2028439415779216 0.44265871658019534 -0.1620673947899413 0.44857242594462343 -0.1659661344453274 -0.4849837568573644 0.0359047716189535
! Port Impedance 100.00000000000000 0.00000000000000 100.00000000000000 0.00000000000000
24680040.0 -0.3632282595013423 0.2026419589622979 0.44250533333779773 -0.1621739816493951 0.44849058581750106 -0.16619695701768208 -0.4849828360511596 0.036053170006595296
! Port Impedance 100.00000000000000 0.00000000000000 100.00000000000000 0.00000000000000
24712986.0 -0.363397350001314 0.20294712168205245 0.4425933564844715 -0.1624522161374214 0.448467634169633 -0.16639934965312791 -0.4849633141965158 0.036056081889192404
! Port Impedance 100.00000000000000 0.00000000000000 100.00000000000000 0.00000000000000
24745932.0 -0.36311623383887104 0.2030831443146197 0.44228433897070174 -0.16244754848825033 0.4482610234503158 -0.16659402048567545 -0.4851397380540374 0.03588884754544554
! Port Impedance 100.00000000000000 0.00000000000000 100.00000000000000 0.00000000000000
24778878.0 -0.36292094866088886 0.2033478261710252 0.4422691411452394 -0.16284892473486579 0.4480483379433092 -0.16694172112619776 -0.48525402649478294 0.03597201442053557
! Port Impedance 100.00000000000000 0.00000000000000 100.00000000000000 0.00000000000000
24811824.0 -0.36280613321093985 0.20348288650496027 0.4421421217362963 -0.16311949973588563 0.44811093561216053 -0.16738735295152454 -0.48526876862498036 0.03611536126349066
! Port Impedance 100.00000000000000 0.00000000000000 100.00000000000000 0.00000000000000
24844770.0 -0.3627122452048255 0.20389857896173083 0.4423102814096037 -0.16336088889876696 0.4480607704616537 -0.16762390321775444 -0.485048181659727 0.03628483720225783
! Port Impedance 100.00000000000000 0.00000000000000 100.00000000000000 0.00000000000000
24877716.0 -0.36216847062554297 0.20376469401064737 0.4419798374097409 -0.16336462756350445 0.4479091906502808 -0.16740340137391208 -0.4850490552769921 0.036270917324831495
! Port Impedance 100.00000000000000 0.00000000000000 100.00000000000000 0.00000000000000
24910662.0 -0.3619844730639804 0.20391840945545783 0.4417416752706066 -0.16343860000323213 0.44770488894915544 -0.16774365856496445 -0.4852267827810013 0.03625884445943566
! Port Impedance 100.00000000000000 0.00000000000000 100.00000000000000 0.00000000000000
24943608.0 -0.3618815748795548 0.20446506768842024 0.44191906874957787 -0.1638752872898999 0.4475184944199346 -0.1680753196430519 -0.48518892307440464 0.03637556571280737
! Port Impedance 100.00000000000000 0.00000000000000 100.00000000000000 0.00000000000000
24976554.0 -0.36177296215997823 0.20442874949412287 0.44181563244215527 -0.16426963687859844 0.4476165564380132 -0.16837966424422676 -0.4852198306803791 0.0363017997366046
! Port Impedance 100.00000000000000 0.00000000000000 100.00000000000000 0.00000000000000
25009500.0 -0.3615067025229784 0.20474340329352797 0.4417263934464643 -0.16438820067662735 0.4473815346768042 -0.16853372312646814 -0.48508433894767 0.03629502762536514
! Port Impedance 100.00000000000000 0.00000000000000 100.00000000000000 0.00000000000000
25042446.0 -0.3612780959184505 0.20481818292913748 0.44147661898678053 -0.16451245561138245 0.447314632501949 -0.1687378750754508 -0.48522599569725133 0.03660781005679849
! Port Impedance 100.00000000000000 0.00000000000000 100.00000000000000 0.00000000000000
25075392.0 -0.361444349657117 0.20538088082176198 0.4415893252910845 -0.16483745506772296 0.4474290401908493 -0.16908329410478778 -0.4850977119664537 0.03651788913989152
! Port Impedance 100.00000000000000 0.00000000000000 100.00000000000000 0.00000000000000
25108338.0 -0.3609653341499415 0.20520479015395185 0.4413590240869898 -0.16494670791617821 0.44733869372335466 -0.1689217511223834 -0.4850250647311115 0.036485350447254095
! Port Impedance 100.00000000000000 0.00000000000000 100.00000000000000 0.00000000000000
25141284.0 -0.36093262642692614 0.2051721150226789 0.44136605868757567 -0.16494991499638406 0.44696336675054915 -0.16921022543626385 -0.4850630499670744 0.03666026041357857
! Port Impedance 100.00000000000000 0.00000000000000 100.00000000000000 0.00000000000000
25174230.0 -0.360679619525457 0.2056937021207141 0.4411292209674067 -0.1654083108125851 0.4469360358662682 -0.1697048828551649 -0.4852307955712891 0.03661699873570472
! Port Impedance 100.00000000000000 0.00000000000000 100.00000000000000 0.00000000000000
25207176.0 -0.3602891513620644 0.20548356802803447 0.44096337143163683 -0.1653957937913143 0.44691334840266744 -0.1696757554980166 -0.48517811478992 0.036708326154781055
! Port Impedance 100.00000000000000 0.00000000000000 100.00000000000000 0.00000000000000
25240122.0 -0.36049975563381675 0.20632944966006148 0.4411761425201193 -0.16590637507961295 0.4469212385452225 -0.17016910520414233 -0.4849427285780751 0.036815626853575256
! Port Impedance 100.00000000000000 0.00000000000000 100.00000000000000 0.00000000000000
25273068.0 -0.36013256022781126 0.20644250802610403 0.44103767459679843 -0.1659474586972768 0.44686861512702525 -0.17028794546182519 -0.4851560204831359 0.03689928021472085
! Port Impedance 100.00000000000000 0.00000000000000 100.00000000000000 0.00000000000000
25306014.0 -0.35981684478831477 0.206547792882024 0.44090538154380154 -0.16617427702768814 0.44670980674307664 -0.17043163930977115 -0.4851323777092774 0.03671561588568104
! Port Impedance 100.00000000000000 0.00000000000000 100.00000000000000 0.00000000000000
25338960.0 -0.36003210941683406 0.2067171100067854 0.4407794618148472 -0.1664885304680898 0.4467161801503155 -0.1707306654469155 -0.48522224290893945 0.03679289450577994
! Port Impedance 100.00000000000000 0.00000000000000 100.00000000000000 0.00000000000000
25371906.0 -0.35959045776845555 0.2065073031129025 0.4406412456582339 -0.16659598127767694 0.44640999589511765 -0.1709983401176248 -0.4852669926478742 0.03690368053931056
! Port Impedance 100.00000000000000 0.00000000000000 100.00000000000000 0.00000000000000
25404852.0 -0.3591057457898047 0.20700441417883655 0.4403290963978236 -0.16682090609805775 0.44627058354326204 -0.17132452568987977 -0.48523671785409683 0.03716406485909802
! Port Impedance 100.00000000000000 0.00000000000000 100.00000000000000 0.00000000000000
25437798.0 -0.3594278441027736 0.2072626757336985 0.44052629239132635 -0.1669055718058228 0.44653883349164236 -0.1713891228781497 -0.48506608403482826 0.03698788440030805
! Port Impedance 100.00000000000000 0.00000000000000 100.00000000000000 0.00000000000000
25470744.0 -0.35882305215819316 0.20740106038823053 0.44036258476101886 -0.16717794130518776 0.44628670517313795 -0.17137009411617476 -0.48505229078728096 0.03695131933624199
! Port Impedance 100.00000000000000 0.00000000000000 100.00000000000000 0.00000000000000
25503690.0 -0.3587552679153043 0.20738982161504424 0.4401463848824756 -0.1673110281258966 0.44601259692734935 -0.17170770736003935 -0.4853581831186209 0.03714773824296421
! Port Impedance 100.00000000000000 0.00000000000000 100.00000000000000 0.00000000000000
25536636.0 -0.35880329909320363 0.20771475969271957 0.4402834959091564 -0.16773614583197394 0.44604707941894345 -0.1720638099254367 -0.4852719029583252 0.03713088171811155
! Port Impedance 100.00000000000000 0.00000000000000 100.00000000000000 0.00000000000000
25569582.0 -0.35841376534393066 0.2079244995192471 0.4400715551108427 -0.16790047679382103 0.4458038555870839 -0.17220766933986695 -0.48528370039108615 0.037119666880532726
! Port Impedance 100.00000000000000 0.00000000000000 100.00000000000000 0.00000000000000
25602528.0 -0.35829768493085357 0.20815223433064756 0.4400308158117582 -0.16818259057760004 0.44595478066215033 -0.17272922995914228 -0.4854616912986803 0.03738441430076842
! Port Impedance 100.00000000000000 0.00000000000000 100.00000000000000 0.00000000000000
25635474.0 -0.35825494585404494 0.20847942587296836 0.44007726089530474 -0.16839658435929145 0.4456435944174985 -0.17275683880203543 -0.48508781315753036 0.03732394064777349
! Port Impedance 100.00000000000000 0.00000000000000 100.00000000000000 0.00000000000000
25668420.0 -0.35823439933167334 0.2082538233511322 0.4401323210369831 -0.16834911611908882 0.44569440656375403 -0.17268809286368128 -0.4849738320549609 0.037334563938446655
! Port Impedance 100.00000000000000 0.00000000000000 100.00000000000000 0.00000000000000
25701366.0 -0.35792507067285373 0.20870739915725425 0.43993739964378714 -0.16891069793507296 0.4456762109460241 -0.1730388014334671 -0.48508567204582276 0.03728438013060876
! Port Impedance 100.00000000000000 0.00000000000000 100.00000000000000 0.00000000000000
25734312.0 -0.35744504517125075 0.20866166160732932 0.43964095818763094 -0.16866957563926843 0.4453342480442463 -0.17314928358741996 -0.4852179560433504 0.03741857085982217
! Port Impedance 100.00000000000000 0.00000000000000 100.00000000000000 0.00000000000000
25767258.0 -0.35761707891793304 0.20925487942148555 0.4397068240065076 -0.16927073601002982 0.44536112678894235 -0.1735878353163341 -0.48515631914695867 0.037498697853269494
! Port Impedance 100.00000000000000 0.00000000000000 100.00000000000000 0.00000000000000
25800204.0 -0.35734881908409166 0.209525890657085 0.4396741165471402 -0.16947310307524105 0.4453539566899015 -0.17396545047990591 -0.4849704496598915 0.03757386420662029
! Port Impedance 100.00000000000000 0.00000000000000 100.00000000000000 0.00000000000000
25833150.0 -0.35669412677687107 0.20948161240705526 0.43922667933705156 -0.16937377853278276 0.4450201702244524 -0.17380460501552025 -0.48504583533386664 0.037699575285113446
! Port Impedance 100.00000000000000 0.00000000000000 100.00000000000000 0.00000000000000
25866096.0 -0.35662113571706555 0.20973298251211625 0.43926221469177634 -0.1697228706560845 0.4451221460767984 -0.1740051920879048 -0.4850962009434927 0.037537773662955805
! Port Impedance 100.00000000000000 0.00000000000000 100.00000000000000 0.00000000000000
25899042.0 -0.35648204659068555 0.20939836745239504 0.4391736592261962 -0.16980915161908333 0.4449368053305 -0.1743368685097384 -0.4852017023220437 0.037792761952793824
! Port Impedance 100.00000000000000 0.00000000000000 100.00000000000000 0.00000000000000
25931988.0 -0.3562037115290069 0.20998634914137634 0.4389412433044154 -0.1701613692067908 0.4447731707910964 -0.1746676501331788 -0.4853048466352559 0.03783935980272035
! Port Impedance 100.00000000000000 0.00000000000000 100.00000000000000 0.00000000000000
25964934.0 -0.3562111780251134 0.21038453768667081 0.43912954224497586 -0.17030461896192978 0.44501106043503313 -0.1747638330141492 -0.48532485353796256 0.03789803740894272
! Port Impedance 100.00000000000000 0.00000000000000 100.00000000000000 0.00000000000000
25997880.0 -0.35617317877166044 0.21057636200057817 0.43903008724732084 -0.17063085161368083 0.4447855529591095 -0.1750145931368424 -0.48542334546595717 0.03786214021585475
! Port Impedance 100.00000000000000 0.00000000000000 100.00000000000000 0.00000000000000
26030826.0 -0.35593630361986583 0.2103111318433924 0.43899020745476586 -0.17064977161220862 0.4446143561528176 -0.1751464499066925 -0.48517373804303815 0.03774902558561169
! Port Impedance 100.00000000000000 0.00000000000000 100.00000000000000 0.00000000000000
26063772.0 -0.3555965977892973 0.2106125722108885 0.4387357221032 -0.17096369043385912 0.4444687293639503 -0.17561967803023726 -0.4851939848348713 0.03800505972207709
! Port Impedance 100.00000000000000 0.00000000000000 100.00000000000000 0.00000000000000
26096718.0 -0.3556582797789277 0.21102922827152115 0.4387282247505029 -0.1712202471078742 0.444349993827614 -0.17579103937819107 -0.4850662415154563 0.03802506073749227
! Port Impedance 100.00000000000000 0.00000000000000 100.00000000000000 0.00000000000000
26129664.0 -0.35534572437127854 0.21131605852186938 0.4387459719807464 -0.1714827146252338 0.4444059366676755 -0.1759975064563035 -0.4848744814654552 0.03808920524645561
! Port Impedance 100.00000000000000 0.00000000000000 100.00000000000000 0.00000000000000
26162610.0 -0.35510423797593443 0.21126711703320972 0.4384668000385706 -0.1714473872089507 0.44421320652224694 -0.17597052961367796 -0.4850023898508088 0.038130346162036866
! Port Impedance 100.00000000000000 0.00000000000000 100.00000000000000 0.00000000000000
26195556.0 -0.35454591844185734 0.211419515090872 0.43837882785555743 -0.17180469200620635 0.44412706155225656 -0.17621552433482213 -0.4850865513071365 0.038165383914686386
! Port Impedance 100.00000000000000 0.00000000000000 100.00000000000000 0.00000000000000
26228502.0 -0.3545627233966937 0.2114571929148513 0.43820997732245426 -0.17184430153076719 0.4438843034660881 -0.17655294361476256 -0.48531235456714295 0.03832808393383655
! Port Impedance 100.00000000000000 0.00000000000000 100.00000000000000 0.00000000000000
26261448.0 -0.35445348276023103 0.21162747216111288 0.4382419624778209 -0.17214816536104097 0.4438418451045439 -0.1766854951023048 -0.4851091811353054 0.0382205383960121
! Port Impedance 100.00000000000000 0.00000000000000 100.00000000000000 0.00000000000000
26294394.0 -0.3545123167359853 0.21205353900301113 0.438222000452523 -0.17256362556484262 0.44375814685963055 -0.1770512733573569 -0.48521045126614576 0.038197036863502495
! Port Impedance 100.00000000000000 0.00000000000000 100.00000000000000 0.00000000000000
26327340.0 -0.353987151127582 0.21248772621707313 0.4380599920242686 -0.1728464279915049 0.443625731091458 -0.17732884850019878 -0.48531710843988496 0.03841998600058317
! Port Impedance 100.00000000000000 0.00000000000000 100.00000000000000 0.00000000000000
26360286.0 -0.35418744358262916 0.21270168846119697 0.4381718440473622 -0.17308404796635257 0.44364850720863763 -0.17758817364454 -0.4850026936157825 0.03835118536784657
! Port Impedance 100.00000000000000 0.00000000000000 100.00000000000000 0.00000000000000
26393232.0 -0.3540419468424945 0.21298907786963422 0.4380696250724728 -0.17317277592016786 0.4436893654304518 -0.1776897043668223 -0.4851175296181902 0.03847618585216126
! Port Impedance 100.00000000000000 0.00000000000000 100.00000000000000 0.00000000000000
26426178.0 -0.35391212103808134 0.21304259941952172 0.4379231004794593 -0.17339106563540568 0.44372081533897156 -0.17793219939366378 -0.4851634006545209 0.03855612900480727
! Port Impedance 100.00000000000000 0.00000000000000 100.00000000000000 0.00000000000000
26459124.0 -0.3530253281300882 0.21293823190088645 0.4375326930466693 -0.17336463810160868 0.44328568518629813 -0.17803494824845328 -0.48511065477625814 0.03863035220216128
! Port Impedance 100.00000000000000 0.00000000000000 100.00000000000000 0.00000000000000
26492070.0 -0.3531757962042831 0.21317573978482435 0.4376606592214681 -0.1737703454961374 0.4433934422382286 -0.17812311517544288 -0.4850578408407742 0.03859193845781646
! Port Impedance 100.00000000000000 0.00000000000000 100.00000000000000 0.00000000000000
26525016.0 -0.3529489468690995 0.21340701846621377 0.4374481261425776 -0.17394039440619755 0.44319910852819266 -0.178509369247412 -0.4853100858724808 0.038532912375961625
! Port Impedance 100.00000000000000 0.00000000000000 100.00000000000000 0.00000000000000
26557962.0 -0.35277621872691867 0.21358914942229024 0.4372925818505438 -0.17429923524905938 0.44290241819221016 -0.17884497860468318 -0.4850579276689027 0.038675925419207904
! Port Impedance 100.00000000000000 0.00000000000000 100.00000000000000 0.00000000000000
26590908.0 -0.352475895339251 0.21404102446652196 0.43724005220006334 -0.17458292569578857 0.4429461280013726 -0.17925480493901647 -0.4854308404722443 0.03883581856004258
! Port Impedance 100.00000000000000 0.00000000000000 100.00000000000000 0.00000000000000
26623854.0 -0.3528571882263779 0.21430726445416637 0.4374040274716696 -0.17476822829074812 0.4429268849011198 -0.17925171176649046 -0.4850672472767241 0.038730371404629274
! Port Impedance 100.00000000000000 0.00000000000000 100.00000000000000 0.00000000000000
26656800.0 -0.3522692614732136 0.2143351837654491 0.43719476772663823 -0.1748156113633109 0.4428488406765632 -0.179343026404746 -0.4852545251685466 0.038936008823557536
! Port Impedance 100.00000000000000 0.00000000000000 100.00000000000000 0.00000000000000
26689746.0 -0.35199895109321844 0.21433632758404714 0.43707672052578117 -0.17506068975247185 0.4427358906202657 -0.1796063175799802 -0.4851415119678413 0.038760768166619
! Port Impedance 100.00000000000000 0.00000000000000 100.00000000000000 0.00000000000000
26722692.0 -0.3517519756596584 0.21429814406790362 0.4369787385369698 -0.17505398024465052 0.44253406686793456 -0.1797701444586164 -0.48523158058226823 0.03902978828722871
! Port Impedance 100.00000000000000 0.00000000000000 100.00000000000000 0.00000000000000
26755638.0 -0.351675640272091 0.21474600012800416 0.4369340012957068 -0.17547688066886363 0.4424290653907935 -0.18010202845243206 -0.48518308325343285 0.039006050585186545
! Port Impedance 100.00000000000000 0.00000000000000 100.00000000000000 0.00000000000000
26788584.0 -0.3517810431707651 0.21513307558728387 0.4368865726257198 -0.17574406947988766 0.44254697542567656 -0.18057603325998367 -0.4852081431288336 0.03909214917735773
! Port Impedance 100.00000000000000 0.00000000000000 100.00000000000000 0.00000000000000
26821530.0 -0.3514900771216316 0.21530418482097988 0.436711503317074 -0.1758772559415738 0.4422910120082827 -0.18028574799949323 -0.48506963301433254 0.03892330878111491
! Port Impedance 100.00000000000000 0.00000000000000 100.00000000000000 0.00000000000000
26854476.0 -0.35113673267163986 0.21508630300963325 0.43652271199564674 -0.17601485126998095 0.44209285828528666 -0.18077499389044044 -0.48505522661549166 0.03903076211596244
! Port Impedance 100.00000000000000 0.00000000000000 100.00000000000000 0.00000000000000
26887422.0 -0.35073912924658535 0.21581798389908619 0.43637173502392457 -0.17633895515678283 0.44190278999380894 -0.18091253708473182 -0.48519697792653865 0.03900553058802066
! Port Impedance 100.00000000000000 0.00000000000000 100.00000000000000 0.00000000000000
26920368.0 -0.3505606218868159 0.21581126068496123 0.4364257933216343 -0.17660554205111742 0.4419083306300454 -0.18126909458241078 -0.48507404432545026 0.039182333919274275
! Port Impedance 100.00000000000000 0.00000000000000 100.00000000000000 0.00000000000000
26953314.0 -0.35028067137850405 0.21540408599696229 0.43610273156623425 -0.17647551685817203 0.4416981387366786 -0.18136385351037135 -0.48517239566135495 0.03954714630242092
! Port Impedance 100.00000000000000 0.00000000000000 100.00000000000000 0.00000000000000
26986260.0 -0.350558534861149 0.21629004924721312 0.43640142066889875 -0.1768244634976513 0.4420683324859024 -0.18151695568087994 -0.4851522109230754 0.03915699599981681
! Port Impedance 100.00000000000000 0.00000000000000 100.00000000000000 0.00000000000000
27019206.0 -0.3499225160309626 0.2161335537716129 0.43607530505242437 -0.1771064722222675 0.44172347255762695 -0.1816038982583728 -0.4853580806420295 0.03947167538475798
! Port Impedance 100.00000000000000 0.00000000000000 100.00000000000000 0.00000000000000
27052152.0 -0.34972917316706226 0.2164004961801529 0.43598674066604537 -0.17726492061042531 0.4415345865311985 -0.18189956376382826 -0.4854081662359463 0.03947703235519158
! Port Impedance 100.00000000000000 0.00000000000000 100.00000000000000 0.00000000000000
27085098.0 -0.34974455768801604 0.21661837559015343 0.43602664192982765 -0.17749085375627421 0.4414787748959671 -0.1820750094626475 -0.4851184132236786 0.03938062681664044
! Port Impedance 100.00000000000000 0.00000000000000 100.00000000000000 0.00000000000000
27118044.0 -0.3497585612855563 0.21661778895416875 0.43582372798314817 -0.17770994493423506 0.44147901227593245 -0.18247457737818135 -0.48525325539819475 0.03950132264933952
! Port Impedance 100.00000000000000 0.00000000000000 100.00000000000000 0.00000000000000
27150990.0 -0.3493385162002468 0.21696346781832232 0.4358584134900456 -0.17778114751420415 0.44127320353631183 -0.18240028442535453 -0.4852089441726994 0.0394062153035276
! Port Impedance 100.00000000000000 0.00000000000000 100.00000000000000 0.00000000000000
27183936.0 -0.34935854679292166 0.21710517389176148 0.4356128943023302 -0.17824739189500133 0.4412528529721496 -0.18309671120644155 -0.48522502750683083 0.039762523913595124
! Port Impedance 100.00000000000000 0.00000000000000 100.00000000000000 0.00000000000000
27216882.0 -0.34885658335701003 0.2171608331400539 0.4355335534046322 -0.17822995853716198 0.44099602524746095 -0.18318160347246878 -0.4850937969597363 0.039862047243778204
! Port Impedance 100.00000000000000 0.00000000000000 100.00000000000000 0.00000000000000
27249828.0 -0.3490102407926472 0.217607452944296 0.435628906068534 -0.17842404025790748 0.4412318774339577 -0.1831198251831618 -0.4852038415440288 0.03956540470808797
! Port Impedance 100.00000000000000 0.00000000000000 100.00000000000000 0.00000000000000
27282774.0 -0.3481857133865194 0.21736967252816686 0.4353283460167505 -0.17860746757598875 0.44106894638911975 -0.18331620263671425 -0.4853864337076 0.03972989840294162
! Port Impedance 100.00000000000000 0.00000000000000 100.00000000000000 0.00000000000000
27315720.0 -0.34849298396398865 0.21770781905413703 0.43531810210730015 -0.17895673521126612 0.44073288474505246 -0.18362774502792664 -0.48508823202482 0.039634342236406786
! Port Impedance 100.00000000000000 0.00000000000000 100.00000000000000 0.00000000000000
27348666.0 -0.34852780543114215 0.21787301564075343 0.43542006524697985 -0.17910255316956233 0.44084889948364847 -0.18376114561884277 -0.48504852106349694 0.03983077107309087
! Port Impedance 100.00000000000000 0.00000000000000 100.00000000000000 0.00000000000000
27381612.0 -0.34821413052683237 0.2183977718809268 0.43511905646182003 -0.1792331435442557 0.44063115442319517 -0.1841159773062157 -0.485420278582295 0.039860706675641094
! Port Impedance 100.00000000000000 0.00000000000000 100.00000000000000 0.00000000000000
27414558.0 -0.3475417173190734 0.2182944696531641 0.43487507003212095 -0.17948222786563503 0.4403194990687055 -0.18441265625396747 -0.48518295281812085 0.04021962779394611
! Port Impedance 100.00000000000000 0.00000000000000 100.00000000000000 0.00000000000000
27447504.0 -0.3479500928075164 0.2186217635934985 0.4350505981263113 -0.17966996510454458 0.44056588269215324 -0.18440544018913818 -0.4851035753777502 0.03992509895625844
! Port Impedance 100.00000000000000 0.00000000000000 100.00000000000000 0.00000000000000
27480450.0 -0.3471727751674159 0.21840229487358076 0.4347788955992435 -0.17982102749444442 0.4403906584380203 -0.18457654090822548 -0.4854710891716693 0.04007238775216497
! Port Impedance 100.00000000000000 0.00000000000000 100.00000000000000 0.00000000000000
27513396.0 -0.3472551869375514 0.21910436702036765 0.43457131457140563 -0.18018681525449198 0.44025556490815937 -0.18493148664761377 -0.4852316892618408 0.040088956083414055
! Port Impedance 100.00000000000000 0.00000000000000 100.00000000000000 0.00000000000000
27546342.0 -0.347289937996859 0.21892888606391372 0.43470315072450094 -0.18030988225115607 0.4400998685072879 -0.18514791693679927 -0.4852940224033669 0.04019442995456416
! Port Impedance 100.00000000000000 0.00000000000000 100.00000000000000 0.00000000000000
27579288.0 -0.34684187354491913 0.21925069129960964 0.4345041365530271 -0.1806538282903016 0.4399803659427121 -0.18565847302542662 -0.48523643410146355 0.04039044115218835
! Port Impedance 100.00000000000000 0.00000000000000 100.00000000000000 0.00000000000000
27612234.0 -0.3467144270922907 0.21986070956108134 0.43460874384348525 -0.18098730705866858 0.4401005514536717 -0.18573272781329075 -0.4852351447021725 0.04021886797927249
! Port Impedance 100.00000000000000 0.00000000000000 100.00000000000000 0.00000000000000
27645180.0 -0.34656808199415184 0.21980628717436057 0.43432895258240606 -0.18101704513093878 0.43985218513860286 -0.18571754955996 -0.4852852719258367 0.04018339219323347
! Port Impedance 100.00000000000000 0.00000000000000 100.00000000000000 0.00000000000000
27678126.0 -0.3462559886139432 0.21952003478655813 0.4342233857818454 -0.18100798931200474 0.43970277213132053 -0.1859237571477891 -0.4854333725577868 0.04045027224541416
! Port Impedance 100.00000000000000 0.00000000000000 100.00000000000000 0.00000000000000
27711072.0 -0.3459985539167433 0.22023709546680564 0.43404894760093127 -0.18143624175360695 0.4395541281559603 -0.18608779653904992 -0.48518796308539625 0.04018875062217547
! Port Impedance 100.00000000000000 0.00000000000000 100.00000000000000 0.00000000000000
27744018.0 -0.3460902549064 0.2203285364763052 0.43415043885047544 -0.18166749068643256 0.43953011469436276 -0.18661577512930844 -0.4850583905593096 0.040555603111356905
! Port Impedance 100.00000000000000 0.00000000000000 100.00000000000000 0.00000000000000
27776964.0 -0.3452773753935045 0.22023324442464665 0.43388461321392335 -0.18176533606969045 0.4394428914254428 -0.18659218397900254 -0.4854727947770079 0.04057472189774674
! Port Impedance 100.00000000000000 0.00000000000000 100.00000000000000 0.00000000000000
27809910.0 -0.34535698333870274 0.22017426536426424 0.4338226721652198 -0.18182126156607753 0.43927418251913997 -0.1867298059329482 -0.48534455834731605 0.040551138903021006
! Port Impedance 100.00000000000000 0.00000000000000 100.00000000000000 0.00000000000000
27842856.0 -0.3454417621986075 0.22085561599807466 0.4338645205171851 -0.1823749045665906 0.43914874282411265 -0.18723884591201384 -0.48519810982348066 0.0404621496323046
! Port Impedance 100.00000000000000 0.00000000000000 100.00000000000000 0.00000000000000
27875802.0 -0.34524505186764587 0.22118362460359386 0.4336551709490061 -0.18246900419380446 0.43897504061763737 -0.18731112043755507 -0.48512980155776986 0.04056016673793453
! Port Impedance 100.00000000000000 0.00000000000000 100.00000000000000 0.00000000000000
27908748.0 -0.34501781200003334 0.22135212202591928 0.4337904889331736 -0.18259781851732668 0.4392206893684295 -0.18742575089728591 -0.48527060834341806 0.04054997968172746
! Port Impedance 100.00000000000000 0.00000000000000 100.00000000000000 0.00000000000000
27941694.0 -0.34433810846116875 0.2211858718306041 0.433382277065566 -0.18277912896896886 0.4389899462297263 -0.18775098487127856 -0.48533091599762795 0.040884331182309816
! Port Impedance 100.00000000000000 0.00000000000000 100.00000000000000 0.00000000000000
27974640.0 -0.3444285976558069 0.22153369593809974 0.4333764248931305 -0.18313934146291053 0.43867670207242726 -0.18809521826178088 -0.48549807216823115 0.04094166891021682
! Port Impedance 100.00000000000000 0.00000000000000 100.00000000000000 0.00000000000000
28007586.0 -0.3442315566068197 0.22167771445146334 0.4332603427769055 -0.18331885117145313 0.4385790302962782 -0.18814203043888658 -0.48522135609649075 0.04070138279965163
! Port Impedance 100.00000000000000 0.00000000000000 100.00000000000000 0.00000000000000
28040532.0 -0.34407905400012523 0.2215787520940037 0.4330669486284049 -0.1833519423446865 0.4384920749447146 -0.18843508842995518 -0.4852030387606596 0.041120524878525765
! Port Impedance 100.00000000000000 0.00000000000000 100.00000000000000 0.00000000000000
28073478.0 -0.3439793711755677 0.22213631057734598 0.43327507207806515 -0.18356406329539954 0.43855800290258695 -0.1885158147193962 -0.4851405775270342 0.040847823984406194
! Port Impedance 100.00000000000000 0.00000000000000 100.00000000000000 0.00000000000000
28106424.0 -0.34394715420832844 0.22234519199117356 0.4330295177915672 -0.18376658873333962 0.43850506675320877 -0.18858790618104013 -0.48515689065883816 0.040906814626205296
! Port Impedance 100.00000000000000 0.00000000000000 100.00000000000000 0.00000000000000
28139370.0 -0.343644246542927 0.22250405567413803 0.43299706631079105 -0.18437081455069587 0.43837789707842706 -0.18922451929337425 -0.485312610958005 0.04106752620075958
! Port Impedance 100.00000000000000 0.00000000000000 100.00000000000000 0.00000000000000
28172316.0 -0.34343952699813024 0.22243257821112605 0.4328519711073876 -0.18405860852489883 0.4381916323350102 -0.18895255637098893 -0.485256292771542 0.04090454005159529
! Port Impedance 100.00000000000000 0.00000000000000 100.00000000000000 0.00000000000000
28205262.0 -0.3432723012531581 0.22279361370463943 0.4328445786491872 -0.1847079934393848 0.4381791700965508 -0.18982776010144248 -0.48533998954699287 0.041323175994590906
! Port Impedance 100.00000000000000 0.00000000000000 100.00000000000000 0.00000000000000
28238208.0 -0.3430926376276946 0.22301845185917926 0.4326896407428347 -0.1849797242823962 0.43805316378571174 -0.19004862532200056 -0.4853878305194056 0.041497165389967616
! Port Impedance 100.00000000000000 0.00000000000000 100.00000000000000 0.00000000000000
28271154.0 -0.3428015519572998 0.22315244451532074 0.43284009254388633 -0.1848812117677593 0.43824797062731635 -0.18987951044776774 -0.48531012022559916 0.04120662003461666
! Port Impedance 100.00000000000000 0.00000000000000 100.00000000000000 0.00000000000000
28304100.0 -0.3423260838859373 0.22336227733898587 0.4323498067789967 -0.18507052917560338 0.4377849676062383 -0.19003369132550904 -0.48550536515476816 0.04141352693469606
! Port Impedance 100.00000000000000 0.00000000000000 100.00000000000000 0.00000000000000
28337046.0 -0.34241573343629883 0.22355142405012823 0.4323376996740692 -0.18546789113943232 0.43758791994565 -0.1904305800862366 -0.48545094500314906 0.041345664397091766
! Port Impedance 100.00000000000000 0.00000000000000 100.00000000000000 0.00000000000000
28369992.0 -0.3421376744677058 0.22368357576803463 0.43222779779197396 -0.1855798168386145 0.4375455691078467 -0.19075572082161635 -0.4854467139604982 0.04140020462485429
! Port Impedance 100.00000000000000 0.00000000000000 100.00000000000000 0.00000000000000
28402938.0 -0.3420934900362938 0.22378167459576837 0.4321697645490308 -0.18567073115720054 0.4374744270964492 -0.1905914722056262 -0.4850786574376178 0.04134700354400654
! Port Impedance 100.00000000000000 0.00000000000000 100.00000000000000 0.00000000000000
28435884.0 -0.3416018138633315 0.22406598322120597 0.4319261711097499 -0.1860035338803472 0.4372324192284868 -0.19080924289356876 -0.4853404838622256 0.04137966815706975
! Port Impedance 100.00000000000000 0.00000000000000 100.00000000000000 0.00000000000000
28468830.0 -0.3419496080262826 0.22406409492013193 0.43211237362627397 -0.1863274776919883 0.43746093019105964 -0.19131942755521342 -0.48534457301986184 0.041638137209226905
! Port Impedance 100.00000000000000 0.00000000000000 100.00000000000000 0.00000000000000
28501776.0 -0.341180250129983 0.22429879345390172 0.431953708049254 -0.18630896472353853 0.43719806297713815 -0.19115150910612017 -0.48515878731689666 0.04145169318487282
! Port Impedance 100.00000000000000 0.00000000000000 100.00000000000000 0.00000000000000
28534722.0 -0.341029179019782 0.2244708166765952 0.4316712350205351 -0.18643004717117967 0.43712078576730107 -0.19142371578995793 -0.48548265936134544 0.041660568369494604
! Port Impedance 100.00000000000000 0.00000000000000 100.00000000000000 0.00000000000000
28567668.0 -0.3409525417726451 0.22485804675955326 0.43175572711912524 -0.18684851726072396 0.4371121098163506 -0.19191131460829725 -0.4856395229789232 0.04174989016267072
! Port Impedance 100.00000000000000 0.00000000000000 100.00000000000000 0.00000000000000
28600614.0 -0.34104680268706516 0.22501732427536997 0.4316809171784599 -0.18708749894549134 0.43694550915074915 -0.19237172321847845 -0.4854023146610713 0.04195360618641235
! Port Impedance 100.00000000000000 0.00000000000000 100.00000000000000 0.00000000000000
28633560.0 -0.34037575041781853 0.22488795704067027 0.43157402686615387 -0.18703944824111093 0.4368673451920488 -0.19203380602247733 -0.4853420470916258 0.04159170019513819
! Port Impedance 100.00000000000000 0.00000000000000 100.00000000000000 0.00000000000000
28666506.0 -0.3407511073690418 0.22532818815294964 0.4314222114473602 -0.18745378766162452 0.43662482878455444 -0.19234245689586799 -0.48512470667014485 0.041673186201330883
! Port Impedance 100.00000000000000 0.00000000000000 100.00000000000000 0.00000000000000
28699452.0 -0.3400518797119788 0.2251800053573012 0.4313717496756627 -0.18734938200176446 0.4364510032630044 -0.19243741688447402 -0.4854043292386618 0.04187395425250174
! Port Impedance 100.00000000000000 0.00000000000000 100.00000000000000 0.00000000000000
28732398.0 -0.34010903973485107 0.22571997864831625 0.431158183229004 -0.18785051904009586 0.4364843865374051 -0.19307011524538473 -0.48534335564504283 0.0421706522663801
! Port Impedance 100.00000000000000 0.00000000000000 100.00000000000000 0.00000000000000
28765344.0 -0.33970266594383614 0.2258100148402975 0.43107689832593665 -0.18798032844631724 0.43618252143024494 -0.19310211753967788 -0.48511313585353477 0.041988212189926474
! Port Impedance 100.00000000000000 0.00000000000000 100.00000000000000 0.00000000000000
28798290.0 -0.3396899300920553 0.22608686933451322 0.4312934952782077 -0.18828081865375773 0.43665595614182173 -0.1933592938807348 -0.4855853564439068 0.04216676238409124
! Port Impedance 100.00000000000000 0.00000000000000 100.00000000000000 0.00000000000000
28831236.0 -0.3395346079180039 0.22603852101494623 0.43096098945317857 -0.1884079161078993 0.4361122186330536 -0.19346123030363116 -0.48539105866584087 0.0419406936386612
! Port Impedance 100.00000000000000 0.00000000000000 100.00000000000000 0.00000000000000
28864182.0 -0.3390512272301328 0.22624113232470158 0.43073313429657767 -0.1886831531877179 0.43588430147890533 -0.19369830703683247 -0.4853189827608683 0.04204202818629375
! Port Impedance 100.00000000000000 0.00000000000000 100.00000000000000 0.00000000000000
28897128.0 -0.3388733553851261 0.22644246305405122 0.43062054113812864 -0.1887901357604893 0.43577965200992974 -0.1938813088965879 -0.48510873716366754 0.04225153195904405
! Port Impedance 100.00000000000000 0.00000000000000 100.00000000000000 0.00000000000000
28930074.0 -0.3387606129884123 0.22660392145745129 0.4305031819869328 -0.18896832893436455 0.43577226764217414 -0.19405803358449442 -0.4854631931646405 0.04228864537819524
! Port Impedance 100.00000000000000 0.00000000000000 100.00000000000000 0.00000000000000
28963020.0 -0.33881093383761013 0.22692895244624667 0.4305395987099134 -0.1893989389683975 0.43565520741563446 -0.19453346784412984 -0.4852884125687321 0.04220137575871879
! Port Impedance 100.00000000000000 0.00000000000000 100.00000000000000 0.00000000000000
28995966.0 -0.33826827377507185 0.22656607931457284 0.43044054057940967 -0.18919188064801612 0.43560755949975916 -0.194329774066712 -0.4854475424783242 0.04230201365909289
! Port Impedance 100.00000000000000 0.00000000000000 100.00000000000000 0.00000000000000
29028912.0 -0.33837694880260455 0.22719782348675416 0.4303669003978081 -0.18974588704419493 0.435426151209844 -0.19465576424067044 -0.4853054842039982 0.04235004710084475
! Port Impedance 100.00000000000000 0.00000000000000 100.00000000000000 0.00000000000000
29061858.0 -0.33784252327067515 0.2273586729941217 0.4301342545177657 -0.18995139934879968 0.435296179678635 -0.19490554550060835 -0.485283579882138 0.042377198420322414
! Port Impedance 100.00000000000000 0.00000000000000 100.00000000000000 0.00000000000000
29094804.0 -0.3376663499202581 0.22754499001023773 0.429999245913041 -0.19003029663285692 0.4354228772165549 -0.19509824698641573 -0.4855679585822482 0.04256073770282458
! Port Impedance 100.00000000000000 0.00000000000000 100.00000000000000 0.00000000000000
29127750.0 -0.33790919935922004 0.22760966612803032 0.4301216319838129 -0.1902470589444496 0.4352025565296377 -0.19515037254898893 -0.48522882383461047 0.04239167115792404
! Port Impedance 100.00000000000000 0.00000000000000 100.00000000000000 0.00000000000000
29160696.0 -0.33733490839444374 0.22756832036625504 0.4298532597339418 -0.19032207283609776 0.43500007127461104 -0.19558791794931624 -0.48543909729230195 0.04257787656614419
! Port Impedance 100.00000000000000 0.00000000000000 100.00000000000000 0.00000000000000
29193642.0 -0.33736622464244426 0.2282299572732594 0.4299528581493904 -0.19083705519224517 0.4351460182621425 -0.1962694410594143 -0.4855250981803974 0.04292836260871723
! Port Impedance 100.00000000000000 0.00000000000000 100.00000000000000 0.00000000000000
29226588.0 -0.33726654764631403 0.22854419186555136 0.43007799420864307 -0.19096183131156932 0.43531416985648985 -0.1962555859695796 -0.4855124999097554 0.04278554796719633
! Port Impedance 100.00000000000000 0.00000000000000 100.00000000000000 0.00000000000000
29259534.0 -0.3367743534120511 0.22876778780922855 0.4295828215177828 -0.19129255423204944 0.4348617887404981 -0.1964563880230566 -0.48550729961136363 0.04282574118181188
! Port Impedance 100.00000000000000 0.00000000000000 100.00000000000000 0.00000000000000
29292480.0 -0.33665079656069724 0.228387158561466 0.429549431272116 -0.191157291045814 0.43463683623678734 -0.19642576874646367 -0.48536928175150584 0.04271950536806827
! Port Impedance 100.00000000000000 0.00000000000000 100.00000000000000 0.00000000000000
29325426.0 -0.33646642860340165 0.22871608283213424 0.42951822408540596 -0.19153336288698758 0.43446361471526435 -0.1964902424120239 -0.48535549932325894 0.04259879355721642
! Port Impedance 100.00000000000000 0.00000000000000 100.00000000000000 0.00000000000000
29358372.0 -0.33613409119382764 0.22904478649500123 0.42923875084173657 -0.19178192170445066 0.4343706669045243 -0.1971540211818748 -0.4853595764764017 0.043105803707167184
! Port Impedance 100.00000000000000 0.00000000000000 100.00000000000000 0.00000000000000
29391318.0 -0.3359914231430882 0.2290875288069866 0.42924848302012963 -0.19192213797842633 0.43431139689974857 -0.1971025886089505 -0.48522600349297884 0.04293706124126818
! Port Impedance 100.00000000000000 0.00000000000000 100.00000000000000 0.00000000000000
29424264.0 -0.335650067704341 0.2292332233151359 0.42905639871038426 -0.19207036432588737 0.4342410236998208 -0.19715644303035873 -0.48531087538330453 0.042899671221403944
! Port Impedance 100.00000000000000 0.00000000000000 100.00000000000000 0.00000000000000
29457210.0 -0.3357302762320704 0.22979488558182118 0.42925664057758345 -0.1924318378173198 0.43450735194121365 -0.1976069160164038 -0.4856355672164464 0.043001479478802125
! Port Impedance 100.00000000000000 0.00000000000000 100.00000000000000 0.00000000000000
29490156.0 -0.33560187794309515 0.22962562717695684 0.4288760966086481 -0.19263623611246916 0.43384321125239916 -0.19755922228121536 -0.48517589281728546 0.04310602892763585
! Port Impedance 100.00000000000000 0.00000000000000 100.00000000000000 0.00000000000000
29523102.0 -0.33495752843817383 0.22977201238796247 0.42885557353516807 -0.19268098701128744 0.43392909887026104 -0.19805350847157926 -0.4854165899247703 0.04310042143134553
! Port Impedance 100.00000000000000 0.00000000000000 100.00000000000000 0.00000000000000
29556048.0 -0.33500563851988496 0.2299705842476001 0.4286763760631816 -0.19283022775319822 0.43383900912831 -0.1981395196025263 -0.48560528083117727 0.043220622260039386
! Port Impedance 100.00000000000000 0.00000000000000 100.00000000000000 0.00000000000000
29588994.0 -0.3346286930649431 0.22997349720448132 0.4286270642061039 -0.19322844201318568 0.433618401483591 -0.19824717285606186 -0.4853601987390642 0.043227322890025045
! Port Impedance 100.00000000000000 0.00000000000000 100.00000000000000 0.00000000000000
29621940.0 -0.3344226477766579 0.23031432309196076 0.42844550775444906 -0.19317833734982362 0.4334316944331843 -0.1986069778658336 -0.48535478532006016 0.043415416649865854
! Port Impedance 100.00000000000000 0.00000000000000 100.00000000000000 0.00000000000000
29654886.0 -0.33454835355711376 0.23052289723744002 0.4285827778199097 -0.1935606105185533 0.4339729726127275 -0.19891160369918165 -0.4855810982880909 0.043476899130281195
! Port Impedance 100.00000000000000 0.00000000000000 100.00000000000000 0.00000000000000
29687832.0 -0.3343232004524942 0.23046689388625097 0.4283008989359483 -0.19375479056777622 0.43337075288473575 -0.19910472255858147 -0.4853718889328935 0.043468987133817645
! Port Impedance 100.00000000000000 0.00000000000000 100.00000000000000 0.00000000000000
29720778.0 -0.33392589186299454 0.2306872957214639 0.4282529766068949 -0.19395747130295216 0.4333329402571111 -0.19933768930884344 -0.4855103412212708 0.04359602672324367
! Port Impedance 100.00000000000000 0.00000000000000 100.00000000000000 0.00000000000000
29753724.0 -0.3338277208490744 0.23115198621237493 0.4281904029337202 -0.19426394303879374 0.4331945959119236 -0.19968598110889224 -0.48523916935255557 0.043833711883497446
! Port Impedance 100.00000000000000 0.00000000000000 100.00000000000000 0.00000000000000
29786670.0 -0.3336489006762833 0.2315002230635927 0.42814297757480246 -0.19452332988902307 0.4333873947727338 -0.19983766387152457 -0.48551355082646674 0.043553171955372574
! Port Impedance 100.00000000000000 0.00000000000000 100.00000000000000 0.00000000000000
29819616.0 -0.333146670359676 0.23106766756903227 0.4278785000604542 -0.19443172033414063 0.43289629431771054 -0.1998908436024949 -0.4854998652522822 0.04360990473332384
! Port Impedance 100.00000000000000 0.00000000000000 100.00000000000000 0.00000000000000
29852562.0 -0.33326491437283096 0.2312705581260296 0.42794750391916353 -0.1947441693676111 0.43291397213332805 -0.19972337328323314 -0.48538825244018 0.043500213517822975
! Port Impedance 100.00000000000000 0.00000000000000 100.00000000000000 0.00000000000000
29885508.0 -0.33255915847995443 0.2318534374097196 0.42759404485671876 -0.19513718342257463 0.43253265842555894 -0.20023381536690352 -0.4853178821174309 0.043737472062798655
! Port Impedance 100.00000000000000 0.00000000000000 100.00000000000000 0.00000000000000
29918454.0 -0.33254184156432176 0.23182741156657544 0.4275979796823913 -0.19511855924616528 0.4325622259910372 -0.20028997484496808 -0.4852390660576359 0.043745586855590095
! Port Impedance 100.00000000000000 0.00000000000000 100.00000000000000 0.00000000000000
29951400.0 -0.3327334061247229 0.23225579367907254 0.42757485349932967 -0.1954213004478801 0.4327859856260692 -0.20069658891452719 -0.48554755741697714 0.043877438046613135
! Port Impedance 100.00000000000000 0.00000000000000 100.00000000000000 0.00000000000000
29984346.0 -0.3321773373413309 0.23203620088131313 0.42732279316467786 -0.1955951072724948 0.4323567180655289 -0.2009381785989958 -0.48549874855514663 0.04398481073742221
! Port Impedance 100.00000000000000 0.00000000000000 100.00000000000000 0.00000000000000
30017292.0 -0.3322477643177858 0.23226547590693902 0.4272953384196525 -0.195567764165958 0.43221627651004124 -0.20068566713269695 -0.485275227085735 0.043636519362624734
! Port Impedance 100.00000000000000 0.00000000000000 100.00000000000000 0.00000000000000
30050238.0 -0.33197467282817583 0.23262212947953603 0.4271644598798139 -0.19605010928852357 0.43208263936970825 -0.2013555495593254 -0.48522208224469476 0.04388119454972343
! Port Impedance 100.00000000000000 0.00000000000000 100.00000000000000 0.00000000000000
30083184.0 -0.33135159409385906 0.23267561416229407 0.42699086109759465 -0.19614993815402681 0.432106331108127 -0.20142534956230304 -0.4853747138583212 0.04394526997389463
! Port Impedance 100.00000000000000 0.00000000000000 100.00000000000000 0.00000000000000
30116130.0 -0.3312428003200833 0.23250935272017278 0.42695917944534173 -0.19616978765873458 0.43220487626414206 -0.20165015817287243 -0.4855404572795427 0.044121882404833626
! Port Impedance 100.00000000000000 0.00000000000000 100.00000000000000 0.00000000000000
30149076.0 -0.3313351795752505 0.23288397731901941 0.4270629959668078 -0.1964999577272568 0.43226285287875715 -0.2019787030476109 -0.48556054909435964 0.04414651877691615
! Port Impedance 100.00000000000000 0.00000000000000 100.00000000000000 0.00000000000000
30182022.0 -0.3312020560222421 0.2329925044450806 0.4267015290434195 -0.19674037494902202 0.43187307174341194 -0.20229647476122106 -0.4856454924223927 0.04428367524245363
! Port Impedance 100.00000000000000 0.00000000000000 100.00000000000000 0.00000000000000
30214968.0 -0.3308337655414856 0.23305993622092955 0.42676757493778217 -0.1967940449287556 0.4316797006460886 -0.20215711536609232 -0.48552791436739756 0.04430385547997758
! Port Impedance 100.00000000000000 0.00000000000000 100.00000000000000 0.00000000000000
30247914.0 -0.33088237734084996 0.23366348016892424 0.426686105068568 -0.1971922282278908 0.4316079735043431 -0.20260847221553308 -0.4851579788101962 0.044295326215765936
! Port Impedance 100.00000000000000 0.00000000000000 100.00000000000000 0.00000000000000
30280860.0 -0.33013677820644566 0.2336120067225913 0.4264293447988371 -0.19728275262902756 0.4316961938364783 -0.20278950009565921 -0.4856501725220972 0.044504666512598115
! Port Impedance 100.00000000000000 0.00000000000000 100.00000000000000 0.00000000000000
30313806.0 -0.33048173141279286 0.2339880866162783 0.42649576687266216 -0.1976509470234072 0.4316171470923341 -0.20305759944910126 -0.4855985270873964 0.0444266544302713
! Port Impedance 100.00000000000000 0.00000000000000 100.00000000000000 0.00000000000000
30346752.0 -0.33023661648127767 0.23413629933583108 0.4261786567849266 -0.19775324161742341 0.4310423650058032 -0.20295874411585293 -0.485266867223635 0.04428576282581087
! Port Impedance 100.00000000000000 0.00000000000000 100.00000000000000 0.00000000000000
30379698.0 -0.32984784479312557 0.2338364963611606 0.426129431040561 -0.19786478981386865 0.4311772254591244 -0.20350171243238668 -0.48561467526426394 0.04458278887173839
! Port Impedance 100.00000000000000 0.00000000000000 100.00000000000000 0.00000000000000
30412644.0 -0.3299885607225549 0.23458858453831477 0.42621937783971076 -0.1983694770786648 0.43125930773756344 -0.20379258998065444 -0.48548613088758624 0.04438381456985431
! Port Impedance 100.00000000000000 0.00000000000000 100.00000000000000 0.00000000000000
30445590.0 -0.3296838517476608 0.2348393560690957 0.4260555978191329 -0.19854430624654124 0.4310278349946443 -0.20423920164621415 -0.48553031958301435 0.04479083851955269
! Port Impedance 100.00000000000000 0.00000000000000 100.00000000000000 0.00000000000000
30478536.0 -0.32950412646291094 0.23492995392361934 0.42596250712944483 -0.19871181089682133 0.4307165424525168 -0.2039081476809767 -0.4852575042724556 0.044554079003395655
! Port Impedance 100.00000000000000 0.00000000000000 100.00000000000000 0.00000000000000
30511482.0 -0.3288481991364949 0.2349191304269152 0.42571265362208566 -0.19878840560230365 0.4309826265179006 -0.20432599540046262 -0.48556817764490756 0.04473168641788908
! Port Impedance 100.00000000000000 0.00000000000000 100.00000000000000 0.00000000000000
30544428.0 -0.3290473766158906 0.23531659692524326 0.42581913162066665 -0.19925837644995625 0.43066475895068945 -0.2044892216957324 -0.48546776859322804 0.04465823086220434
! Port Impedance 100.00000000000000 0.00000000000000 100.00000000000000 0.00000000000000
30577374.0 -0.3287109982529641 0.234756923494369 0.4256395310756102 -0.1990358100449254 0.43044895943457706 -0.20449590022699127 -0.485394355495431 0.04471153490359478
! Port Impedance 100.00000000000000 0.00000000000000 100.00000000000000 0.00000000000000
30610320.0 -0.32870471054113226 0.23530073886832747 0.4254984839136436 -0.19940467494545067 0.4304831277172812 -0.20495610854488552 -0.4856989402293166 0.04495888059391424
! Port Impedance 100.00000000000000 0.00000000000000 100.00000000000000 0.00000000000000
30643266.0 -0.3282958992290035 0.23521562502338572 0.4253945294479342 -0.19945383121458363 0.4302076727674423 -0.20470680869195831 -0.485575648952454 0.044949353747530264
! Port Impedance 100.00000000000000 0.00000000000000 100.00000000000000 0.00000000000000
30676212.0 -0.3281551569682502 0.23570002548235694 0.4253910243820427 -0.19988889043225894 0.4301107264177251 -0.20509182858820932 -0.48541227380728136 0.04483879595479897
! Port Impedance 100.00000000000000 0.00000000000000 100.00000000000000 0.00000000000000
30709158.0 -0.3280018659982591 0.2356580092489499 0.4251403532650075 -0.19994019486394862 0.4301230957954869 -0.2056449887870348 -0.48548824265573354 0.04516439893088504
! Port Impedance 100.00000000000000 0.00000000000000 100.00000000000000 0.00000000000000
30742104.0 -0.32759121407844366 0.23600831425123456 0.42508578525121726 -0.2002541726942057 0.4297544919508536 -0.20554564238558629 -0.485387925089784 0.044933589986698094
! Port Impedance 100.00000000000000 0.00000000000000 100.00000000000000 0.00000000000000
30775050.0 -0.3272548563261498 0.23610194336612825 0.42486945924797176 -0.2002962476292034 0.42998582814289854 -0.20581675566523153 -0.4855845146779081 0.04507295226615949
! Port Impedance 100.00000000000000 0.00000000000000 100.00000000000000 0.00000000000000
30807996.0 -0.3275302975389932 0.236421981922257 0.4250529289081763 -0.20063436221223838 0.4301229307293463 -0.20627725279265957 -0.4857262949928003 0.04521035626825697
! Port Impedance 100.00000000000000 0.00000000000000 100.00000000000000 0.00000000000000
30840942.0 -0.3271827567076404 0.2364206723605035 0.4248428498409614 -0.2008780237156696 0.42966902889171743 -0.20613275980686185 -0.4854437982809675 0.04521611457465865
! Port Impedance 100.00000000000000 0.00000000000000 100.00000000000000 0.00000000000000
30873888.0 -0.3270005087294676 0.2365262506625173 0.42467145087969516 -0.2009114671003145 0.429457534976756 -0.2063519264964281 -0.48536003555412927 0.04519306197992305
! Port Impedance 100.00000000000000 0.00000000000000 100.00000000000000 0.00000000000000
30906834.0 -0.32656148062708434 0.23657828078771714 0.4245378257160804 -0.20103180459391307 0.4293347864318678 -0.2065190003569097 -0.4854752922293236 0.04541160477130504
! Port Impedance 100.00000000000000 0.00000000000000 100.00000000000000 0.00000000000000
30939780.0 -0.32629380063322616 0.2369850181449822 0.4243853342874242 -0.2014251066144533 0.4292788688402769 -0.20679474453052576 -0.48550541248329354 0.04529771622003637
! Port Impedance 100.00000000000000 0.00000000000000 100.00000000000000 0.00000000000000
30972726.0 -0.3261702082065157 0.23709948321349036 0.42436844422910436 -0.20155860163662953 0.42954750807106357 -0.2071211824208696 -0.4856675547736166 0.04546691827428414
! Port Impedance 100.00000000000000 0.00000000000000 100.00000000000000 0.00000000000000
31005672.0 -0.32640616063485006 0.23746795193945555 0.4244348320489795 -0.20198657690332056 0.4291390577847414 -0.20728008708071444 -0.4854253070611893 0.04535219998517119
! Port Impedance 100.00000000000000 0.00000000000000 100.00000000000000 0.00000000000000
31038618.0 -0.3259119405217972 0.23723423620144893 0.42419481898670186 -0.20193474888959237 0.42904271039993713 -0.20762669864564087 -0.48572685024126044 0.04554433923824924
! Port Impedance 100.00000000000000 0.00000000000000 100.00000000000000 0.00000000000000
31071564.0 -0.32553127837581697 0.23757866797991736 0.4239378755118514 -0.2021084918098348 0.42877693010610396 -0.20799680764503375 -0.48546276923883397 0.04571147277147068
! Port Impedance 100.00000000000000 0.00000000000000 100.00000000000000 0.00000000000000
31104510.0 -0.32539398127291275 0.2378526627869437 0.42408569408002156 -0.2026014204548387 0.4287675516889365 -0.20798822059526767 -0.4854915897211085 0.04565440885823985
! Port Impedance 100.00000000000000 0.00000000000000 100.00000000000000 0.00000000000000
31137456.0 -0.32549861449363676 0.23817857985686358 0.42407312430047805 -0.2027950519930584 0.4290890448025053 -0.20834131405249928 -0.4856983810967903 0.045732110121576276
! Port Impedance 100.00000000000000 0.00000000000000 100.00000000000000 0.00000000000000
31170402.0 -0.32511926607804625 0.2380216264731888 0.4237502396358102 -0.20268044324743234 0.4285197806285503 -0.20833615899796404 -0.4855349221601378 0.04576472589720631
! Port Impedance 100.00000000000000 0.00000000000000 100.00000000000000 0.00000000000000
31203348.0 -0.32470934596843476 0.23786178090341178 0.42356299445448864 -0.20268642837282297 0.4283288398336153 -0.20807672743943306 -0.48556468403554487 0.04582393353189768
! Port Impedance 100.00000000000000 0.00000000000000 100.00000000000000 0.00000000000000
31236294.0 -0.3244300781492923 0.23855383332613167 0.4234767230006236 -0.20325500682914732 0.4282255000414157 -0.20871743555861447 -0.48556372933987896 0.04587948348214504
! Port Impedance 100.00000000000000 0.00000000000000 100.00000000000000 0.00000000000000
31269240.0 -0.32440809882361227 0.23876405905453432 0.4236516179434423 -0.2035819291328326 0.42855826743768693 -0.20914281253612052 -0.48571743557208613 0.04587736396117106
! Port Impedance 100.00000000000000 0.00000000000000 100.00000000000000 0.00000000000000
31302186.0 -0.32409393132498465 0.23852526779792274 0.4232177082292202 -0.20346641945668423 0.42786293204621006 -0.20904801547352309 -0.48537583877451096 0.04588426466545909
! Port Impedance 100.00000000000000 0.00000000000000 100.00000000000000 0.00000000000000
31335132.0 -0.32401940056853695 0.23878425104492282 0.42326397986182246 -0.2037033424520306 0.4280515903099748 -0.2093763088028337 -0.48552038030711747 0.04619558395290002
! Port Impedance 100.00000000000000 0.00000000000000 100.00000000000000 0.00000000000000
31368078.0 -0.323482933862138 0.2390816860583566 0.4229601816530806 -0.20404325568969814 0.42780586104760454 -0.20952056420307572 -0.4857338644250514 0.04604180375465709
! Port Impedance 100.00000000000000 0.00000000000000 100.00000000000000 0.00000000000000
31401024.0 -0.3231921825327536 0.23897235325475027 0.42288134777306974 -0.20401262861826377 0.42787654895969973 -0.20958348446410927 -0.48556080881599695 0.04601195151545077
! Port Impedance 100.00000000000000 0.00000000000000 100.00000000000000 0.00000000000000
31433970.0 -0.32323518486982605 0.2392217398369484 0.4228539650795626 -0.2043300079199074 0.42748856426214854 -0.2099404458323489 -0.48550228771528264 0.04613705390508286
! Port Impedance 100.00000000000000 0.00000000000000 100.00000000000000 0.00000000000000
31466916.0 -0.3229818053553701 0.23958707352408126 0.4228868751850451 -0.20468689920140012 0.4275266637661153 -0.21003851934899256 -0.4854892427830731 0.046169075638751576
! Port Impedance 100.00000000000000 0.00000000000000 100.00000000000000 0.00000000000000
31499862.0 -0.3228511442918667 0.23980425084922818 0.422730091363703 -0.20489913936511953 0.4272718892395946 -0.21021973302798547 -0.4854931454051149 0.04628310318429501
! Port Impedance 100.00000000000000 0.00000000000000 100.00000000000000 0.00000000000000
31532808.0 -0.3224588503087057 0.2398759749057272 0.42246662485237285 -0.2049165047828508 0.4274521157413748 -0.21072577032329465 -0.485717462684337 0.04631581916749425
! Port Impedance 100.00000000000000 0.00000000000000 100.00000000000000 0.00000000000000
31565754.0 -0.3224150462996231 0.2397306931260596 0.4224166404870959 -0.20503355034801846 0.4269814692135976 -0.21059796024087268 -0.4854860663841875 0.046320285872492185
! Port Impedance 100.00000000000000 0.00000000000000 100.00000000000000 0.00000000000000
31598700.0 -0.3224673322148568 0.24034613650295705 0.42253786613038646 -0.20560001752038853 0.4272067329908483 -0.21114999839554582 -0.48551012843243024 0.04644384058746682
! Port Impedance 100.00000000000000 0.00000000000000 100.00000000000000 0.00000000000000
31631646.0 -0.3221094799686063 0.240538905410988 0.42233123553313184 -0.2056909528424711 0.4270109315010163 -0.21161294931246782 -0.4855801074349173 0.0466760699462622
! Port Impedance 100.00000000000000 0.00000000000000 100.00000000000000 0.00000000000000
31664592.0 -0.3216236906099942 0.24053952548753652 0.4222220645129876 -0.2058887148887885 0.4268097598165247 -0.21143538764738426 -0.48556134266673356 0.04649612784842527
! Port Impedance 100.00000000000000 0.00000000000000 100.00000000000000 0.00000000000000
31697538.0 -0.32186979666394766 0.24083974882440157 0.4221174548479276 -0.20615734935606247 0.426965883181713 -0.2118550317553144 -0.48565165234727825 0.04662759268317247
! Port Impedance 100.00000000000000 0.00000000000000 100.00000000000000 0.00000000000000
31730484.0 -0.3214143845897941 0.2406671953174711 0.42186097132079076 -0.20606053152603973 0.4265880043215007 -0.21190459145977314 -0.4855981361386874 0.04674292384349404
! Port Impedance 100.00000000000000 0.00000000000000 100.00000000000000 0.00000000000000
31763430.0 -0.32125727349960287 0.24082065859718488 0.42181832840536126 -0.20652085083829327 0.42648841770072665 -0.21194712040559305 -0.4856581324096677 0.046559862644342045
! Port Impedance 100.00000000000000 0.00000000000000 100.00000000000000 0.00000000000000
31796376.0 -0.32132054808539867 0.24136344499078166 0.42198369808373526 -0.20666180470117088 0.42662190600995764 -0.2126527075659006 -0.4855667804084779 0.046927565298231125
! Port Impedance 100.00000000000000 0.00000000000000 100.00000000000000 0.00000000000000
31829322.0 -0.3205026834619355 0.24128721238316894 0.4213800507628372 -0.20666260483922264 0.4264739430458938 -0.21252846418973143 -0.4856542044556855 0.046847838523558706
! Port Impedance 100.00000000000000 0.00000000000000 100.00000000000000 0.00000000000000
31862268.0 -0.3207845794641504 0.24135758846052066 0.42170573911929266 -0.20706883188387748 0.4262166995713244 -0.2125392083220594 -0.4854715139610945 0.04670371987732137
! Port Impedance 100.00000000000000 0.00000000000000 100.00000000000000 0.00000000000000
31895214.0 -0.3204783938932622 0.24189749881734485 0.42147107501245984 -0.2074044901694762 0.4261882128083319 -0.21316125912840933 -0.4856661627852859 0.04698878865629129
! Port Impedance 100.00000000000000 0.00000000000000 100.00000000000000 0.00000000000000
31928160.0 -0.32029131848919334 0.24220390992902924 0.42135928404165757 -0.20774205945940216 0.42599475160263234 -0.213327962910077 -0.48579781417102835 0.046880255147725966
! Port Impedance 100.00000000000000 0.00000000000000 100.00000000000000 0.00000000000000
31961106.0 -0.32001336673017655 0.24154718726076665 0.42124491556738536 -0.20734090261175467 0.42583353285880104 -0.21302341206929604 -0.48554164467544825 0.04701679171389625
! Port Impedance 100.00000000000000 0.00000000000000 100.00000000000000 0.00000000000000
31994052.0 -0.3196684754230942 0.24186140213727547 0.421186844386902 -0.20783092216049645 0.42568837090400546 -0.2133519935826917 -0.4855709167887213 0.04709404010304599
! Port Impedance 100.00000000000000 0.00000000000000 100.00000000000000 0.00000000000000
32026998.0 -0.31964367751155337 0.24240352369359838 0.4209880007872725 -0.20794549663964287 0.42568895489533565 -0.21397188422316682 -0.4855654299908159 0.04719147357886018
! Port Impedance 100.00000000000000 0.00000000000000 100.00000000000000 0.00000000000000
32059944.0 -0.319136793899008 0.2426516326125065 0.4209281680320628 -0.2083549178833218 0.4255522575135081 -0.21386233880243521 -0.4855545441291378 0.04716646225838256
! Port Impedance 100.00000000000000 0.00000000000000 100.00000000000000 0.00000000000000
32092890.0 -0.31932724338208746 0.242889727445672 0.42091553469765736 -0.20859583800965517 0.4256837929349557 -0.21431088371110038 -0.48583923604003515 0.04727042583696449
! Port Impedance 100.00000000000000 0.00000000000000 100.00000000000000 0.00000000000000
32125836.0 -0.31893265253825953 0.24269674360365243 0.4206242343354248 -0.2086157723821582 0.4254027051311804 -0.2146148239031403 -0.48579360572448027 0.04740145092421331
! Port Impedance 100.00000000000000 0.00000000000000 100.00000000000000 0.00000000000000
32158782.0 -0.31870783377203554 0.2427084978074386 0.42062606813611336 -0.20865795219864494 0.4252883842444579 -0.21467258039915343 -0.48567474961331786 0.04741888259956574
! Port Impedance 100.00000000000000 0.00000000000000 100.00000000000000 0.00000000000000
32191728.0 -0.31850832134692364 0.24309234002455948 0.4205317458599482 -0.20901670081936236 0.42504388779864277 -0.21463452312113326 -0.4855325095777285 0.04747787202264187
! Port Impedance 100.00000000000000 0.00000000000000 100.00000000000000 0.00000000000000
32224674.0 -0.31828455626125307 0.24360371021851956 0.42040431165299597 -0.20943191021056395 0.42486603837066594 -0.21500353670336242 -0.4854681002553787 0.047392781901640195
! Port Impedance 100.00000000000000 0.00000000000000 100.00000000000000 0.00000000000000
32257620.0 -0.31834223204289824 0.24350518726315123 0.4205431099335952 -0.20957016545858462 0.4248640765154662 -0.2151526964684072 -0.4856160488426047 0.04750146567853044
! Port Impedance 100.00000000000000 0.00000000000000 100.00000000000000 0.00000000000000
32290566.0 -0.3179882653300705 0.24362229925191384 0.4202013558256764 -0.209788364205102 0.4247749258567361 -0.21540385680021942 -0.48573855872388766 0.04751302885618779
! Port Impedance 100.00000000000000 0.00000000000000 100.00000000000000 0.00000000000000
32323512.0 -0.31746395206544653 0.24348700915252955 0.4199701485582146 -0.20963210164597218 0.4245602922701765 -0.21552122594296827 -0.48548878848943056 0.04769329740843256
! Port Impedance 100.00000000000000 0.00000000000000 100.00000000000000 0.00000000000000
32356458.0 -0.31712968025744903 0.24388249709285015 0.4197082259996223 -0.20992558795157307 0.4245153893713076 -0.2156696727135275 -0.4856092368049 0.047699769373609834
! Port Impedance 100.00000000000000 0.00000000000000 100.00000000000000 0.00000000000000
32389404.0 -0.31713961335937135 0.2438043015165369 0.41975749517128824 -0.2100289976379381 0.4243711001146762 -0.21588061497199115 -0.4856474613738845 0.047770392969856024
! Port Impedance 100.00000000000000 0.00000000000000 100.00000000000000 0.00000000000000
32422350.0 -0.3169134619819543 0.24391358376156777 0.4197083642769851 -0.21037728727575 0.42434236874118936 -0.21628650117636483 -0.4857365440403901 0.047774470052956514
! Port Impedance 100.00000000000000 0.00000000000000 100.00000000000000 0.00000000000000
32455296.0 -0.31707137594384516 0.24457289419859396 0.4196474726301264 -0.2109361100222657 0.4242795399302981 -0.21645550791345008 -0.48577812817109944 0.04777531703159644
! Port Impedance 100.00000000000000 0.00000000000000 100.00000000000000 0.00000000000000
32488242.0 -0.3168508622989234 0.24434177029543572 0.419635800564517 -0.21071615608524918 0.42418114051275146 -0.2167417852243323 -0.4857846574530742 0.047977503429863996
! Port Impedance 100.00000000000000 0.00000000000000 100.00000000000000 0.00000000000000
32521188.0 -0.316528342440296 0.24467473916234622 0.41963241881548957 -0.21104488047001493 0.42409639961433554 -0.21671492287088723 -0.4856304124785338 0.048004762296089826
! Port Impedance 100.00000000000000 0.00000000000000 100.00000000000000 0.00000000000000
32554134.0 -0.3156609254051689 0.24461577698065834 0.4189541253496254 -0.2111400688340344 0.4237342729791381 -0.2168844046768928 -0.4856085949956808 0.048009507209874895
! Port Impedance 100.00000000000000 0.00000000000000 100.00000000000000 0.00000000000000
32587080.0 -0.31601502099910245 0.2450252310750913 0.41927772687499865 -0.21147541606359926 0.42395723619502196 -0.2172670638925842 -0.48588062438705426 0.048008030284782045
! Port Impedance 100.00000000000000 0.00000000000000 100.00000000000000 0.00000000000000
32620026.0 -0.3160929385503295 0.2451895696452855 0.4192927534217894 -0.21169873239840845 0.42367710024425864 -0.21739241091270434 -0.4857044165480727 0.04805447442595624
! Port Impedance 100.00000000000000 0.00000000000000 100.00000000000000 0.00000000000000
32652972.0 -0.3154385780928649 0.24501103438444033 0.4189535691885013 -0.211590727899237 0.4233673631031433 -0.2174397763568282 -0.4856979757579345 0.0481277311470393
! Port Impedance 100.00000000000000 0.00000000000000 100.00000000000000 0.00000000000000
32685918.0 -0.3155042651735623 0.24556299981265464 0.41906341555068344 -0.21213515050281412 0.42354925795164344 -0.2179524385646673 -0.4858422350085536 0.048189713261384395
! Port Impedance 100.00000000000000 0.00000000000000 100.00000000000000 0.00000000000000
32718864.0 -0.314966092173641 0.245363121196896 0.41866200510339135 -0.2119519960191166 0.4232152017596613 -0.21780880859147428 -0.48564294929511376 0.048146802103610414
! Port Impedance 100.00000000000000 0.00000000000000 100.00000000000000 0.00000000000000
32751810.0 -0.3146033363956723 0.2459892378353182 0.4186330025261679 -0.21265121307203427 0.42307953409296595 -0.218225387733203 -0.48568408426296716 0.04832154887227336
! Port Impedance 100.00000000000000 0.00000000000000 100.00000000000000 0.00000000000000
32784756.0 -0.31483832996909433 0.24611311308434317 0.41874591210240886 -0.2127535182415458 0.42339346958453583 -0.21857208074731715 -0.4860541620490551 0.04845606850046323
! Port Impedance 100.00000000000000 0.00000000000000 100.00000000000000 0.00000000000000
32817702.0 -0.31443996639632943 0.24583122163560434 0.4184011481818217 -0.21264428817682263 0.4226958788106108 -0.21842411219617017 -0.4855233970288949 0.04824300926328766
! Port Impedance 100.00000000000000 0.00000000000000 100.00000000000000 0.00000000000000
32850648.0 -0.3143097535277244 0.2464562344150344 0.4184506738737455 -0.21328490757397106 0.42284814573867846 -0.21896345188745872 -0.48575781071550833 0.04845174822402669
! Port Impedance 100.00000000000000 0.00000000000000 100.00000000000000 0.00000000000000
32883594.0 -0.31427954661575597 0.24632460093065534 0.4183151521656065 -0.21294486339506297 0.4227958805265087 -0.21903341579439498 -0.48557117618359746 0.04853155668338158
! Port Impedance 100.00000000000000 0.00000000000000 100.00000000000000 0.00000000000000
32916540.0 -0.31404182767051786 0.24639717021551236 0.4182999057844667 -0.2132027441940696 0.42275423460515643 -0.21927486951645517 -0.48568242966395336 0.04848273107672015
! Port Impedance 100.00000000000000 0.00000000000000 100.00000000000000 0.00000000000000
32949486.0 -0.3133839253350616 0.24691114356121477 0.41798529107426546 -0.2138057013584529 0.42247612759429526 -0.21940626187724027 -0.4858547247502225 0.04866302213576003
! Port Impedance 100.00000000000000 0.00000000000000 100.00000000000000 0.00000000000000
32982432.0 -0.3133168494198795 0.24693373538415972 0.4179113298472206 -0.2138037959427347 0.4224363828189044 -0.21973659236118936 -0.48570706770753747 0.0486428005758963
! Port Impedance 100.00000000000000 0.00000000000000 100.00000000000000 0.00000000000000
33015378.0 -0.3134349451492299 0.24705918599428495 0.4178992836306877 -0.21414553938065894 0.42220172296168934 -0.21985947619093837 -0.4857575337311439 0.04868813046640154
! Port Impedance 100.00000000000000 0.00000000000000 100.00000000000000 0.00000000000000
33048324.0 -0.3130438635712351 0.24707213608316642 0.41773639102904553 -0.214294121888756 0.422220336221559 -0.22006423634458694 -0.4858465968057647 0.048814351397612865
! Port Impedance 100.00000000000000 0.00000000000000 100.00000000000000 0.00000000000000
33081270.0 -0.3128639794551986 0.2472252600774078 0.41760010354053756 -0.2142881260864112 0.4220814460655621 -0.2203675881059142 -0.48566786352054386 0.04892993150800376
! Port Impedance 100.00000000000000 0.00000000000000 100.00000000000000 0.00000000000000
33114216.0 -0.31268954424011813 0.24744348253607648 0.41756689687223414 -0.21463169777087812 0.42199930364414495 -0.22042375508966813 -0.4856325635387593 0.04897393860913679
! Port Impedance 100.00000000000000 0.00000000000000 100.00000000000000 0.00000000000000
33147162.0 -0.31194400513047316 0.24735571829484249 0.417081317003642 -0.21452997612466682 0.4216877152891849 -0.220458038861476 -0.4856972515871165 0.048923036760999884
! Port Impedance 100.00000000000000 0.00000000000000 100.00000000000000 0.00000000000000
33180108.0 -0.31209726681421035 0.24761187908745694 0.4173335319878211 -0.21506445764649756 0.4216305412811632 -0.22082192769662468 -0.485823457473724 0.04894830188198179
! Port Impedance 100.00000000000000 0.00000000000000 100.00000000000000 0.00000000000000
33213054.0 -0.3120460366554313 0.2477529375127527 0.41715565519686926 -0.21518799141854897 0.42145981363484425 -0.22111310075813165 -0.4858552957890492 0.04921098602013861
! Port Impedance 100.00000000000000 0.00000000000000 100.00000000000000 0.00000000000000
33246000.0 -0.31174692605212234 0.2480970683013184 0.4170046201885233 -0.21543047625373063 0.4214466565409043 -0.22143661911689505 -0.4858500483580889 0.049283774075511336
! Port Impedance 100.00000000000000 0.00000000000000 100.00000000000000 0.00000000000000
33278946.0 -0.3113875003197687 0.2482627104843635 0.4169140930776798 -0.2153863981611465 0.4212688048752959 -0.22139447097119214 -0.4857680150340098 0.049191940703679604
! Port Impedance 100.00000000000000 0.00000000000000 100.00000000000000 0.00000000000000
33311892.0 -0.31124071841173173 0.24807490123821427 0.4167762240778259 -0.21548663417344677 0.4211544091478655 -0.22160542076886236 -0.48571337668074915 0.0493613842001624
! Port Impedance 100.00000000000000 0.00000000000000 100.00000000000000 0.00000000000000
33344838.0 -0.31088824699983547 0.24815616680276972 0.41666706577768664 -0.21569607638137525 0.4211106792031444 -0.22178730406224995 -0.4856262759068663 0.0492647559239973
! Port Impedance 100.00000000000000 0.00000000000000 100.00000000000000 0.00000000000000
33377784.0 -0.310851643884247 0.24862530431444518 0.41669589026043174 -0.21613362840765243 0.4210324624511985 -0.22224762540364074 -0.4858121664335301 0.04941022107125284
! Port Impedance 100.00000000000000 0.00000000000000 100.00000000000000 0.00000000000000
33410730.0 -0.31074272898091293 0.2490049971843737 0.4165526563793765 -0.21652801366305446 0.4210109064668924 -0.22244115730440583 -0.48578285056106496 0.04940201761305249
! Port Impedance 100.00000000000000 0.00000000000000 100.00000000000000 0.00000000000000
33443676.0 -0.3104932102796192 0.24890874181655157 0.41651851077115 -0.21662428690936303 0.4209078839201849 -0.22268408142141816 -0.48586867271302325 0.049383578264205405
! Port Impedance 100.00000000000000 0.00000000000000 100.00000000000000 0.00000000000000
33476622.0 -0.30985854563469445 0.24895595128076847 0.41607022988080183 -0.21663501549896555 0.4204133280067161 -0.22257518515428537 -0.48570525173911044 0.04955973390727625
! Port Impedance 100.00000000000000 0.00000000000000 100.00000000000000 0.00000000000000
33509568.0 -0.31006658073127624 0.24947536420432997 0.4161254068842432 -0.21707120419745918 0.4206284681338306 -0.22305773796401457 -0.485808757759355 0.049738799445078544
! Port Impedance 100.00000000000000 0.00000000000000 100.00000000000000 0.00000000000000
33542514.0 -0.3096044944838584 0.24927220225484545 0.4161819709458933 -0.21708750778072322 0.4204131638651839 -0.22304144837910633 -0.4857506923404737 0.04964896385873534
! Port Impedance 100.00000000000000 0.00000000000000 100.00000000000000 0.00000000000000
33575460.0 -0.3094905046187072 0.24955667329536746 0.4159833999275964 -0.2172745184201159 0.42031675683572356 -0.22335486626904322 -0.48587679524287936 0.049754673074607944
! Port Impedance 100.00000000000000 0.00000000000000 100.00000000000000 0.00000000000000
33608406.0 -0.3094141427431857 0.2496177909798184 0.41573581256261805 -0.21755088650337376 0.42012838715766865 -0.22341660261843618 -0.48587789666728315 0.0497386527663386
! Port Impedance 100.00000000000000 0.00000000000000 100.00000000000000 0.00000000000000
33641352.0 -0.309282741417629 0.25000972320947856 0.4159532250193582 -0.2178714694376286 0.4202478636474798 -0.22387491927158526 -0.4858189089477706 0.04976942431843982
! Port Impedance 100.00000000000000 0.00000000000000 100.00000000000000 0.00000000000000
33674298.0 -0.30880766802707516 0.24997225709260174 0.41555482030596347 -0.21798571892888335 0.41985391982447196 -0.22386582895680515 -0.485739853909507 0.04983578013520539
! Port Impedance 100.00000000000000 0.00000000000000 100.00000000000000 0.00000000000000
33707244.0 -0.30849588387929694 0.24988437841226468 0.4155120078494711 -0.21786953958407101 0.41969772285858126 -0.22391290029314415 -0.48568587407922414 0.04989130013912735
! Port Impedance 100.00000000000000 0.00000000000000 100.00000000000000 0.00000000000000
33740190.0 -0.30839173543264364 0.25045527405317547 0.41525612714151316 -0.2183814715361307 0.419659862299271 -0.22442867628226496 -0.4856697247485906 0.05007368051198216
! Port Impedance 100.00000000000000 0.00000000000000 100.00000000000000 0.00000000000000
33773136.0 -0.30826479669640705 0.2504230027473539 0.4151699803401342 -0.21839818907327319 0.4195160648247452 -0.22435686191913567 -0.48572801512953356 0.05005461120510449
! Port Impedance 100.00000000000000 0.00000000000000 100.00000000000000 0.00000000000000
33806082.0 -0.3081750262208476 0.25075426786903326 0.41525743565352224 -0.21877683684249555 0.4195101987720494 -0.22478375727576655 -0.48581556118725633 0.04984499009378057
! Port Impedance 100.00000000000000 0.00000000000000 100.00000000000000 0.00000000000000
33839028.0 -0.30779616964274353 0.25104824724626623 0.4149401359358656 -0.21922825320285455 0.41915788660954906 -0.22511661663747437 -0.4858206020293392 0.050333415643125975
! Port Impedance 100.00000000000000 0.00000000000000 100.00000000000000 0.00000000000000
33871974.0 -0.3074434132521886 0.25064078677739837 0.41503739803597145 -0.2188564718966544 0.4191813109196275 -0.22484941669706454 -0.4858888138000497 0.0502498890591294
! Port Impedance 100.00000000000000 0.00000000000000 100.00000000000000 0.00000000000000
33904920.0 -0.30759493774901137 0.25127492188150313 0.41486468001673765 -0.21941338727475096 0.41908275035074855 -0.22554462064304912 -0.48583201174604773 0.05022790761542311
! Port Impedance 100.00000000000000 0.00000000000000 100.00000000000000 0.00000000000000
33937866.0 -0.30726504297709833 0.2513613995573174 0.4146044759416967 -0.2194276354962329 0.4190433525368613 -0.22536687230908586 -0.4857179619804301 0.05042297801749188
! Port Impedance 100.00000000000000 0.00000000000000 100.00000000000000 0.00000000000000
33970812.0 -0.3065535839041058 0.2509274859016945 0.4144083223885494 -0.21934716323675496 0.4186578406302103 -0.2254608913343851 -0.48575272019490884 0.0503126588945523
! Port Impedance 100.00000000000000 0.00000000000000 100.00000000000000 0.00000000000000
34003758.0 -0.3068883492840765 0.25158319621320235 0.414567310468379 -0.21996805774562353 0.4188128868151689 -0.2259990243290311 -0.4859214450696616 0.050472175000642897
! Port Impedance 100.00000000000000 0.00000000000000 100.00000000000000 0.00000000000000
34036704.0 -0.30660584872893926 0.2515048878480815 0.4144814603261622 -0.21993265238427168 0.41849467001471613 -0.22600738323477265 -0.4859067482600099 0.05052319574591005
! Port Impedance 100.00000000000000 0.00000000000000 100.00000000000000 0.00000000000000
34069650.0 -0.3062699201963083 0.2517641319132028 0.41438076394944645 -0.22019249570519178 0.4184628792478021 -0.2262437273318503 -0.4858186264901585 0.050394203126681025
! Port Impedance 100.00000000000000 0.00000000000000 100.00000000000000 0.00000000000000
34102596.0 -0.30587838755044483 0.2519165518063006 0.41416368475106136 -0.22048510282639733 0.41837593636565734 -0.2264346798725476 -0.48580727435999804 0.05061560825003171
! Port Impedance 100.00000000000000 0.00000000000000 100.00000000000000 0.00000000000000
34135542.0 -0.3058989459212701 0.2524142838224389 0.41394785984435345 -0.2207846319870377 0.41819643799346934 -0.22693517688019205 -0.4857561100499541 0.05072832830225214
! Port Impedance 100.00000000000000 0.00000000000000 100.00000000000000 0.00000000000000
34168488.0 -0.3057929469589066 0.2524085759479411 0.41410866114749423 -0.2208933572317111 0.41827007256831295 -0.22685981862304647 -0.48588802929754726 0.05072525768469537
! Port Impedance 100.00000000000000 0.00000000000000 100.00000000000000 0.00000000000000
34201434.0 -0.3057930096299651 0.2526163367686702 0.41410890739493983 -0.2213104534063227 0.41818963507556245 -0.2273605345831008 -0.48589657387545654 0.05062100585456719
! Port Impedance 100.00000000000000 0.00000000000000 100.00000000000000 0.00000000000000
34234380.0 -0.30524917660349105 0.25242007535521016 0.41384992238946794 -0.22127486402154103 0.4179516484351153 -0.22733503970866586 -0.4858714165969959 0.05078881620813568
! Port Impedance 100.00000000000000 0.00000000000000 100.00000000000000 0.00000000000000
34267326.0 -0.30503333017102885 0.25264644725808866 0.41362222052646985 -0.2213385292317281 0.4178439489733292 -0.2273614700330877 -0.48593947549401967 0.05093868906093103
! Port Impedance 100.00000000000000 0.00000000000000 100.00000000000000 0.00000000000000
34300272.0 -0.305018292609905 0.2529291875391359 0.41364017965546984 -0.22162355607061984 0.41776610135916925 -0.22765300790904322 -0.4858744130748941 0.05086321194081551
! Port Impedance 100.00000000000000 0.00000000000000 100.00000000000000 0.00000000000000
34333218.0 -0.3045820714603431 0.2530771935395836 0.41337538346431624 -0.2218466975252255 0.4175103620292223 -0.2278185634412615 -0.48583826210995473 0.05097706457288622
! Port Impedance 100.00000000000000 0.00000000000000 100.00000000000000 0.00000000000000
34366164.0 -0.3044230921636649 0.25308494557947286 0.4134624266370001 -0.22202467665657966 0.4175684027775402 -0.2282145700706523 -0.4858576406173092 0.05118778522519233
! Port Impedance 100.00000000000000 0.00000000000000 100.00000000000000 0.00000000000000
34399110.0 -0.30447347224031895 0.25328590317844385 0.41349947437873724 -0.22225596515059826 0.4174863756105429 -0.22858034413417638 -0.4858842769352188 0.05119200387736263
! Port Impedance 100.00000000000000 0.00000000000000 100.00000000000000 0.00000000000000
34432056.0 -0.3039412247236284 0.2532767070844719 0.41307732515167694 -0.22233998771626654 0.41723659357618 -0.2284157699217406 -0.48576063719800544 0.05110876293907905
! Port Impedance 100.00000000000000 0.00000000000000 100.00000000000000 0.00000000000000
34465002.0 -0.30398037374571674 0.2534368821663248 0.4129378322858114 -0.22259769038723728 0.41720775997144444 -0.22869528926957294 -0.48589928896023404 0.05122419279379764
! Port Impedance 100.00000000000000 0.00000000000000 100.00000000000000 0.00000000000000
34497948.0 -0.30347795965594127 0.25366101875122954 0.4128137103834151 -0.22277857885235908 0.41704898667113477 -0.2289391502821822 -0.4858426331432655 0.051183577436322944
! Port Impedance 100.00000000000000 0.00000000000000 100.00000000000000 0.00000000000000
34530894.0 -0.30314844920287604 0.25397264747201315 0.41262389984585723 -0.2230702727457201 0.4166416954051505 -0.22918844819569234 -0.48579388658224343 0.051150164735315
! Port Impedance 100.00000000000000 0.00000000000000 100.00000000000000 0.00000000000000
34563840.0 -0.30272148818216976 0.25397195841631337 0.4124718924127534 -0.22325220499086143 0.41645843550364925 -0.22929398292332742 -0.485792650229606 0.05137344743820337
! Port Impedance 100.00000000000000 0.00000000000000 100.00000000000000 0.00000000000000
34596786.0 -0.30269285108321337 0.25412733048073965 0.4125316645986904 -0.2233484765703052 0.41643973121081745 -0.2295286998166664 -0.4857471432998831 0.051333563630048706
! Port Impedance 100.00000000000000 0.00000000000000 100.00000000000000 0.00000000000000
34629732.0 -0.3024706834577327 0.25421850506947224 0.41237942329166083 -0.2235271675155926 0.4165216925601044 -0.22976464103491698 -0.4858937362187888 0.05155817603001346
! Port Impedance 100.00000000000000 0.00000000000000 100.00000000000000 0.00000000000000
34662678.0 -0.30241200420286923 0.2543421915827645 0.41230138235381614 -0.22370970999421838 0.41637578616262916 -0.2298959439432531 -0.48585537184595723 0.05148491364407994
! Port Impedance 100.00000000000000 0.00000000000000 100.00000000000000 0.00000000000000
34695624.0 -0.3022047417865195 0.25452956271775307 0.4122028586087317 -0.22397585452851482 0.41635052931576166 -0.2301178338010222 -0.4859413726227432 0.0515612441470714
! Port Impedance 100.00000000000000 0.00000000000000 100.00000000000000 0.00000000000000
34728570.0 -0.3020458657293682 0.2548881738857161 0.41217620917928927 -0.22431558511417513 0.4163042776503054 -0.2305827960600604 -0.48602698929676125 0.05154661856923998
! Port Impedance 100.00000000000000 0.00000000000000 100.00000000000000 0.00000000000000
34761516.0 -0.3016782377022235 0.2545761837427875 0.4118742374415848 -0.2241077541607035 0.41601848574246525 -0.23033461997126609 -0.4857986253259054 0.051565941577718294
! Port Impedance 100.00000000000000 0.00000000000000 100.00000000000000 0.00000000000000
34794462.0 -0.3016588926699978 0.2551379842477124 0.4119414916420544 -0.22466378632501813 0.4159815622107785 -0.23080873564527865 -0.4858943094039311 0.051787071467803744
! Port Impedance 100.00000000000000 0.00000000000000 100.00000000000000 0.00000000000000
34827408.0 -0.30140824824709966 0.25492229283688445 0.4117179481242324 -0.2245820309533199 0.41570726564988675 -0.23082800855721947 -0.48581858489832863 0.05185071009188799
! Port Impedance 100.00000000000000 0.00000000000000 100.00000000000000 0.00000000000000
34860354.0 -0.30093653016334976 0.25533249427085236 0.4115115281194037 -0.2248956239563243 0.4156210651483546 -0.2311925560041892 -0.4859176087616746 0.051967435247800564
! Port Impedance 100.00000000000000 0.00000000000000 100.00000000000000 0.00000000000000
34893300.0 -0.30062836287880057 0.2554142235873444 0.4114498543024534 -0.2251329218165112 0.415431351581929 -0.23140921822446556 -0.4859767872762445 0.05205361463254017
! Port Impedance 100.00000000000000 0.00000000000000 100.00000000000000 0.00000000000000
34926246.0 -0.30048818162130775 0.2556094959512806 0.4112000957932278 -0.22515299839067754 0.4153192560878308 -0.23138072923880884 -0.4858289999971213 0.05208534091176664
! Port Impedance 100.00000000000000 0.00000000000000 100.00000000000000 0.00000000000000
34959192.0 -0.300543847618909 0.25564954447730165 0.41129451970338315 -0.22563979696104122 0.41530334032769767 -0.2316645876724664 -0.4857826148274865 0.05187260373822339
! Port Impedance 100.00000000000000 0.00000000000000 100.00000000000000 0.00000000000000
34992138.0 -0.29998380702267213 0.2559101504323652 0.41103433970774034 -0.2257582128304103 0.4149415164886863 -0.2319825450199798 -0.48576519951120345 0.05213582707522119
! Port Impedance 100.00000000000000 0.00000000000000 100.00000000000000 0.00000000000000
35025084.0 -0.2999613735833763 0.25582136314986326 0.411094622964558 -0.22576255870743253 0.4151471204994903 -0.23201674684086934 -0.485886760723259 0.052026737219108256
! Port Impedance 100.00000000000000 0.00000000000000 100.00000000000000 0.00000000000000
35058030.0 -0.29979580870105166 0.25622109020121975 0.41077051184076707 -0.22594358482954924 0.41489999374243147 -0.23210548293552197 -0.48571648045999766 0.05239057827309582
! Port Impedance 100.00000000000000 0.00000000000000 100.00000000000000 0.00000000000000
35090976.0 -0.2996304753413349 0.2562028627170156 0.4108995830828731 -0.22634198850367004 0.41487935269071075 -0.23252615648979746 -0.4858278033766144 0.0521525901512168
! Port Impedance 100.00000000000000 0.00000000000000 100.00000000000000 0.00000000000000
35123922.0 -0.29926845710231953 0.2563056096642241 0.4108086183235985 -0.22635517656731774 0.4146922392746649 -0.23272303019261553 -0.48588903095560226 0.05227247842131884
! Port Impedance 100.00000000000000 0.00000000000000 100.00000000000000 0.00000000000000
35156868.0 -0.2989646674836446 0.25631056120052875 0.410511654261385 -0.2265974131033679 0.4144645651868601 -0.2327707066686243 -0.4858741655753718 0.052481057958190136
! Port Impedance 100.00000000000000 0.00000000000000 100.00000000000000 0.00000000000000
35189814.0 -0.29875328217277575 0.25680484449546886 0.4104662407975131 -0.22677762615413377 0.4144246794301936 -0.23304405174251527 -0.4859681410568108 0.05256108014026737
! Port Impedance 100.00000000000000 0.00000000000000 100.00000000000000 0.00000000000000
35222760.0 -0.2985983421867109 0.2571030180481436 0.41031541614073913 -0.22717117200241266 0.4142427741411949 -0.23348642952117854 -0.4859075892859043 0.05254266094178196
! Port Impedance 100.00000000000000 0.00000000000000 100.00000000000000 0.00000000000000
35255706.0 -0.29812066805803744 0.2571377614477923 0.41008912810113096 -0.2274137232877907 0.414118630836965 -0.23364016807857307 -0.48586632611710623 0.05270340322658538
! Port Impedance 100.00000000000000 0.00000000000000 100.00000000000000 0.00000000000000
35288652.0 -0.2982811006055199 0.2567013406389833 0.4102712620015942 -0.22729683931161548 0.41413620298820203 -0.23371468681127602 -0.4859092567129051 0.05253875335639956
! Port Impedance 100.00000000000000 0.00000000000000 100.00000000000000 0.00000000000000
35321598.0 -0.2981858458019253 0.25715855447111013 0.41016932856639554 -0.22761119371492605 0.4139011511969513 -0.23384556751911045 -0.4858017404820002 0.052741418255464356
! Port Impedance 100.00000000000000 0.00000000000000 100.00000000000000 0.00000000000000
35354544.0 -0.2979533310548155 0.257805183093439 0.40980729826182327 -0.2280329625748287 0.413928129030618 -0.23440666428393458 -0.48588864981699587 0.052912941099348805
! Port Impedance 100.00000000000000 0.00000000000000 100.00000000000000 0.00000000000000
35387490.0 -0.2978292308476223 0.25751673023144495 0.4097318655215623 -0.22803628930144243 0.4138084532706256 -0.2342383847604308 -0.48587531968240594 0.05283156271421602
! Port Impedance 100.00000000000000 0.00000000000000 100.00000000000000 0.00000000000000
35420436.0 -0.297104234489181 0.2574182677345857 0.40964425302520224 -0.22807968574235796 0.4135608054401973 -0.23453459043436786 -0.4858567226688425 0.05276762456978559
! Port Impedance 100.00000000000000 0.00000000000000 100.00000000000000 0.00000000000000
35453382.0 -0.2972333583195554 0.25772430999605267 0.40966931775716164 -0.22848703312512933 0.41347789738344365 -0.23473360664563664 -0.48591037022113254 0.0530405024945934
! Port Impedance 100.00000000000000 0.00000000000000 100.00000000000000 0.00000000000000
35486328.0 -0.2968144399036397 0.25810933855608575 0.4093087728195713 -0.22854336985810125 0.4133127074164322 -0.23479103799599882 -0.4859935890371847 0.052910009203349345
! Port Impedance 100.00000000000000 0.00000000000000 100.00000000000000 0.00000000000000
35519274.0 -0.29688354757834506 0.25802711124814554 0.40941442568094627 -0.2288269391073528 0.4133824974567508 -0.23508794515157802 -0.4858297068797804 0.0528681682008279
! Port Impedance 100.00000000000000 0.00000000000000 100.00000000000000 0.00000000000000
35552220.0 -0.2966196079017369 0.2581266066866125 0.40930344843742583 -0.2290606700768354 0.4132326768347003 -0.23529577382661587 -0.4859546261830004 0.05295782201170068
! Port Impedance 100.00000000000000 0.00000000000000 100.00000000000000 0.00000000000000
35585166.0 -0.29570406469320387 0.2580245067323248 0.40889809775010055 -0.22893322480935424 0.41273004124498003 -0.23542939283768 -0.485847569303418 0.05329787331179946
! Port Impedance 100.00000000000000 0.00000000000000 100.00000000000000 0.00000000000000
35618112.0 -0.29577685914278373 0.25835833660479035 0.4088333201238921 -0.22937852447450283 0.4127467260711017 -0.23582275829146782 -0.48593591878445175 0.053446448267503305
! Port Impedance 100.00000000000000 0.00000000000000 100.00000000000000 0.00000000000000
35651058.0 -0.29598415020344315 0.2587062501317343 0.4088420141859724 -0.2296841283410254 0.4127502453665899 -0.235863751895703 -0.4860352100134416 0.05314998957716015
! Port Impedance 100.00000000000000 0.00000000000000 100.00000000000000 0.00000000000000
35684004.0 -0.2957594343235298 0.25854609080814656 0.40896341751722887 -0.22978833662757744 0.41270796031669477 -0.23598710474831963 -0.4860031070825609 0.05301456571953382
! Port Impedance 100.00000000000000 0.00000000000000 100.00000000000000 0.00000000000000
35716950.0 -0.2951074875069049 0.2586045488769028 0.4084342440526807 -0.2298271279878836 0.412187446954639 -0.2361161440378341 -0.485753063372144 0.05320258123627927
! Port Impedance 100.00000000000000 0.00000000000000 100.00000000000000 0.00000000000000
35749896.0 -0.29495558116234466 0.25885367626652234 0.4083754073584228 -0.2300886648214931 0.41222436087780934 -0.23637820945854957 -0.48572614015793103 0.053434412088510394
! Port Impedance 100.00000000000000 0.00000000000000 100.00000000000000 0.00000000000000
35782842.0 -0.2948168436776032 0.25950944551860167 0.40835941161937006 -0.23055431948932187 0.4121782831663311 -0.23690520737614937 -0.4858984648776339 0.05353414244361418
! Port Impedance 100.00000000000000 0.00000000000000 100.00000000000000 0.00000000000000
35815788.0 -0.29436681425671785 0.25888367364110815 0.40812639046560617 -0.2303237317981456 0.41199558628682426 -0.23665148135093514 -0.48584675905644353 0.053560406219406
! Port Impedance 100.00000000000000 0.00000000000000 100.00000000000000 0.00000000000000
35848734.0 -0.29466794647562655 0.2595749770257274 0.4081935956386273 -0.2307646334965148 0.41199075193379103 -0.23695000926988713 -0.4859106113571581 0.05345181801639984
! Port Impedance 100.00000000000000 0.00000000000000 100.00000000000000 0.00000000000000
35881680.0 -0.29396516639149406 0.25923715390613955 0.4080319053022292 -0.2306610534421244 0.4118300898322531 -0.23709460842144023 -0.48598300162725555 0.053615504825234035
! Port Impedance 100.00000000000000 0.00000000000000 100.00000000000000 0.00000000000000
35914626.0 -0.2941351855733911 0.2598049937587348 0.40813125524905425 -0.2313158446082255 0.4117628595388929 -0.23764918392606527 -0.4859013388708677 0.053785593217359345
! Port Impedance 100.00000000000000 0.00000000000000 100.00000000000000 0.00000000000000
35947572.0 -0.2935885558740565 0.2596785114857723 0.40779118155360106 -0.2310316713499988 0.41156698705713096 -0.2375713031880055 -0.4858811476630901 0.05387505753898347
! Port Impedance 100.00000000000000 0.00000000000000 100.00000000000000 0.00000000000000
35980518.0 -0.29344572104692257 0.2599897683704374 0.40768897722818404 -0.2314051701614099 0.4114171477990015 -0.23777707027367267 -0.4857587004691667 0.05383038385225973
! Port Impedance 100.00000000000000 0.00000000000000 100.00000000000000 0.00000000000000
36013464.0 -0.2932260902018818 0.2603386822010381 0.4074926629710988 -0.23183023513364684 0.4112736183760255 -0.23821056401142446 -0.485854247247131 0.05402974015268379
! Port Impedance 100.00000000000000 0.00000000000000 100.00000000000000 0.00000000000000
36046410.0 -0.2931714950228869 0.2602032778090058 0.407509147743527 -0.2318576617145299 0.4112656048202633 -0.23809643911627004 -0.4857822493245659 0.05364896241569802
! Port Impedance 100.00000000000000 0.00000000000000 100.00000000000000 0.00000000000000
36079356.0 -0.29314051753589254 0.2604221314275606 0.40752064373956737 -0.23224330999523102 0.41120280566266515 -0.23857413687247844 -0.48587161057453765 0.05401474065551369
! Port Impedance 100.00000000000000 0.00000000000000 100.00000000000000 0.00000000000000
36112302.0 -0.2926825522463897 0.2604234634658634 0.4072627938016056 -0.23219465699338096 0.4108725625249245 -0.23851620362290005 -0.4855894168616517 0.05382391331181187
! Port Impedance 100.00000000000000 0.00000000000000 100.00000000000000 0.00000000000000
36145248.0 -0.29256485121979137 0.2606781262310993 0.4071392502553388 -0.23246857433016566 0.4106909761631754 -0.23894287457921473 -0.48560887226253435 0.05407862514654355
! Port Impedance 100.00000000000000 0.00000000000000 100.00000000000000 0.00000000000000
36178194.0 -0.29228897328477965 0.2607155695677804 0.40702501920412815 -0.23258637391805892 0.41081654857941563 -0.23901603770966828 -0.4858449630398234 0.05413067602964632
! Port Impedance 100.00000000000000 0.00000000000000 100.00000000000000 0.00000000000000
36211140.0 -0.29175586025663114 0.26070793988086827 0.40669366231295934 -0.23279733088345797 0.4104935833011927 -0.23922212537145227 -0.4860092341472909 0.05439948148307337
! Port Impedance 100.00000000000000 0.00000000000000 100.00000000000000 0.00000000000000
36244086.0 -0.2918615163279418 0.26083919376185066 0.406764166247066 -0.23302531181526154 0.4106303797766319 -0.2394530687170329 -0.485773390517423 0.05402058105358779
! Port Impedance 100.00000000000000 0.00000000000000 100.00000000000000 0.00000000000000
36277032.0 -0.29171833415332216 0.26128414921980514 0.4067976873122588 -0.23333339068633455 0.4103955589394842 -0.23969653460721496 -0.4861320668885651 0.05397431437137491
! Port Impedance 100.00000000000000 0.00000000000000 100.00000000000000 0.00000000000000
36309978.0 -0.2915231307404762 0.2615362248457025 0.4066252183451859 -0.23349886683576734 0.41032599795097835 -0.2398312157602186 -0.4858682417286965 0.054422035164488416
! Port Impedance 100.00000000000000 0.00000000000000 100.00000000000000 0.00000000000000
36342924.0 -0.29119526728685874 0.2615401156339772 0.4064051763146612 -0.23355871654681334 0.4101035879887033 -0.2400843818511707 -0.48597477755142215 0.05446517576568917
! Port Impedance 100.00000000000000 0.00000000000000 100.00000000000000 0.00000000000000
36375870.0 -0.29065925953382094 0.2616214599296149 0.4061485054674786 -0.2337616554182425 0.41002704836604786 -0.2403084007726143 -0.4860658027474421 0.0547981677093146
! Port Impedance 100.00000000000000 0.00000000000000 100.00000000000000 0.00000000000000
36408816.0 -0.2910963102377301 0.2618773458169691 0.40627248531606697 -0.2340479686201175 0.4100111581542569 -0.24036575646757252 -0.4860023345686787 0.054439680737643964
! Port Impedance 100.00000000000000 0.00000000000000 100.00000000000000 0.00000000000000
36441762.0 -0.2900825231360483 0.2617904183198102 0.40599698469384676 -0.23398555598988308 0.40957639717788547 -0.24047291205267782 -0.4854018285764154 0.054312644139633826
! Port Impedance 100.00000000000000 0.00000000000000 100.00000000000000 0.00000000000000
36474708.0 -0.29045697033662043 0.2620767894789691 0.40598536668627677 -0.23443768569810441 0.409666556264355 -0.24084446535279413 -0.4859262097051781 0.054596068414527126
! Port Impedance 100.00000000000000 0.00000000000000 100.00000000000000 0.00000000000000
36507654.0 -0.2899045741772881 0.261962143163615 0.4058045991056939 -0.23438654049559643 0.4094689288779791 -0.24077041525539236 -0.48578741880895826 0.05453132097176548
! Port Impedance 100.00000000000000 0.00000000000000 100.00000000000000 0.00000000000000
36540600.0 -0.2897211353832017 0.26238890632135414 0.4056716108790716 -0.23471411206732712 0.40925892707506195 -0.24122261451468965 -0.48563030126167617 0.05472669067882853
! Port Impedance 100.00000000000000 0.00000000000000 100.00000000000000 0.00000000000000
36573546.0 -0.2896471780414477 0.26277989680223174 0.40552555053123995 -0.23490931365994303 0.4091722954407321 -0.24148014078350283 -0.4858306641521759 0.054836167330940294
! Port Impedance 100.00000000000000 0.00000000000000 100.00000000000000 0.00000000000000
36606492.0 -0.28940764482308046 0.2626869116412676 0.4054830630276511 -0.235119110295615 0.4091125401904738 -0.24150625638567624 -0.48571723699814573 0.054684104534501086
! Port Impedance 100.00000000000000 0.00000000000000 100.00000000000000 0.00000000000000
36639438.0 -0.2893952573942455 0.26267157223158377 0.4055487559164107 -0.23540076592958703 0.4090838994046342 -0.2419808796388154 -0.4859178043157827 0.05455149430691554
! Port Impedance 100.00000000000000 0.00000000000000 100.00000000000000 0.00000000000000
36672384.0 -0.28891284228314107 0.2628600312312095 0.40531561464257315 -0.235415031104252 0.408809068117349 -0.24203846047914768 -0.4856326061456022 0.054814043331245205
! Port Impedance 100.00000000000000 0.00000000000000 100.00000000000000 0.00000000000000
36705330.0 -0.2887531781651388 0.2629403182246535 0.4051560734420956 -0.2357613037633448 0.40879451605309003 -0.24231634001072913 -0.48594067160260446 0.05505609896256343
! Port Impedance 100.00000000000000 0.00000000000000 100.00000000000000 0.00000000000000
36738276.0 -0.2881246134231111 0.2631250840945232 0.4050004044905019 -0.23573648041915313 0.40849984891854746 -0.24228673377819593 -0.48566651214224493 0.05501899467049071
! Port Impedance 100.00000000000000 0.00000000000000 100.00000000000000 0.00000000000000
36771222.0 -0.2880384182568685 0.26292207986605937 0.4047771928728793 -0.2359863253315733 0.40848666574827125 -0.24256674314014232 -0.4858748568413303 0.05524796795871545
! Port Impedance 100.00000000000000 0.00000000000000 100.00000000000000 0.00000000000000
36804168.0 -0.28789056514948175 0.2636653264008279 0.4046561299086662 -0.23649222372075324 0.40826082970247063 -0.24284276052222553 -0.48588625745115205 0.05491679716538135
! Port Impedance 100.00000000000000 0.00000000000000 100.00000000000000 0.00000000000000
36837114.0 -0.2879058015974079 0.26357679926275 0.4047204933348704 -0.23657479579054178 0.40823747439124414 -0.24310762292075971 -0.48574932127118875 0.05512032300766753
! Port Impedance 100.00000000000000 0.00000000000000 100.00000000000000 0.00000000000000
36870060.0 -0.2875110933369229 0.26385646159654247 0.40455844754879955 -0.2365480066818582 0.40803918220904023 -0.24314227943315367 -0.48577755251385424 0.0552623712690727
! Port Impedance 100.00000000000000 0.00000000000000 100.00000000000000 0.00000000000000
36903006.0 -0.2875497796664171 0.26370537388966225 0.40434893134832006 -0.23682111994685598 0.4080198304878045 -0.2433176818540096 -0.48584690807235575 0.05520841283944562
! Port Impedance 100.00000000000000 0.00000000000000 100.00000000000000 0.00000000000000
36935952.0 -0.2871317308743034 0.26375922002248425 0.40424325402659456 -0.23694145471294664 0.40773498196602154 -0.24357073198129142 -0.48594532950189595 0.05546728553899659
! Port Impedance 100.00000000000000 0.00000000000000 100.00000000000000 0.00000000000000
36968898.0 -0.287055314842535 0.26391993359479565 0.40423776400321026 -0.2371711564862118 0.40767415024869547 -0.24374520314843598 -0.48580941684030854 0.05532695990208659
! Port Impedance 100.00000000000000 0.00000000000000 100.00000000000000 0.00000000000000
37001844.0 -0.2864873394865832 0.2641861698886047 0.40408605091146355 -0.23756552665402225 0.40755875645826495 -0.24402884320443657 -0.485783190898479 0.05561272678081676
! Port Impedance 100.00000000000000 0.00000000000000 100.00000000000000 0.00000000000000
37034790.0 -0.28636579207463375 0.26399972112946385 0.40398974292084033 -0.237333344248029 0.40758725171378707 -0.24400950797679843 -0.48580629602908654 0.05554354837893612
! Port Impedance 100.00000000000000 0.00000000000000 100.00000000000000 0.00000000000000
37067736.0 -0.2860670434033641 0.264561069121295 0.4035972049901297 -0.23775913733826815 0.40724034580170776 -0.24423231056052563 -0.4857719419953579 0.05542921914056552
! Port Impedance 100.00000000000000 0.00000000000000 100.00000000000000 0.00000000000000
37100682.0 -0.2859653937079354 0.2645692921823343 0.4038282169146883 -0.23796519318076875 0.40726731655241394 -0.24462209458800716 -0.4861877012506586 0.055617667366999565
! Port Impedance 100.00000000000000 0.00000000000000 100.00000000000000 0.00000000000000
37133628.0 -0.28563152305257866 0.26445440567794704 0.4035074573919235 -0.23804909088746817 0.40700814162464816 -0.2446534442643462 -0.48566975108832916 0.05563628581995338
! Port Impedance 100.00000000000000 0.00000000000000 100.00000000000000 0.00000000000000
37166574.0 -0.28534153820768116 0.26458760920453595 0.4035253457927017 -0.23808322010939392 0.40706949533452985 -0.24477680862702403 -0.48594274596186227 0.05573818053554117
! Port Impedance 100.00000000000000 0.00000000000000 100.00000000000000 0.00000000000000
37199520.0 -0.28499601481856274 0.2650409759002421 0.4031396371203079 -0.23864560447126154 0.4067443838031532 -0.24525530196398454 -0.4860058294166105 0.05609054609169803
! Port Impedance 100.00000000000000 0.00000000000000 100.00000000000000 0.00000000000000
37232466.0 -0.2852038941690911 0.26510399861670125 0.4034418983850634 -0.23884816541138462 0.40680578552636293 -0.24525641415766922 -0.4860723629461859 0.055595202452332314
! Port Impedance 100.00000000000000 0.00000000000000 100.00000000000000 0.00000000000000
37265412.0 -0.2847175948739209 0.264821236577771 0.40308093976016635 -0.2388643174157455 0.4064123270245337 -0.2454733034888712 -0.48571586847368176 0.05591545566170909
! Port Impedance 100.00000000000000 0.00000000000000 100.00000000000000 0.00000000000000
37298358.0 -0.28431354697053624 0.26523883946627097 0.4028240973483599 -0.23918593150536635 0.40635556811159995 -0.24583066779992568 -0.4859911890208767 0.05610589298502183
! Port Impedance 100.00000000000000 0.00000000000000 100.00000000000000 0.00000000000000
37331304.0 -0.2842344462890926 0.26536485181975833 0.4028734659987622 -0.23935414138015748 0.40632651870094033 -0.24598827380538224 -0.4858716557727175 0.056342492677206035
! Port Impedance 100.00000000000000 0.00000000000000 100.00000000000000 0.00000000000000
37364250.0 -0.2841443851194476 0.265332051178443 0.4027092188434271 -0.23940389202921789 0.40618262778453657 -0.24613555007769 -0.48594485174725116 0.056291269703741154
! Port Impedance 100.00000000000000 0.00000000000000 100.00000000000000 0.00000000000000
37397196.0 -0.2840649980122821 0.26565056075482807 0.40267848985472243 -0.2397010132909882 0.4061517864635058 -0.24644550924422665 -0.48602911179191777 0.055895115475455684
! Port Impedance 100.00000000000000 0.00000000000000 100.00000000000000 0.00000000000000
37430142.0 -0.2835570324386408 0.26542078175222944 0.40251958781958075 -0.23971300236232534 0.40587361514006776 -0.24631767796308346 -0.4855676367467576 0.05606925488580563
! Port Impedance 100.00000000000000 0.00000000000000 100.00000000000000 0.00000000000000
37463088.0 -0.2834478223715939 0.26585830916870734 0.40239891610508594 -0.24014611738029357 0.405751153145506 -0.246642886065817 -0.4858945607184003 0.0562230329661866
! Port Impedance 100.00000000000000 0.00000000000000 100.00000000000000 0.00000000000000
37496034.0 -0.28276980330655177 0.2656558519834479 0.40203663757789637 -0.24002914732366024 0.40548185245790624 -0.24667187913478733 -0.4859766248879278 0.056388181181835424
! Port Impedance 100.00000000000000 0.00000000000000 100.00000000000000 0.00000000000000
37528980.0 -0.2829155833866007 0.2660150694200973 0.402142842562007 -0.24027286187111105 0.4055829058614091 -0.24700435595127412 -0.48593023355049625 0.05644038057315952
! Port Impedance 100.00000000000000 0.00000000000000 100.00000000000000 0.00000000000000
37561926.0 -0.2827748807070315 0.266459704637866 0.40191036474970665 -0.24083362901867705 0.40531907483898444 -0.24734689211887748 -0.48585038487679033 0.05646171972919049
! Port Impedance 100.00000000000000 0.00000000000000 100.00000000000000 0.00000000000000
37594872.0 -0.28243178459498836 0.2664136226104299 0.40168035216106857 -0.24073234034599117 0.4051672355039445 -0.24738107456154787 -0.48585591091739955 0.05636993331914364
! Port Impedance 100.00000000000000 0.00000000000000 100.00000000000000 0.00000000000000
37627818.0 -0.28253821368435467 0.26653815871702735 0.40200203578722016 -0.24104359678517426 0.40528897112477485 -0.24766636098651673 -0.48602874570967713 0.05626413517790611
! Port Impedance 100.00000000000000 0.00000000000000 100.00000000000000 0.00000000000000
37660764.0 -0.28215170319590255 0.2668561309698272 0.4017765204674266 -0.24140382668021776 0.40505602459930357 -0.24782860406013005 -0.48582171792349793 0.056461034695941714
! Port Impedance 100.00000000000000 0.00000000000000 100.00000000000000 0.00000000000000
37693710.0 -0.2816425046402262 0.26661314558472027 0.4014238662544206 -0.24107452509823468 0.40479052337042326 -0.24779433619537194 -0.4858780951982884 0.05670822372018996
! Port Impedance 100.00000000000000 0.00000000000000 100.00000000000000 0.00000000000000
37726656.0 -0.2816746790994481 0.26709944369601935 0.401535852160026 -0.24168027778862083 0.40476341357166973 -0.2482438955584042 -0.48591934874655923 0.05672445598315243
! Port Impedance 100.00000000000000 0.00000000000000 100.00000000000000 0.00000000000000
37759602.0 -0.2813695254257993 0.2670918310265718 0.40112087412613956 -0.24168904639942007 0.40459301420453375 -0.24838496167949975 -0.4858747260789934 0.05670896808449997
! Port Impedance 100.00000000000000 0.00000000000000 100.00000000000000 0.00000000000000
37792548.0 -0.28106956311103654 0.26712499010198454 0.40107356695263996 -0.24188977128839229 0.4044504812446529 -0.24858294255707142 -0.4858237318843965 0.05652336560640395
! Port Impedance 100.00000000000000 0.00000000000000 100.00000000000000 0.00000000000000
37825494.0 -0.28102200129861815 0.2670631703840939 0.4012185785911961 -0.24208041256107413 0.4044312305343013 -0.24894953484066198 -0.48600862951630264 0.05684195237589687
! Port Impedance 100.00000000000000 0.00000000000000 100.00000000000000 0.00000000000000
37858440.0 -0.2804781925682476 0.2672326308081255 0.40082777678698245 -0.24207935117506152 0.4040128741740754 -0.24883605898456934 -0.485817889472424 0.056892337534971055
! Port Impedance 100.00000000000000 0.00000000000000 100.00000000000000 0.00000000000000
37891386.0 -0.2804157496544398 0.26756868542000345 0.4008735459781855 -0.24262354200595065 0.4040306092960221 -0.24926982389794775 -0.48601697155034723 0.05702295825256591
! Port Impedance 100.00000000000000 0.00000000000000 100.00000000000000 0.00000000000000
37924332.0 -0.2804305593226643 0.26775085435593127 0.40071056163075125 -0.242820841262827 0.4039235394841295 -0.24939785294463698 -0.485778478418062 0.057057864393751156
! Port Impedance 100.00000000000000 0.00000000000000 100.00000000000000 0.00000000000000
37957278.0 -0.2799746603561943 0.2673990534189093 0.4005320527829168 -0.24273867180005257 0.403749326047685 -0.2494467674006857 -0.485961884683768 0.05715810784472163
! Port Impedance 100.00000000000000 0.00000000000000 100.00000000000000 0.00000000000000
37990224.0 -0.2797878855599375 0.2679063733219807 0.4004398158452831 -0.24311159345471348 0.4037146406028651 -0.24979285492581357 -0.4859438190756391 0.0568644236707695
! Port Impedance 100.00000000000000 0.00000000000000 100.00000000000000 0.00000000000000
38023170.0 -0.279678054025821 0.2680676411449257 0.4004854266622803 -0.24320165133269722 0.4036189331430765 -0.2500033901581037 -0.48603493108610235 0.05696299372563157
! Port Impedance 100.00000000000000 0.00000000000000 100.00000000000000 0.00000000000000
38056116.0 -0.2792763671579557 0.26827107905509007 0.40026768343446606 -0.24339924164126875 0.4033979780667495 -0.2503308055463671 -0.4859557980452348 0.05739487829635506
! Port Impedance 100.00000000000000 0.00000000000000 100.00000000000000 0.00000000000000
38089062.0 -0.2788700886308451 0.26831154447718536 0.40002527912855756 -0.24356923372051864 0.40314454363727636 -0.2504164075527909 -0.4859025351637003 0.05728157273585942
! Port Impedance 100.00000000000000 0.00000000000000 100.00000000000000 0.00000000000000
38122008.0 -0.2785320879809156 0.26850218936349857 0.39977107913470283 -0.24395966518571544 0.40301588090344664 -0.25062194956959877 -0.48585106540130657 0.05741674007763037
! Port Impedance 100.00000000000000 0.00000000000000 100.00000000000000 0.00000000000000
38154954.0 -0.27849512044489344 0.26848927278157864 0.39984839426546687 -0.24395875682639986 0.40308365484410336 -0.2506076397030587 -0.48581246938705325 0.057412466471572055
! Port Impedance 100.00000000000000 0.00000000000000 100.00000000000000 0.00000000000000
38187900.0 -0.2783002909976027 0.2685801733084306 0.39965088017230815 -0.24400064139455824 0.40299526020726684 -0.2508856552967797 -0.48601293414756574 0.05750733438485215
! Port Impedance 100.00000000000000 0.00000000000000 100.00000000000000 0.00000000000000
38220846.0 -0.2781002864220996 0.2689175143968821 0.3995101027604682 -0.24431396087102492 0.40276406228813 -0.2510655358487087 -0.48583218939534134 0.05745670158696742
! Port Impedance 100.00000000000000 0.00000000000000 100.00000000000000 0.00000000000000
38253792.0 -0.27813883507271664 0.2690349238932933 0.3996141622511502 -0.24463151632959415 0.4027320787162977 -0.2512061649150537 -0.4859105619957099 0.057525134868109756
! Port Impedance 100.00000000000000 0.00000000000000 100.00000000000000 0.00000000000000
38286738.0 -0.2777037130129697 0.2688560598716306 0.399292673799807 -0.24476399261589826 0.4023720985806051 -0.2514127182259184 -0.4858547040337975 0.0576858692340916
! Port Impedance 100.00000000000000 0.00000000000000 100.00000000000000 0.00000000000000
38319684.0 -0.27720446491726397 0.26915801633175274 0.3990463321219063 -0.2449589707827218 0.40216314699978134 -0.2516573849255275 -0.48588604015799014 0.05775688008772755
! Port Impedance 100.00000000000000 0.00000000000000 100.00000000000000 0.00000000000000
38352630.0 -0.2771173701943669 0.269331547470228 0.3989321482178281 -0.24529347530005619 0.402062792285756 -0.2520821538179274 -0.48605567470901767 0.05795307251568908
! Port Impedance 100.00000000000000 0.00000000000000 100.00000000000000 0.00000000000000
38385576.0 -0.2769602937437841 0.26960471899207517 0.39890481295588603 -0.2454538416358587 0.4021175353622506 -0.2521617498811902 -0.48592932753540247 0.0576011466692424
! Port Impedance 100.00000000000000 0.00000000000000 100.00000000000000 0.00000000000000
38418522.0 -0.27706477477632346 0.2696448659851312 0.3988986043079823 -0.24566962815874585 0.402078201703901 -0.2523102068433313 -0.48598674637158623 0.057563563525210595
! Port Impedance 100.00000000000000 0.00000000000000 100.00000000000000 0.00000000000000
38451468.0 -0.27653514550048586 0.26946562201023905 0.39871479233511953 -0.24548729910269948 0.4016545924880924 -0.2523472091426794 -0.4858796312606183 0.05782568259916062
! Port Impedance 100.00000000000000 0.00000000000000 100.00000000000000 0.00000000000000
38484414.0 -0.2761930840853079 0.2697944138006908 0.39850748050924906 -0.24599218060529507 0.4016871162519465 -0.25263999249843333 -0.48593779920521685 0.05799058428059049
! Port Impedance 100.00000000000000 0.00000000000000 100.00000000000000 0.00000000000000
38517360.0 -0.2761077475903517 0.26976540623887646 0.39842652065565565 -0.24609897124430372 0.4015058453643373 -0.2528264890996915 -0.48582546896855017 0.058063989632348004
! Port Impedance 100.00000000000000 0.00000000000000 100.00000000000000 0.00000000000000
38550306.0 -0.2759738785361239 0.27014823140883865 0.39824061487975454 -0.24629786758306801 0.4014137446643312 -0.2530444868084477 -0.48587431552824756 0.05777079619940868
! Port Impedance 100.00000000000000 0.00000000000000 100.00000000000000 0.00000000000000
38583252.0 -0.2757073349045866 0.2700907523953644 0.3982684607975723 -0.24643461007567158 0.4012874665364304 -0.2531468292401831 -0.4856943884280433 0.05817793554986779
! Port Impedance 100.00000000000000 0.00000000000000 100.00000000000000 0.00000000000000
38616198.0 -0.27523633534275116 0.2699659155120085 0.3981069914488632 -0.2466359680680434 0.4012505283875967 -0.25353415289993414 -0.4860439671463069 0.05835995570980871
! Port Impedance 100.00000000000000 0.00000000000000 100.00000000000000 0.00000000000000
38649144.0 -0.27535919996203495 0.270552781817361 0.3979666608769035 -0.24685125805160227 0.4010965250324588 -0.25356332984458546 -0.48591414540625144 0.058132308463689886
! Port Impedance 100.00000000000000 0.00000000000000 100.00000000000000 0.00000000000000
38682090.0 -0.274948173859692 0.2704529263666986 0.3977119677258004 -0.24702793004646334 0.40092021553095547 -0.25381968050698245 -0.4859617576467177 0.05823606576001672
! Port Impedance 100.00000000000000 0.00000000000000 100.00000000000000 0.00000000000000
38715036.0 -0.27473678835653914 0.27055456234881764 0.3977949113950074 -0.24711323834216464 0.40076765971841577 -0.25394291987872175 -0.48609751024493786 0.05810134528931596
! Port Impedance 100.00000000000000 0.00000000000000 100.00000000000000 0.00000000000000
38747982.0 -0.27450407660992565 0.27059529860158127 0.39766919094802083 -0.24729503470905687 0.4006574022048811 -0.25406331579516145 -0.48571442973971296 0.05825229541892192
! Port Impedance 100.00000000000000 0.00000000000000 100.00000000000000 0.00000000000000
38780928.0 -0.2741326456071209 0.2704453643530185 0.3975777916772084 -0.24730589592429836 0.4004022928840678 -0.2543772868523458 -0.48597516183535594 0.05855184106206523
! Port Impedance 100.00000000000000 0.00000000000000 100.00000000000000 0.00000000000000
38813874.0 -0.2737923159524687 0.2707530241551688 0.39733624447158306 -0.2476166479587641 0.4006106678188498 -0.2545314182015614 -0.4860458713057507 0.0585445096915957
! Port Impedance 100.00000000000000 0.00000000000000 100.00000000000000 0.00000000000000
38846820.0 -0.27382601845240817 0.27114384652846224 0.397261657670592 -0.24793849209528843 0.40020661747454034 -0.2547599547019821 -0.4859494925717604 0.058705518641860424
! Port Impedance 100.00000000000000 0.00000000000000 100.00000000000000 0.00000000000000
38879766.0 -0.2735444419975607 0.2710690387824474 0.397250526809115 -0.24832314784172527 0.4002140530591912 -0.2549798620555764 -0.4859624893934598 0.05864664081625476
! Port Impedance 100.00000000000000 0.00000000000000 100.00000000000000 0.00000000000000
38912712.0 -0.27360354551337335 0.27131943737645386 0.39712187948048 -0.24832643957940104 0.40003733195988156 -0.25508970898873295 -0.4860799054914614 0.05842963896897667
! Port Impedance 100.00000000000000 0.00000000000000 100.00000000000000 0.00000000000000
38945658.0 -0.27301033287868126 0.2715349936099722 0.3967271240081895 -0.2485293861356723 0.3997219139853234 -0.25530485369140266 -0.4858224871928343 0.05868929907533048
! Port Impedance 100.00000000000000 0.00000000000000 100.00000000000000 0.00000000000000
38978604.0 -0.2730348241748811 0.2716487453427085 0.3968174869594481 -0.2487753983675274 0.3998192879030522 -0.25545283984914596 -0.4857844977406468 0.05876203324696411
! Port Impedance 100.00000000000000 0.00000000000000 100.00000000000000 0.00000000000000
39011550.0 -0.2726787345282574 0.2718327281135017 0.3964948500328993 -0.24901366347273815 0.3995569739960054 -0.2557872084224698 -0.4859696605540908 0.05867715201725434
! Port Impedance 100.00000000000000 0.00000000000000 100.00000000000000 0.00000000000000
39044496.0 -0.27252560195461684 0.2718768434373634 0.39653457337162307 -0.24908767874184498 0.39955892884731536 -0.2559412817233334 -0.4861650038895143 0.05871960060444252
! Port Impedance 100.00000000000000 0.00000000000000 100.00000000000000 0.00000000000000
39077442.0 -0.2718758504349973 0.27180635937578307 0.39629563479618146 -0.24939579158381725 0.39939718739824265 -0.2562950632430142 -0.48603440372377055 0.05907509749803748
! Port Impedance 100.00000000000000 0.00000000000000 100.00000000000000 0.00000000000000
39110388.0 -0.27184015763640873 0.2721738498416824 0.39624270172852866 -0.2493880749606262 0.39920903867920476 -0.2560093680820974 -0.4858350722988366 0.058889372384135164
! Port Impedance 100.00000000000000 0.00000000000000 100.00000000000000 0.00000000000000
39143334.0 -0.2714099656555119 0.27231249384548145 0.395934463745615 -0.24954165418021249 0.39894269476785915 -0.2563430379254509 -0.48596188127913253 0.05874628364221458
! Port Impedance 100.00000000000000 0.00000000000000 100.00000000000000 0.00000000000000
39176280.0 -0.27182130960425877 0.2723878360493875 0.39626915217909503 -0.24992784836602222 0.3990897193596935 -0.25685559969557686 -0.48612151309514956 0.05890645966264578
! Port Impedance 100.00000000000000 0.00000000000000 100.00000000000000 0.00000000000000
39209226.0 -0.27100994597179495 0.27235206702098447 0.3957046781696977 -0.2500951346249689 0.3987779666919876 -0.25678207553792437 -0.48588669672731194 0.05915241521658149
! Port Impedance 100.00000000000000 0.00000000000000 100.00000000000000 0.00000000000000
39242172.0 -0.27100951391184025 0.272487447743625 0.39580527355024286 -0.25002399695926775 0.3987167013723243 -0.2567098504859121 -0.4858204036837983 0.059168437978754304
! Port Impedance 100.00000000000000 0.00000000000000 100.00000000000000 0.00000000000000
39275118.0 -0.27077413475308726 0.27272653494486987 0.39548184953835747 -0.2505436202231053 0.39855484567951144 -0.2573845201212318 -0.4860642745678072 0.059291749266091376
! Port Impedance 100.00000000000000 0.00000000000000 100.00000000000000 0.00000000000000
39308064.0 -0.2706423740687576 0.2728457366343982 0.39534667126377854 -0.2504583487999387 0.39838662278469966 -0.25727362215355326 -0.4859338627536427 0.05901639948204636
! Port Impedance 100.00000000000000 0.00000000000000 100.00000000000000 0.00000000000000
39341010.0 -0.27045859157353414 0.27290199493500766 0.3953916603070989 -0.2507765803469506 0.3983422447084365 -0.257648736373014 -0.4859838483281121 0.05906625073181433
! Port Impedance 100.00000000000000 0.00000000000000 100.00000000000000 0.00000000000000
39373956.0 -0.2702530082932605 0.2730841607705988 0.3952770564342999 -0.25090593682411666 0.3981152523981538 -0.25789412778653586 -0.48617277855086444 0.05935901596427888
! Port Impedance 100.00000000000000 0.00000000000000 100.00000000000000 0.00000000000000
39406902.0 -0.26983912414824246 0.2729636155597835 0.3951918306381358 -0.2509917106901696 0.39793775498494643 -0.25804191498921647 -0.4860456003402751 0.059489135079579904
! Port Impedance 100.00000000000000 0.00000000000000 100.00000000000000 0.00000000000000
39439848.0 -0.26956153429201923 0.2728666169037418 0.39503417712900796 -0.2510206965153389 0.39795580795073937 -0.2578982198986953 -0.48599311302017223 0.05955161375928969
! Port Impedance 100.00000000000000 0.00000000000000 100.00000000000000 0.00000000000000
39472794.0 -0.2694724642969971 0.2734556608474977 0.3947747300453181 -0.25139354594953084 0.39773693763359586 -0.2582957332432121 -0.48589119109009693 0.05957565733728979
! Port Impedance 100.00000000000000 0.00000000000000 100.00000000000000 0.00000000000000
39505740.0 -0.26898135169101145 0.2734314843787414 0.3946559803532534 -0.2515582552669526 0.39746596054474614 -0.25831177091535373 -0.4859272787678879 0.059296093222074665
! Port Impedance 100.00000000000000 0.00000000000000 100.00000000000000 0.00000000000000
39538686.0 -0.2691116043931725 0.2732932802455924 0.39488661857545415 -0.2517531184929765 0.3974151579797386 -0.25881740317860147 -0.4861255470361858 0.0597414923080201
! Port Impedance 100.00000000000000 0.00000000000000 100.00000000000000 0.00000000000000
39571632.0 -0.2688531523155011 0.2736426449035631 0.3945627496340791 -0.25209662812256195 0.3973009477497938 -0.25891652717182295 -0.4857965691882715 0.05971366836714487
! Port Impedance 100.00000000000000 0.00000000000000 100.00000000000000 0.00000000000000
39604578.0 -0.26811708555035746 0.2733158896719523 0.394298659951453 -0.25206675746836227 0.39727354690937533 -0.25908423550248094 -0.4860801631410158 0.05990720239038169
! Port Impedance 100.00000000000000 0.00000000000000 100.00000000000000 0.00000000000000
39637524.0 -0.268239897864096 0.27409475696650476 0.3943022570860376 -0.2523869587548194 0.39707417401691614 -0.25920366555532887 -0.485769487054402 0.059837572954262716
! Port Impedance 100.00000000000000 0.00000000000000 100.00000000000000 0.00000000000000
39670470.0 -0.2678497182827001 0.27407753042629757 0.3939038028799914 -0.25255289004630105 0.3968824629333152 -0.2593191333490321 -0.4859181464484193 0.059619767565257914
! Port Impedance 100.00000000000000 0.00000000000000 100.00000000000000 0.00000000000000
39703416.0 -0.2679991297771083 0.27413862835629005 0.394162778107013 -0.25270175762183444 0.3969784545318299 -0.2597271979015442 -0.4862086573074367 0.05986544084258333
! Port Impedance 100.00000000000000 0.00000000000000 100.00000000000000 0.00000000000000
39736362.0 -0.2676139146989279 0.274238063449796 0.3939757966903593 -0.2530298940642326 0.39660595684045363 -0.2597739964694463 -0.4857599911099887 0.05996103598222462
! Port Impedance 100.00000000000000 0.00000000000000 100.00000000000000 0.00000000000000
39769308.0 -0.26689784881810363 0.2740228697643887 0.39357809336662325 -0.25299753245128737 0.39669587951087143 -0.2599045154240232 -0.4860026329413128 0.05999072105760439
! Port Impedance 100.00000000000000 0.00000000000000 100.00000000000000 0.00000000000000
39802254.0 -0.2671127177590974 0.27473683977168206 0.39369568030983704 -0.2536601860960477 0.3964247307466829 -0.2605711953769002 -0.48611692972066045 0.06019407469490598
! Port Impedance 100.00000000000000 0.00000000000000 100.00000000000000 0.00000000000000
39835200.0 -0.26688741694447593 0.27462893808078975 0.3934023474514446 -0.2533988503935432 0.3963319876747313 -0.26024552549054975 -0.48606728497587354 0.05979392022515694
! Port Impedance 100.00000000000000 0.00000000000000 100.00000000000000 0.00000000000000
39868146.0 -0.2668442287368427 0.27486478796455055 0.39353813888406813 -0.25372927294141473 0.39617643590048085 -0.260852909762322 -0.4863084913993084 0.06028967249339237
! Port Impedance 100.00000000000000 0.00000000000000 100.00000000000000 0.00000000000000
39901092.0 -0.26643135297896026 0.274800567929101 0.39323029460626463 -0.2538926257055235 0.3958674975644263 -0.2607365288579051 -0.48574800968306897 0.0602862856703347
! Port Impedance 100.00000000000000 0.00000000000000 100.00000000000000 0.00000000000000
39934038.0 -0.26606379718012724 0.27467229739452315 0.3931053418290046 -0.2539872192436491 0.39595976941325617 -0.26073679889818235 -0.48595049237932875 0.060291725173261285
! Port Impedance 100.00000000000000 0.00000000000000 100.00000000000000 0.00000000000000
39966984.0 -0.26593703845757466 0.2750635330669741 0.3930209618473218 -0.2543656585617629 0.39576109362430323 -0.2611974414411808 -0.4860208770414633 0.060339657399056355
! Port Impedance 100.00000000000000 0.00000000000000 100.00000000000000 0.00000000000000
39999930.0 -0.2654547008597715 0.27523443882153165 0.39263013039432365 -0.2545439571569478 0.39543195386273366 -0.2612760671733521 -0.4859404910126863 0.060248564256422985
! Port Impedance 100.00000000000000 0.00000000000000 100.00000000000000 0.00000000000000
