! TOUCHSTONE file generated by CST DESIGN STUDIO
! Date and time: Tue May 12 12:09:16 2026
! Project name: C:\sim_local\10base-t1m\passive_node_simulations_nostub.cst
! Tree item: Tasks\SPara1\S-Parameters
! Header version: 2024
! Port assignment regex: !\s*Touchstone port\s*([0-9]+)\s*=\s*(CST MWS port|CST DES external port|CST DES block port)\s*(.+)\s* \(\"(.*)\"\)(\s*mode\s*([0-9]+))?.*
! Touchstone port assignment:
! Touchstone port 1 = CST DES external port 1 ("PHY")
! Touchstone port 2 = CST DES external port 2 ("MDI")
# MHz S MA R 100
0.3                  0.213621707      110.271463       0.92921479      -159.57858      0.929270572     -159.576513      0.259761109      97.4307517
0.301593713          0.212506393      110.063955      0.929602674      -159.69051      0.929665758     -159.688765      0.258398929      97.3103102
0.303195893          0.211397082      109.857005      0.929985208     -159.801862      0.930055645     -159.800443      0.257044224      97.1902009
0.304806585           0.21029374      109.650604       0.93036243     -159.912642       0.93044027     -159.911549      0.255696956      97.0704197
0.306425833          0.209196333      109.444746      0.930734371     -160.022854      0.930819666     -160.022088       0.25435709      96.9509632
0.308053682          0.208105137      109.238111      0.931111939     -160.132297      0.931196975     -160.131713       0.25302989      96.8295015
0.30969018           0.207020094      109.031023      0.931492477     -160.241027      0.931571586     -160.240516      0.251713849       96.706598
0.311335372          0.205940961      108.824424      0.931868168     -160.349193       0.93194132     -160.348757      0.250405061       96.583926
0.312989303          0.204867706      108.618307      0.932239044       -160.4568      0.932306212     -160.456439      0.249103488       96.461481
0.31465202           0.203799659      108.412856      0.932603077     -160.563856       0.93266694     -160.563617      0.247805043      96.3392392
0.316323571          0.202735602      108.208433      0.932956443     -160.670369      0.933024761     -160.670392      0.246502055      96.2171711
0.318004001          0.201677329       108.00449      0.933305073     -160.776334      0.933377872      -160.77662      0.245206059      96.0953333
0.319693359          0.200624808      107.801019      0.933648999     -160.881754      0.933726305     -160.882305      0.243917017      95.9737216
0.321391691          0.199578175      107.597999      0.933988564     -160.986646      0.934070324     -160.987448      0.242635416      95.8523526
0.323099045          0.198541906      107.395022      0.934332168     -161.091299      0.934416224     -161.091977       0.24137512      95.7317702
0.32481547           0.197511324      107.192507      0.934671352     -161.195415      0.934757709     -161.195969      0.240121786      95.6113956
0.326541012          0.196486396      106.990447      0.935006147     -161.298999      0.935094813     -161.299428      0.238875379      95.4912244
0.328275722          0.195467089      106.788836      0.935336586     -161.402054      0.935427565     -161.402358      0.237635865      95.3712524
0.330019646          0.194447154      106.589199      0.935668044     -161.504688      0.935753447      -161.50474      0.236397502      95.2531737
0.331772836          0.193432055       106.39018      0.935995809     -161.606808      0.936074764     -161.606596      0.235165349      95.1355025
0.333535338          0.192422415      106.191611      0.936319347     -161.708407      0.936391816     -161.707931      0.233939976      95.0180577
0.335307204          0.191418203      105.993486      0.936638688      -161.80949      0.936704631     -161.808748      0.232721346      94.9008353
0.337088483          0.190424482        105.7922      0.936952433     -161.909355      0.937016971     -161.908685      0.231512024      94.7827408
0.338879225          0.189437075      105.590708      0.937261857     -162.008594      0.937325818     -162.008049      0.230309789      94.6646636
0.340679479          0.188455145      105.389575      0.937567222     -162.107321      0.937630607     -162.106903      0.229114191      94.5467732
0.342489297          0.187478661      105.188793      0.937868556     -162.205542      0.937931367      -162.20525      0.227925196      94.4290655
0.34430873           0.186502562      104.988683       0.93817664     -162.303678      0.938232966     -162.303421      0.226730409      94.3130855
0.346137828          0.185531247      104.788952      0.938481966     -162.401358       0.93853114     -162.401127      0.225540786      94.1974865
0.347976643          0.184565215      104.589559      0.938783427     -162.498541      0.938825405     -162.498334        0.2243576      94.0821033
0.349825227          0.183604851      104.390606       0.93908077     -162.595203      0.939115652     -162.595029      0.223181202      93.9668112
0.351683631          0.182664337      104.195919      0.939364473     -162.690411      0.939397284     -162.690548      0.222024792      93.8474105
0.353551907          0.181729113      104.001628      0.939644423     -162.785127      0.939675144     -162.785576      0.220874735      93.7281247
0.355430109          0.180799149      103.807728      0.939920643     -162.879355      0.939949259     -162.880117      0.219730999      93.6089494
0.357318288          0.179871557      103.613818      0.940196789     -162.973211      0.940223295     -162.974112      0.218594886      93.4900774
0.359216498          0.178939514      103.418934      0.940481537     -163.066968      0.940505968     -163.067416       0.21746954      93.3719747
0.361124792          0.178012552      103.224375      0.940762792     -163.160245      0.940785141     -163.160238       0.21635047      93.2539788
0.363043223          0.177090642      103.030132      0.941040578     -163.253046      0.941060839     -163.252582      0.215237642      93.1360857
0.364971846          0.176180919      102.838941      0.941313975     -163.345864      0.941333105     -163.344956      0.214124514      93.0197302
0.366910715          0.175283166       102.65083      0.941583002     -163.438695      0.941601934     -163.437354      0.213011168      92.9049214
0.368859883          0.174390349      102.463146      0.941848597     -163.531065      0.941867323     -163.529287      0.211903926      92.7902651
0.370819407          0.173502441      102.275885      0.942110783     -163.622977      0.942129295      -163.62076      0.210802753       92.675758
0.37278934            0.17260768       102.08324      0.942376247     -163.712773      0.942383627     -163.711064      0.209710935      92.5606552
0.374769738          0.171715852      101.889882      0.942639582     -163.801822      0.942633908     -163.800785        0.2086257      92.4455514
0.376760656          0.170828931       101.69678      0.942899687     -163.890408      0.942880885     -163.890047      0.207546454      92.3305675
0.378762151          0.169948154      101.505705      0.943151235     -163.978771      0.943123678     -163.978988      0.206473664      92.2160684
0.380774279          0.169075582      101.319711      0.943385257     -164.067306      0.943360809     -164.067839      0.205408148      92.1026803
0.382797096          0.168207798       101.13409      0.943616036     -164.155392      0.943594714      -164.15624      0.204348556       91.989423
0.384830659          0.167344774      100.948836      0.943843592     -164.243029      0.943825415     -164.244197      0.203294859      91.8762932
0.386875025            0.1664884      100.761524       0.94407685     -164.330178       0.94406146     -164.331183      0.202247497      91.7600127
0.388930252          0.165637376      100.573742      0.944309873     -164.416872       0.94429715     -164.417559      0.201206072      91.6427389
0.390996396          0.164791065      100.386253      0.944539839     -164.503128      0.944529778     -164.503496      0.200170399       91.525509
0.393073517          0.163948929      100.199095      0.944766488     -164.588795      0.944758308     -164.588954      0.199137805      91.4097837
0.395161672          0.163110306      100.012321      0.944989487     -164.673677      0.944981429     -164.673877      0.198104908      91.2974767
0.39726092           0.162276339      99.8258209      0.945209486     -164.758124      0.945201568     -164.758364      0.197077675      91.1852909
0.399371321          0.161447001      99.6395899      0.945426502      -164.84214      0.945418745      -164.84242      0.196056075      91.0732232
0.401492932          0.160638839      99.4538449      0.945646048     -164.925099      0.945631321     -164.925991       0.19504315      90.9596619
0.403625815           0.15983686       99.268407      0.945863241     -165.007572      0.945840833     -165.009131      0.194036079      90.8460362
0.405770028          0.159039544      99.0832518      0.946077605     -165.089618       0.94604745     -165.091846      0.193034554      90.7324869
0.407925631          0.158228192       98.896995      0.946293729      -165.17228      0.946259855     -165.174019      0.192042274      90.6203975
0.410092687          0.157408177      98.7099772      0.946510314     -165.255257      0.946475591     -165.255685      0.191058151      90.5093782
0.412271254           0.15659255      98.5231437       0.94672418     -165.337821      0.946688618     -165.336934      0.190079554      90.3984591
0.414461395          0.155781286      98.3364878      0.946935343     -165.419976      0.946898955     -165.417767      0.189106453      90.2876371
0.416663171          0.154989811      98.1542668      0.947140416      -165.50078      0.947102225     -165.498507      0.188133481      90.1734886
0.418876643          0.154207602       97.973668      0.947341765     -165.580876      0.947301446      -165.57894       0.18716418      90.0582906
0.421101874          0.153429762      97.7933542      0.947540484     -165.660564       0.94749802     -165.658967      0.186200199      89.9431123
0.423338927          0.152656267      97.6133202      0.947736591     -165.739848      0.947691965     -165.738592       0.18524151      89.8279499
0.425587863           0.15188594      97.4327346      0.947928805     -165.818691       0.94788288     -165.817723      0.184287378      89.7123031
0.427848747          0.151117685      97.2507763      0.948115905     -165.897058      0.948070401     -165.896273      0.183337081        89.59568
0.430121641          0.150353735      97.0690399      0.948300439     -165.975028      0.948255363     -165.974426      0.182391965      89.4790395
0.43240661           0.149594068        96.88752      0.948482424     -166.052602      0.948437782     -166.052186      0.181452004      89.3623777
0.434703718          0.148838696      96.7062213      0.948662021     -166.129788      0.948617835     -166.129548      0.180517493      89.2457434
0.437013028          0.148089508      96.5256607      0.948846951     -166.206754      0.948804057     -166.206248      0.179605264       89.131891
0.439334607           0.14734452      96.3453114      0.949029493     -166.283331      0.948987896     -166.282558      0.178698241      89.0180389
0.441668518           0.14660371      96.1651679      0.949209663     -166.359521      0.949169365      -166.35848      0.177796399      88.9041837
0.444014829          0.145867055       95.985225      0.949387476     -166.435329       0.94934848     -166.434018       0.17689971      88.7903218
0.446373603          0.145118767       95.805359      0.949559888     -166.510112      0.949517559     -166.508904      0.175999733      88.6787472
0.448744909          0.144370472      95.6256127       0.94972917     -166.584346      0.949682294     -166.583337       0.17510265      88.5678015
0.451128812          0.143626199      95.4460064      0.949896121     -166.658198      0.949844677     -166.657388        0.1742106      88.4568956
0.453525378          0.142885928      95.2665338      0.950060755      -166.73167      0.950004721     -166.731061      0.173323556       88.346027
0.455934677          0.142166413      95.0862308      0.950228834     -166.804946      0.950177143     -166.804353      0.172434639      88.2310866
0.458356774          0.141459436      94.9055883      0.950397602      -166.87794      0.950354817     -166.877268      0.171547119      88.1140244
0.460791739          0.140756512      94.7250899      0.950564182     -166.950563       0.95053035     -166.949812      0.170664418      87.9968967
0.463239639          0.140057619      94.5447304      0.950728587     -167.022818      0.950703756     -167.021988       0.16978651      87.8796998
0.465700543          0.139360162      94.3618183      0.950885474     -167.095149      0.950864305     -167.094439      0.168913319      87.7680124
0.46817452            0.13866517      94.1773627      0.951036917     -167.167384       0.95101614     -167.166918       0.16804489      87.6597645
0.470661641          0.137974197      93.9929839      0.951186182     -167.239258      0.951165792     -167.239038      0.167181242       87.551585
0.473161973          0.137287222       93.808676      0.951333281     -167.310774      0.951313273       -167.3108       0.16632235      87.4434718
0.475675589          0.136605812      93.6286821      0.951488923     -167.381514      0.951467181      -167.38169      0.165470432      87.3294974
0.478202557          0.135929095      93.4509665      0.951647945     -167.451687      0.951623382     -167.451964      0.164624322      87.2124636
0.48074295            0.13525623      93.2733884      0.951804967     -167.521508      0.951777563     -167.521884      0.163782854      87.0953402
0.483296839          0.134587199      93.0959429      0.951960002     -167.590979      0.951929738     -167.591455      0.162946002      86.9781235
0.485864294          0.133916859      92.9192359      0.952114127     -167.660935      0.952079524     -167.661446      0.162122474      86.8669107
0.488445389          0.133248878      92.7428384      0.952266631      -167.73077      0.952227278       -167.7313       0.16130597       86.757348
0.491040196          0.132584608      92.5665837      0.952417245     -167.800264      0.952373123     -167.800812      0.160494125      86.6478003
0.493648787          0.131924031      92.3904672       0.95256598     -167.869418      0.952517073     -167.869985      0.159686915      86.5382652
0.496271236          0.131273492      92.2144256      0.952704299     -167.936856      0.952654792     -167.937121       0.15888727      86.4250552
0.498907617          0.130626761      92.0384986      0.952840624     -168.003937      0.952790564     -168.003895      0.158092241      86.3117514
0.501558003          0.129983751      91.8626821      0.952975059     -168.070678      0.952924449     -168.070327      0.157301771      86.1983907
0.504222469           0.12934363      91.6878952      0.953111114     -168.137171      0.953059558     -168.136725       0.15651365      86.0843565
0.506901089          0.128704896      91.5157939      0.953255026     -168.203574      0.953201415     -168.203633      0.155723967      85.9685475
0.509593939          0.128069729      91.3438486      0.953397201     -168.269644      0.953341515     -168.270211      0.154938715      85.8526413
0.512301095          0.127438111       91.172055      0.953537649     -168.335384      0.953479868     -168.336463      0.154157869      85.7366346
0.515022632          0.126806252      90.9944015      0.953668358     -168.400326      0.953610464     -168.401516      0.153374271      85.6185245
0.517758627          0.126175643      90.8129832       0.95379226     -168.464646      0.953735513     -168.465693      0.152590495      85.4990169
0.520509157          0.125548654      90.6315262      0.953914378     -168.528638      0.953858785     -168.529542      0.151810973      85.3793523
0.523274299          0.124925471      90.4503094      0.954034858     -168.592333      0.953980268     -168.593095      0.151036102      85.2598152
0.52605413           0.124311887       90.277587      0.954157667     -168.656532      0.954099317     -168.657195      0.150277872      85.1487446
0.528848728          0.123701789      90.1049778      0.954278781     -168.720411      0.954216652     -168.720975      0.149523945      85.0376416
0.531658173          0.123095158      89.9324777      0.954398211     -168.783973      0.954332286     -168.784436      0.148774297       84.926504
0.534482542          0.122493909      89.7596788      0.954518382     -168.847014      0.954451622     -168.847284      0.148027575      84.8135807
0.537321915          0.121897914      89.5865929      0.954639185     -168.909548      0.954574376     -168.909539      0.147283823      84.6989461
0.540176373          0.121305355      89.4135899      0.954758386     -168.971768      0.954695539     -168.971479      0.146544256      84.5842175
0.543045994          0.120715951      89.2406128       0.95487561     -169.033688      0.954815223     -169.033125      0.145808971      84.4693285
0.54593086           0.120126231      89.0669559       0.95498581     -169.095475      0.954934791     -169.094739      0.145079491      84.3534319
0.548831051          0.119539883      88.8933567      0.955094417     -169.156954      0.955052823     -169.156045      0.144354139      84.2374168
0.551746649          0.118956888      88.7198109      0.955201441     -169.218128      0.955169326     -169.217045      0.143632894      84.1212802
0.554677736          0.118368485      88.5464791      0.955306569     -169.279092      0.955273133     -169.278107      0.142917627      84.0042458
0.557624394          0.117779179      88.3732602      0.955409997     -169.339799      0.955370027     -169.339043      0.142207339      83.8866984
0.560586706          0.117193118      88.2000691       0.95551189     -169.400206      0.955465341     -169.399682      0.141501107      83.7690012
0.563564754          0.116620013      88.0257387      0.955620293     -169.460697      0.955570135     -169.460164       0.14079383      83.6529117
0.566558623           0.11606845      87.8492583      0.955742352     -169.521608      0.955694242     -169.520614       0.14008098      83.5400307
0.569568397          0.115520188      87.6728131      0.955863025     -169.582229      0.955816978     -169.580772      0.139372054      83.4270786
0.57259416            0.11497521      87.4963996      0.955982322     -169.642562      0.955938352      -169.64064      0.138667032      83.3140534
0.575635997          0.114427996      87.3204905      0.956095065       -169.7018      0.956047479      -169.69975      0.137971248      83.1999659
0.578693993          0.113878952      87.1450245      0.956201635     -169.760001      0.956145136     -169.758135       0.13728431      83.0848637
0.581768234          0.113333136      86.9695512      0.956306815     -169.817913      0.956241361     -169.816232      0.136601269      82.9696468
0.584858807          0.112790534      86.7940667      0.956410613     -169.875538       0.95633616     -169.874041      0.135922105      82.8543128
0.587965798          0.112250374      86.6190712      0.956512574     -169.932874      0.956430345     -169.931567      0.135247173      82.7386199
0.591089295          0.111706463      86.4486872      0.956608981     -169.989907      0.956530504     -169.988831      0.134579509      82.6206008
0.594229385           0.11116563      86.2783409      0.956704052     -170.046656      0.956629346     -170.045813      0.133915677      82.5024181
0.597386156          0.110627857      86.1080286      0.956797796     -170.103123       0.95672688     -170.102515       0.13325566      82.3840688
0.600559698          0.110093129      85.9377469      0.956890218     -170.159311      0.956823112     -170.158939      0.132599438      82.2655502
0.603750098          0.109564269      85.7659645      0.956985778     -170.215317      0.956914041     -170.215107      0.131940755      82.1479557
0.606957447          0.109039264      85.5937557      0.957081336     -170.271075      0.957002519     -170.271007      0.131284016      82.0305202
0.610181834          0.108517297      85.4215499      0.957175638     -170.326558      0.957089691     -170.326633      0.130630971       81.912932
0.613423351           0.10799835      85.2493435      0.957268691     -170.381769      0.957175564     -170.381989      0.129981602      81.7951885
0.616682088          0.107480699      85.0747852      0.957355775     -170.436483      0.957262143     -170.436883       0.12933992      81.6741055
0.619958136          0.106964697      84.8982816      0.957437816     -170.490746      0.957349092     -170.491355      0.128705132      81.5502414
0.623251589          0.106451709      84.7216941      0.957518606     -170.544739      0.957434831     -170.545556      0.128073998      81.4261224
0.626562537          0.105941717      84.5450187      0.957598149     -170.598463      0.957519368      -170.59949        0.1274465       81.301745
0.629891074          0.105438406      84.3690411       0.95768108     -170.652004      0.957604591     -170.653009      0.126823535      81.1812324
0.633237294          0.104943092      84.1940712      0.957769118     -170.705395      0.957691193     -170.706061       0.12620543      81.0661638
0.63660129           0.104450745      84.0190459      0.957856005     -170.758522       0.95777663     -170.758848      0.125590929       80.950979
0.639983157          0.103961351      83.8439616      0.957941748     -170.811387      0.957860907     -170.811371      0.124980015      80.8356762
0.643382989          0.103472534      83.6717957      0.958027067     -170.864171      0.957947084     -170.863916      0.124365429      80.7180938
0.646800883          0.102982737      83.5044686      0.958112417      -170.91699      0.958037092     -170.916663      0.123742585      80.5968332
0.650236934          0.102495729      83.3371839      0.958196654     -170.969554       0.95812601     -170.969155      0.123123159      80.4753635
0.653691238          0.102011494      83.1699391      0.958279785     -171.021865      0.958213843     -171.021393      0.122507133      80.3536817
0.657163894          0.101530021      82.9982942      0.958362266     -171.073755       0.95829673     -171.073288      0.121899885      80.2334701
0.660654997          0.101051373      82.8205464      0.958444291     -171.125161      0.958373282     -171.124806       0.12130338      80.1153727
0.664164646          0.100575563      82.6426737      0.958525264     -171.176315      0.958448752     -171.176074      0.120710298      79.9971164
0.66769294           0.100102578       82.464672      0.958605192      -171.22722      0.958523145     -171.227092      0.120120621       79.878699
0.671239977          0.099633613      82.2895817      0.958680456     -171.278045      0.958592573     -171.278073      0.119538449       79.757108
0.674805858         0.0991684215       82.116947       0.95875168     -171.328765      0.958657706     -171.328984      0.118963078      79.6327999
0.678390682         0.0987059846      81.9442734      0.958821859     -171.379242      0.958721764     -171.379653      0.118391102      79.5082389
0.68199455          0.0982462882      81.7715583      0.958890997     -171.429477      0.958784752     -171.430082      0.117822504      79.3834225
0.685617563         0.0977938183      81.5997019      0.958969595     -171.479691      0.958867126     -171.479802      0.117247738       79.263259
0.689259823         0.0973455541      81.4281193      0.959050739      -171.52974      0.958955409     -171.529125      0.116673068      79.1445663
0.692921432         0.0968999745      81.2565087      0.959130933     -171.579552      0.959042783     -171.578207      0.116101654       79.025712
0.696602492         0.0964572309      81.0847119      0.959209893     -171.629115      0.959128603     -171.627068      0.115533698      78.9066219
0.700303108         0.0960234177      80.9069809      0.959276986     -171.677929      0.959188969     -171.676341      0.114977137      78.7846145
0.704023383         0.0955923689      80.7291617      0.959343112      -171.72651      0.959248322     -171.725381      0.114423829       78.662397
0.707763422         0.0951640713       80.551252      0.959408277     -171.774857      0.959306667     -171.774189      0.113873759      78.5399674
0.711523329         0.0947332331      80.3734213      0.959474052     -171.822887       0.95936982     -171.822443      0.113324204      78.4180946
0.71530321          0.0942962444      80.1957459      0.959541511     -171.870541      0.959441752     -171.869923      0.112773303      78.2973152
0.719103171         0.0938618827      80.0179194      0.959608049     -171.917963      0.959512796     -171.917171       0.11222555      78.1763492
0.722923319         0.0934301351      79.8399386      0.959673671     -171.965156      0.959582956     -171.964189      0.111680929      78.0551949
0.726763761         0.0929972823      79.6638656      0.959742447     -172.012633      0.959645088      -172.01186      0.111144664      77.9321844
0.730624605         0.0925659963      79.4882111      0.959811433     -172.060019      0.959704442     -172.059539      0.110612907      77.8085172
0.73450596          0.0921372296      79.3124354      0.959879577     -172.107183      0.959762892     -172.106998      0.110084273      77.6846248
0.738407933         0.0917127372      79.1387271      0.959946019     -172.153865      0.959822316     -172.153953      0.109560735      77.5609017
0.742330636         0.0912953426       78.970686      0.960009363     -172.199641       0.95988577     -172.199942      0.109045504      77.4379999
0.746274177         0.0908804115      78.8026318      0.960071858     -172.245195      0.959948385     -172.245709      0.108533388      77.3148905
0.750238667         0.0904679309      78.6345626      0.960133509     -172.290529      0.960010165     -172.291256      0.108024371      77.1915722
0.754224219         0.0900695483      78.4610699      0.960194813     -172.335952      0.960080395      -172.33633      0.107503442      77.0578559
0.758230943         0.0896761574      78.2863746      0.960255391     -172.381224      0.960151814     -172.381132      0.106982341      76.9216035
0.762258953         0.0892852985      78.1116106      0.960315143     -172.426281      0.960222476     -172.425718      0.106464207      76.7849419
0.766308361         0.0888892822      77.9362904      0.960374974     -172.471312      0.960283874     -172.470511       0.10595522      76.6557108
0.770379281         0.0884858164      77.7602322      0.960435183     -172.516371      0.960333482     -172.515637      0.105457202      76.5363759
0.774471827         0.0880847653      77.5840449      0.960494626     -172.561219      0.960382253     -172.560554      0.104962167      76.4169007
0.778586114         0.0876851925       77.407308      0.960552543     -172.605769      0.960430345     -172.605176      0.104468583      76.2957155
0.782722258         0.0872803365      77.2269094      0.960603336     -172.649368      0.960478895     -172.648885      0.103965312      76.1612326
0.786880375          0.086877864       77.046274      0.960653321     -172.692758      0.960526628     -172.692384      0.103464918      76.0263797
0.791060581         0.0864777634      76.8653982      0.960702502     -172.735939      0.960573546     -172.735675      0.102967386      75.8911536
0.795262994         0.0860842829       76.686534        0.9607548     -172.779146      0.960620132      -172.77886      0.102475477       75.758122
0.799487732         0.0857041013      76.5133364      0.960816446     -172.822746      0.960667163     -172.822095      0.101993562      75.6314134
0.803734913         0.0853262519      76.3400677      0.960877404     -172.866144      0.960713425     -172.865127      0.101514508      75.5044669
0.808004657         0.0849507226      76.1667265      0.960937677     -172.909342       0.96075892     -172.907957      0.101038301      75.3772811
0.812297083         0.0845775016      75.9933114       0.96099727     -172.952341      0.960803652     -172.950586      0.100564927      75.2498545
0.816612313         0.0842009038      75.8217036       0.96104419     -172.994841      0.960856706      -172.99329      0.100090366      75.1238138
0.820950466         0.0838256125      75.6503389      0.961088401     -173.037094      0.960910566     -173.035841     0.0996179241      74.9978226
0.825311666         0.0834525468      75.4789065      0.961131878     -173.079149      0.960963747     -173.078197     0.0991482444      74.8716133
0.829696034         0.0830816951       75.307405      0.961174622     -173.121007      0.961016251     -173.120359     0.0986813132      74.7451848
0.834103693         0.0827139704      75.1322106      0.961219618     -173.162694      0.961069194     -173.162156       0.09822035      74.6139122
0.838534767         0.0823492735       74.953769      0.961266477     -173.204208      0.961122443     -173.203614     0.0977649143      74.4783607
0.842989381         0.0819868138      74.7751603       0.96131266      -173.24553       0.96117505      -173.24488     0.0973122336      74.3424613
0.847467659         0.0816265804      74.5963825      0.961358169     -173.286661       0.96122702     -173.285955     0.0968622948      74.2062115
0.851969728         0.0812742421       74.418223      0.961406431     -173.327492      0.961276938     -173.326787     0.0964124985      74.0704154
0.856495714         0.0809364984      74.2416701      0.961461504     -173.367889      0.961323136     -173.367314     0.0959597662      73.9360366
0.861045743         0.0806010258      74.0650426      0.961515981     -173.408097      0.961368688     -173.407652     0.0955096857      73.8013329
0.865619944         0.0802678134      73.8883401      0.961569865     -173.448118      0.961413597     -173.447803     0.0950622439      73.6663022
0.870218444         0.0799323161      73.7100388       0.96162085     -173.488083      0.961459004     -173.487818     0.0946195895      73.5317968
0.874841374         0.0795789511      73.5248002      0.961660999     -173.528444       0.96150884     -173.527871     0.0941891466      73.4007874
0.879488862         0.0792277446      73.3392826      0.961700512     -173.568623      0.961558097     -173.567741     0.0937613594      73.2695239
0.88416104          0.0788786861      73.1534829      0.961739394     -173.608623      0.961606779      -173.60743     0.0933362152      73.1380056
0.888858037         0.0785344307      72.9683312      0.961779205     -173.648375      0.961654072     -173.646892     0.0929121557      73.0062507
0.893579988         0.0782084507       72.788625      0.961827859     -173.687531       0.96169584     -173.685884      0.092481334      72.8743516
0.898327022          0.077884641      72.6087919      0.961875956     -173.726508      0.961737012     -173.724696     0.0920530559       72.742188
0.903099275         0.0775629912      72.4288315      0.961923497     -173.765306      0.961777589     -173.763328     0.0916273088      72.6097587
0.90789688          0.0772416209      72.2518976      0.961969218     -173.804011      0.961816907     -173.802025     0.0912041397      72.4758552
0.912719972         0.0769139926      72.0889473       0.96200875     -173.842909      0.961852674     -173.841621     0.0907837514      72.3362739
0.917568686         0.0765883128      71.9260847      0.962047709     -173.881635      0.961887845      -173.88105     0.0903658728      72.1963267
0.922443158         0.0762645702      71.7633107      0.962086097     -173.920191      0.961922424     -173.920311      0.089950492      72.0560116
0.927343525         0.0759440337      71.5915293      0.962122857     -173.958627      0.961956965     -173.959103     0.0895378483      71.9201771
0.932269924         0.0756284518      71.3991118       0.96215666     -173.997008      0.961992172     -173.997039     0.0891282244      71.7950368
0.937222495         0.0753150181      71.2063897      0.962189891     -174.035221       0.96202681     -174.034806      0.088721031      71.6697571
0.942201375         0.0750037233      71.0133615      0.962222553     -174.073267      0.962060882     -174.072403     0.0883162551      71.5443383
0.947206705         0.0746946964      70.8308207      0.962256375     -174.110726      0.962098079     -174.109453     0.0879125639      71.4096935
0.952238626         0.0743878102      70.6585761      0.962291314     -174.147613      0.962138306     -174.145967     0.0875100138       71.265957
0.957297277         0.0740828849      70.4862951      0.962325715     -174.184332      0.962178026     -174.182312     0.0871098718      71.1218165
0.962382803         0.0737799099      70.3139782      0.962359579     -174.220887      0.962217243     -174.218488     0.0867121265      70.9772697
0.967495344         0.0734656418      70.1374056      0.962396164     -174.257489      0.962251657     -174.255285     0.0863284157      70.8406469
0.972635045         0.0731496457      69.9595293      0.962433145     -174.293986       0.96228439     -174.292134     0.0859502994      70.7060364
0.977802051         0.0728355097      69.7814831      0.962469643     -174.330321      0.962316615     -174.328824     0.0855745984      70.5711869
0.982996505         0.0725263006      69.6025329      0.962506257     -174.366432      0.962349189     -174.365264     0.0852004682      70.4350049
0.988218554          0.072238816      69.4187067      0.962546243     -174.401972      0.962386778     -174.400959     0.0848233639      70.2914813
0.993468345         0.0719533237      69.2347245      0.962585779     -174.437351      0.962423904     -174.436494     0.0844486271      70.1475943
0.998746025         0.0716698141      69.0505863      0.962624865      -174.47257       0.96246057      -174.47187     0.0840762466      70.0033429
1.00405174          0.0713772903      68.8643165       0.96265695     -174.508293      0.962493952     -174.507386     0.0836971111      69.8615824
1.00938564          0.0710777614      68.6761958      0.962683228     -174.544402      0.962524567     -174.542988     0.0833128515      69.7218113
1.01474788          0.0707801076      68.4877977      0.962709001      -174.58036      0.962554702     -174.578436     0.0829308104      69.5817245
1.02013861          0.0704849906       68.299373      0.962734807     -174.616116      0.962584461     -174.613714     0.0825517607      69.4413526
1.02555797          0.0702092467      68.1173299      0.962774092     -174.650363      0.962616398     -174.648403     0.0821954215      69.3015138
1.03100612          0.0699354002      67.9351626      0.962812967     -174.684455      0.962647884     -174.682938     0.0818413797      69.1613979
1.03648322          0.0696634418      67.7528717      0.962851435     -174.718392      0.962678921     -174.717322     0.0814896245      69.0210049
1.04198941          0.0693949559      67.5668129      0.962882509     -174.752074      0.962709008     -174.751362     0.0811271596      68.8739516
1.04752485           0.069129523      67.3780023      0.962908188     -174.785531      0.962738292     -174.785114     0.0807577124      68.7219575
1.0530897           0.0688660225      67.1890033        0.9629334     -174.818836      0.962767129     -174.818716     0.0803904337       68.569493
1.05868411          0.0685992619      67.0036962      0.962958941     -174.852164      0.962797453     -174.852267     0.0800294407      68.4181271
1.06430824          0.0683130799      66.8341272      0.962987281     -174.886053      0.962835256     -174.886075     0.0796874981      68.2727911
1.06996225          0.0680285121      66.6645171      0.963015211     -174.919797      0.962872691     -174.919737     0.0793477796      68.1271296
1.07564629          0.0677455486       66.494866      0.963042732     -174.953396       0.96290976     -174.953255     0.0790102747      67.9811426
1.08136053           0.067479989       66.306784      0.963070733     -174.987294      0.962940112       -174.9867     0.0786668327      67.8410992
1.08710513           0.067218653      66.1156745      0.963098459      -175.02112      0.962969102     -175.020013     0.0783242719      67.7017693
1.09288024          0.0669591319      65.9243352      0.963125776     -175.054807      0.962997699     -175.053185     0.0779838206      67.5622007
1.09868603          0.0667014483      65.7333561      0.963152998     -175.088333       0.96302593     -175.086214     0.0776453361      67.4221578
1.10452267          0.0664462552      65.5564528      0.963187324     -175.121162      0.963054328     -175.119042     0.0773057668      67.2761451
1.11039031          0.0661927551      65.3795115      0.963221295     -175.153851      0.963082343     -175.151731     0.0769682735      67.1298045
1.11628912          0.0659409391      65.2025335      0.963254913     -175.186402      0.963109977     -175.184282     0.0766328459      66.9831353
1.12221927          0.0656907979      65.0255203      0.963288181     -175.218816       0.96313723     -175.216695     0.0762994735      66.8361372
1.12818093          0.0654419154      64.8428863      0.963315784     -175.251298      0.963163932     -175.249064     0.0759753663      66.7006448
1.13417425          0.0651944858      64.6566842      0.963339747      -175.28377      0.963190166     -175.281354     0.0756577505      66.5723497
1.14019941          0.0649487623      64.4703371      0.963363345      -175.31611      0.963216043      -175.31351     0.0753421664      66.4440132
1.14625659          0.0647047364      64.2838459      0.963386579     -175.348318      0.963241566     -175.345533      0.075028603      66.3156379
1.15234593          0.0644605026      64.0985841        0.9634086     -175.380483      0.963265672     -175.377626     0.0747124766       66.178593
1.15846763          0.0642134477       63.916431      0.963428248     -175.412729      0.963286911     -175.410066     0.0743876064      66.0209442
1.16462185          0.0639679979      63.7341744      0.963447511     -175.444848      0.963307773     -175.442381      0.074064733        65.86283
1.17080876          0.0637241443      63.5518151       0.96346639     -175.476841       0.96332826     -175.474571     0.0737438471      65.7042488
1.17702854          0.0634825295      63.3694922      0.963485854     -175.508613      0.963349613     -175.506585     0.0734260283      65.5454458
1.18328136          0.0632505247       63.188795      0.963516883     -175.539082      0.963385921     -175.537822     0.0731236176      65.3892535
1.1895674           0.0630201226      63.0080421      0.963547618      -175.56942      0.963421962     -175.568934     0.0728232326      65.2326701
1.19588683          0.0627913146      62.8272351      0.963578062      -175.59963      0.963457738      -175.59992     0.0725248643      65.0756954
1.20223983          0.0625640923      62.6463759      0.963608217      -175.62971      0.963493251     -175.630782     0.0722285034      64.9183294
1.20862659          0.0623343501      62.4607172      0.963635597     -175.660137      0.963516693     -175.661114     0.0719266069      64.7680526
1.21504727          0.0621059509      62.2746513      0.963662529     -175.690467      0.963539116     -175.691297     0.0716261843      64.6179138
1.22150206          0.0618791289      62.0884576       0.96368916     -175.720674      0.963561217     -175.721355      0.071327669      64.4674743
1.22799114          0.0616538759      61.9021372      0.963715493     -175.750758      0.963582997     -175.751289     0.0710310512      64.3167344
1.23451469          0.0614222806      61.7155846      0.963744521     -175.781211      0.963605906     -175.781488     0.0707443735      64.1643916
1.2410729           0.0611913264       61.528854      0.963773612     -175.811599      0.963628674      -175.81161      0.070460502      64.0116093
1.24766595          0.0609618631      61.3419552      0.963802445     -175.841871      0.963651148     -175.841614     0.0701785538      63.8585303
1.25429403          0.0607338824      61.1548887      0.963831021     -175.872026      0.963673329       -175.8715     0.0698985197      63.7051558
1.26095731          0.0605299103      60.9633168      0.963845097     -175.902157      0.963695466     -175.901391     0.0696044834      63.5566544
1.26765599          0.0603288982      60.7714073       0.96385799     -175.932179      0.963717329     -175.931174      0.069311292      63.4081992
1.27439026          0.0601295071      60.5794228      0.963870543     -175.962087      0.963738903     -175.960842     0.0690198756      63.2594851
1.2811603           0.0599304611      60.3878773      0.963883435     -175.991826       0.96375998     -175.990351     0.0687310907      63.1101122
1.28796631          0.0597154777      60.2032883      0.963905368     -176.020666      0.963777858     -176.019123     0.0684560391      62.9549356
1.29480848          0.0595019523      60.0186026      0.963927036     -176.049391      0.963795448     -176.047778     0.0681828244      62.7994533
1.30168699           0.059289877      59.8338216      0.963948441     -176.078002       0.96381275     -176.076319     0.0679114377       62.643666
1.30860204          0.0590806439      59.6492482      0.963969134     -176.106627        0.9638314     -176.104993     0.0676421954      62.4871519
1.31555383          0.0588766487      59.4654339      0.963988339     -176.135486      0.963854214     -176.134228     0.0673756532      62.3291769
1.32254255          0.0586740884      59.2815823       0.96400727     -176.164236      0.963876771     -176.163355     0.0671109243      62.1708832
1.3295684           0.0584729552      59.0976955      0.964025928     -176.192877      0.963899073     -176.192375     0.0668480001      62.0122718
1.33663157          0.0582717038      58.9163352      0.964045501     -176.221154      0.963919957     -176.220702     0.0665854182      61.8568404
1.34373226          0.0580705597      58.7370969       0.96406581     -176.249111      0.963939618     -176.248431     0.0663233843      61.7040634
1.35087067          0.0578707871      58.5578595      0.964085875     -176.276959      0.963959028     -176.276051     0.0660630904        61.55105
1.35804701           0.057672378      58.3786252      0.964105697       -176.3047      0.963978188     -176.303561     0.0658045276      61.3978017
1.36526147          0.0574761279      58.1875135      0.964123022     -176.333292      0.964004173      -176.33199     0.0655366169      61.2466831
1.37251425          0.0572813851       57.994873       0.96413982     -176.361897      0.964030786     -176.360438     0.0652690408      61.0956138
1.37980557           0.057088051       57.802101      0.964156355       -176.3904      0.964057196     -176.388785      0.065003093      60.9443161
1.38713562           0.056896713      57.6125781      0.964174006     -176.418392       0.96408322     -176.416849     0.0647416645      60.7854847
1.39450461          0.0567080498      57.4304501      0.964194449     -176.445375      0.964108639     -176.444414      0.064488325      60.6101539
1.40191274          0.0565207296      57.2483245      0.964214669     -176.472254      0.964133859     -176.471878     0.0642367313      60.4343125
1.40936023          0.0563347448      57.0662039      0.964234667      -176.49903      0.964158884     -176.499241     0.0639868759      60.2579601
1.41684729          0.0561443798      56.8692703      0.964259625     -176.526676      0.964172297     -176.526765     0.0637351113      60.1086596
1.42437412          0.0559539418      56.6683425      0.964285718     -176.554471      0.964182544     -176.554257     0.0634840015      59.9662674
1.43194093          0.0557648851      56.4671708      0.964311633     -176.582171      0.964192525     -176.581651     0.0632344484      59.8238098
1.43954794          0.0555826306      56.2747313      0.964333211     -176.609394      0.964208728     -176.608664     0.0629912669       59.673647
1.44719537          0.0554119721      56.0992918      0.964346703     -176.635797       0.96423701     -176.635039     0.0627588546      59.5087991
1.45488342          0.0552426134      55.9240021      0.964359964     -176.662102      0.964265139     -176.661315     0.0625281264      59.3436472
1.46261231          0.0550745468       55.748866      0.964372995      -176.68831      0.964293114     -176.687495     0.0622990744      59.1781934
1.47038226          0.0548932334      55.5646057      0.964388714     -176.714908      0.964305623     -176.714106     0.0620677511      59.0221547
1.47819348          0.0547125108       55.379899      0.964404356     -176.741433      0.964317213     -176.740648     0.0618378502      58.8663721
1.48604621           0.054533029      55.1951641      0.964419792     -176.767866      0.964328575     -176.767097     0.0616095406      58.7104106
1.49394065           0.054355446      55.0039121      0.964436796     -176.794191      0.964346439     -176.793103     0.0613796248      58.5565835
1.50187702          0.0541795373      54.8086795      0.964454661     -176.820416      0.964368116     -176.818806     0.0611493561        58.40398
1.50985556          0.0540049128      54.6132999      0.964472337      -176.84655      0.964389625     -176.844416     0.0609206125      58.2512359
1.51787649          0.0538315661       54.417775      0.964489827     -176.872594      0.964410965     -176.869933     0.0606933854      58.0983539
1.52594002          0.0536576987      54.2298394      0.964502617     -176.898769      0.964425308     -176.896013     0.0604704615      57.9284199
1.53404639          0.0534845847      54.0437972      0.964514064     -176.924913      0.964437736     -176.922171     0.0602498282      57.7538889
1.54219583          0.0533126582      53.8577267      0.964525295      -176.95097      0.964449953     -176.948243     0.0600307888      57.5789696
1.55038855          0.0531419121      53.6716299      0.964536312     -176.976943       0.96446196     -176.974229     0.0598133361      57.4036635
1.5586248           0.0529798921      53.4805842         0.964545     -177.002403      0.964470507     -176.999902     0.0595923786      57.2291042
1.56690481          0.0528315742      53.2814191      0.964549987     -177.027072      0.964473478     -177.025112     0.0593645877      57.0560094
1.5752288           0.0526846125      53.0822185      0.964554735     -177.051652      0.964476202     -177.050236      0.059138277      56.8825153
1.58359701          0.0525390008      52.8829865      0.964559245     -177.076144      0.964478678     -177.075274     0.0589134391      56.7086223
1.59200968          0.0523936367      52.6844292      0.964564124     -177.100599      0.964481932      -177.10024     0.0586903162      56.5347042
1.60046703           0.052231888      52.4971386      0.964578553     -177.125801      0.964501446     -177.125321      0.058472662      56.3664469
1.60896932          0.0520712857      52.3098299      0.964592803      -177.15092       0.96452081     -177.150319     0.0582564537      56.1978918
1.61751677           0.051911823      52.1225054      0.964606874     -177.175959      0.964540023     -177.175236     0.0580416836      56.0290403
1.62610964          0.0517534931      51.9351673      0.964620768     -177.200917      0.964559087     -177.200071     0.0578283441      55.8598936
1.63474815           0.051599897      51.7471992      0.964634963     -177.225534      0.964573624     -177.224646     0.0576315572      55.6965887
1.64343255          0.0514481616      51.5591183      0.964649098     -177.250019      0.964587138     -177.249104     0.0574392354      55.5343514
1.65216308          0.0512975703      51.3710511      0.964663083     -177.274425      0.964600495     -177.273481      0.057248389      55.3719869
1.66094             0.0511481165      51.1830004      0.964676917      -177.29875      0.964613695     -177.297779     0.0570590104      55.2094988
1.66976354          0.0510011901      50.9943259      0.964690065     -177.323313      0.964629444     -177.322168      0.056867168       55.047435
1.67863395          0.0508559837      50.8054093      0.964702831     -177.347933       0.96464619     -177.346553     0.0566751026      54.8854737
1.68755149          0.0507119057      50.6165246       0.96471544     -177.372478      0.964662802      -177.37086     0.0564844501      54.7233879
1.6965164           0.0505689496       50.427675      0.964727893     -177.396948      0.964679281     -177.395093     0.0562952029       54.561181
1.70552894          0.0504298272       50.243189      0.964743431     -177.420946      0.964687433     -177.419192     0.0560968398      54.3928095
1.71458936          0.0502931972       50.061038      0.964760492     -177.444664      0.964691207     -177.443186     0.0558944508      54.2210845
1.7236979           0.0501576616      49.8790308      0.964777425     -177.468306      0.964694783     -177.467107     0.0556933952      54.0490691
1.73285484          0.0500232138      49.6971711      0.964794231     -177.491874      0.964698161     -177.490954     0.0554936658      53.8767647
1.74206042          0.0498835279      49.5230432      0.964801544     -177.515806      0.964708342     -177.514998     0.0553042473      53.7055247
1.7513149           0.0497421714       49.352311      0.964804737     -177.539853       0.96472132     -177.539084     0.0551199716      53.5346352
1.76061855          0.0496017776      49.1818008       0.96480774     -177.563831      0.964734161     -177.563102      0.054937061      53.3635424
1.76997162          0.0494623397      49.0115159      0.964810552     -177.587741      0.964746866     -177.587051     0.0547555085      53.1922492
1.77937438          0.0493223358      48.8194513      0.964825464     -177.611766      0.964758235     -177.610855     0.0545717395      53.0196714
1.78882709          0.0491830695       48.622753      0.964842818     -177.635764      0.964769209     -177.634576     0.0543885544      52.8466404
1.79833002           0.049044861      48.4259811      0.964860062     -177.659696      0.964780038      -177.65823     0.0542066878       52.673382
1.80788343          0.0489078688      48.2290336      0.964877127     -177.683563      0.964790901     -177.681821     0.0540261792      52.5004257
1.81748759          0.0487774056      48.0285665      0.964891773     -177.707369      0.964807512     -177.705456     0.0538484928       52.344829
1.82714277          0.0486480307      47.8280365      0.964906308     -177.731111      0.964824021     -177.729027     0.0536720443      52.1892369
1.83684924          0.0485197383      47.6274463       0.96492073      -177.75479      0.964840429     -177.752534     0.0534968262       52.033653
1.84660728          0.0483931811      47.4364463      0.964930326      -177.77812      0.964853509     -177.775776     0.0533208003      51.8737008
1.85641716          0.0482691022      47.2675229      0.964929047     -177.800735      0.964859126     -177.798493     0.0531413907      51.7036881
1.86627915          0.0481459539      47.0988975      0.964927575     -177.823285      0.964864588     -177.821146     0.0529632061       51.533493
1.87619353          0.0480237294      46.9305739      0.964925911     -177.845769      0.964869894     -177.843733     0.0527862395      51.3631181
1.88616058          0.0479078907      46.7503254       0.96493634     -177.868372      0.964877953     -177.866523     0.0526152251      51.1949802
1.89618057           0.047795953      46.5638139      0.964953154     -177.891008      0.964887416     -177.889391     0.0524479384      51.0280068
1.9062538           0.0476850441      46.3774785      0.964969882     -177.913583      0.964896752     -177.912199     0.0522818726      50.8609397
1.91638054          0.0475729523      46.1912677      0.964985781      -177.93614      0.964906075      -177.93498     0.0521177507      50.6927723
1.92656108          0.0474334757      46.0044072      0.964991998     -177.959198      0.964916726     -177.958127     0.0519642673      50.5114942
1.9367957           0.0472948489      45.8175076      0.964998081     -177.982199      0.964927269     -177.981218     0.0518120944      50.3300222
1.9470847           0.0471570659      45.6305697      0.965004031     -178.005145      0.964937705     -178.004253     0.0516612258      50.1483602
1.95742835          0.0470415622      45.4492464      0.965006318     -178.027355      0.964940681     -178.026681     0.0514987471      49.9736286
1.96782695          0.0469440812      45.2726792       0.96500563     -178.048963       0.96493764      -178.04861     0.0513271536      49.8044006
1.97828079          0.0468475953        45.09646       0.96500477      -178.07051      0.964934413      -178.07048     0.0511566692      49.6350235
1.98879016          0.0467485295      44.9180929      0.965004852     -178.092203      0.964932892     -178.092377     0.0509883231      49.4649536
1.99935537          0.0466202263      44.7186707      0.965014215     -178.115579      0.964947231     -178.114942     0.0508298725       49.290118
2.0099767           0.0464928208      44.5191179      0.965023468     -178.138908      0.964961488     -178.137454     0.0506725823      49.1151287
2.02065446          0.0463663076      44.3194354       0.96503261     -178.162188      0.964975662     -178.159913     0.0505164459      48.9399884
2.03138894          0.0462714363      44.1240179      0.965052238     -178.184512       0.96498602     -178.182261     0.0503632233      48.7584209
2.04218044          0.0461897765      43.9305492      0.965076016     -178.206426      0.964994798     -178.204534     0.0502118829       48.574151
2.05302928          0.0461091929      43.7373535      0.965099768     -178.228287       0.96500347     -178.226756     0.0500617275      48.3896512
2.06393575          0.0460113345      43.5502234      0.965109694     -178.249947      0.965008406      -178.24858     0.0499159276      48.2105416
2.07490016           0.045885304      43.3723913      0.965097637     -178.271319      0.965007464       -178.2698     0.0497763151      48.0402383
2.08592281           0.045760025      43.1946411      0.965085373     -178.292638      0.965006374     -178.290966     0.0496378531      47.8699224
2.09700402          0.0456354916       43.016974      0.965072903     -178.313905      0.965005137      -178.31208     0.0495005348       47.699598
2.1081441           0.0455235005      42.8295627      0.965069746     -178.335301      0.965006702     -178.333204      0.049357909      47.5246556
2.11934336          0.0454216742      42.6344899      0.965073939      -178.35679       0.96501046     -178.354327     0.0492113234      47.3459648
2.13060211          0.0453207669      42.4394829      0.965078012     -178.378231      0.965014097     -178.375398      0.049065834      47.1671231
2.14192068          0.0452207733      42.2445447      0.965081967     -178.399623      0.965017613      -178.39642     0.0489214348      46.9881335
2.15329937          0.0451210482      42.0522684      0.965085773     -178.421021      0.965022362     -178.417574     0.0487790886      46.8085217
2.16473851          0.0450181771      41.8762543      0.965089269     -178.442704      0.965035435      -178.43981      0.048643874       46.625803
2.17623842          0.0449160784      41.7004695       0.96509265     -178.464343      0.965048442     -178.462006      0.048509782      46.4429486
2.18779942          0.0448147464      41.5249166      0.965095915     -178.485938      0.965061383      -178.48416     0.0483768068      46.2599622
2.19942184          0.0447141752      41.3495983      0.965099065     -178.507491       0.96507426     -178.506275     0.0482449425      46.0768474
2.211106            0.0446143291      41.1645362      0.965102437     -178.528742      0.965068865     -178.527728     0.0480997945      45.9031541
2.22285223          0.0445152858       40.977395      0.965105769     -178.549893      0.965059259        -178.549      0.047952427      45.7314829
2.23466086          0.0444170526        40.79038      0.965108987        -178.571       0.96504947     -178.570229     0.0478060119      45.5597217
2.24653223          0.0443196241      40.6034935       0.96511209     -178.592066      0.965039497     -178.591416     0.0476605425      45.3878728
2.25846666          0.0442339504      40.4204556      0.965118832     -178.612986      0.965045481     -178.612333     0.0475336927      45.2142109
2.27046449          0.0441565764      40.2402309      0.965128052     -178.633795      0.965062387     -178.633052     0.0474199405      45.0393983
2.28252605          0.0440800558      40.0603319      0.965137207     -178.654562      0.965079268     -178.653729     0.0473072841      44.8646425
2.29465169          0.0440043833      39.8807624      0.965146297     -178.675289      0.965096122     -178.674365     0.0471957174      44.6899483
2.30684175          0.0439252267      39.6960699      0.965150593     -178.696459      0.965108735     -178.695189     0.0470786932      44.5218657
2.31909657           0.043841915      39.5052956      0.965149322     -178.718152      0.965116422     -178.716237     0.0469551044      44.3614597
2.33141649          0.0437594379      39.3146963       0.96514793     -178.739811      0.965124038     -178.737248     0.0468324609      44.2011986
2.34380185          0.0436777904      39.1242751      0.965146417     -178.761437      0.965131584     -178.758222      0.046710756      44.0410866
2.35625301          0.0435910207      38.9439739      0.965145887      -178.78241      0.965130979      -178.77923     0.0465856542      43.8725379
2.36877032          0.0434967946      38.7775646      0.965146754     -178.802495      0.965119148     -178.800298      0.046455556       43.692172
2.38135413          0.0434032116      38.6114537      0.965147511     -178.822541      0.965107138     -178.821332     0.0463263981      43.5116899
2.39400478          0.0433102659      38.4456433      0.965148157     -178.842548      0.965094951     -178.842333     0.0461981744      43.3310941
2.40672264          0.0432247944      38.2741156      0.965149916     -178.863076      0.965092299     -178.863128     0.0460810044      43.1492012
2.41950806          0.0431479445      38.0959284      0.965152991     -178.884215      0.965100775     -178.883689     0.0459765455      42.9659101
2.4323614           0.0430718415      37.9180346      0.965155976     -178.905325       0.96510919     -178.904216     0.0458731309      42.7826242
2.44528302          0.0429964802       37.740437      0.965158873     -178.926405      0.965117545     -178.924711     0.0457707548      42.5993481
2.45827329          0.0429163468      37.5575419      0.965163644     -178.947117      0.965125936     -178.945138     0.0456586203       42.411279
2.47133257          0.0428330752      37.3708897      0.965169717     -178.967559      0.965134333     -178.965507     0.0455398885      42.2196932
2.48446122           0.042750526       37.184377      0.965175718     -178.987971      0.965142668     -178.985845     0.0454221151      42.0279258
2.49765962          0.0426686945      36.9980056      0.965181647     -179.008352      0.965150942     -179.006152      0.045305295      41.8359792
2.51092813          0.0425876909      36.8309031      0.965188136     -179.028637      0.965148078     -179.026645      0.045200101      41.6599018
2.52426713          0.0425073356      36.6692563      0.965194731     -179.048875      0.965142136     -179.047168     0.0450986931      41.4881972
2.537677            0.0424275823      36.5079845      0.965201264     -179.069084       0.96513607     -179.067664     0.0449982136      41.3166162
2.5511581           0.0423485021      36.3459595      0.965206939      -179.08928      0.965130112     -179.088137     0.0448974546       41.144842
2.56471081          0.0422711422      36.1681862      0.965201195     -179.109679      0.965127363     -179.108648        0.0447805      40.9685543
2.57833553          0.0421944458      35.9906531      0.965195325     -179.130051      0.965124503     -179.129134     0.0446643775      40.7922401
2.59203262          0.0421184079      35.8133621      0.965189327     -179.150398      0.965121534     -179.149594     0.0445490815       40.615902
2.60580248          0.0420427433      35.6308251      0.965187489     -179.170917      0.965122239     -179.170085     0.0444443656      40.4432504
2.61964549          0.0419673661      35.4406834      0.965191627     -179.191693      0.965128219     -179.190632     0.0443543232      40.2759856
2.63356204           0.041892683      35.2506607      0.965195699     -179.212449      0.965134142     -179.211157     0.0442651818      40.1089384
2.64755251          0.0418186894      35.0607589      0.965199705     -179.233183      0.965140008      -179.23166      0.044176936      39.9421136
2.66161731          0.0417470813      34.8968153      0.965204471     -179.253018      0.965141887     -179.251822     0.0440722325      39.7568691
2.67575683          0.0416763945      34.7384654      0.965209338      -179.27265      0.965142891     -179.271898     0.0439648935      39.5677739
2.68997146          0.0416062719      34.5805268      0.965214141     -179.292257       0.96514381     -179.291952     0.0438584091      39.3785597
2.70426161          0.0415402523      34.4155171      0.965217021     -179.311971      0.965144031     -179.311965     0.0437550677      39.1940395
2.71862767          0.0414825274      34.2347185      0.965215812     -179.331943      0.965142839     -179.331918     0.0436575009      39.0199067
2.73307005          0.0414255069       34.054231      0.965214513     -179.351894      0.965141556     -179.351851     0.0435607523      38.8458626
2.74758915          0.0413691861      33.8740575      0.965213125     -179.371825      0.965140184     -179.371763     0.0434648164      38.6719104
2.76218538          0.0412911726      33.7056296      0.965214918     -179.392123      0.965141253     -179.391819     0.0433696531      38.4911476
2.77685916          0.0412101963      33.5392061      0.965217144     -179.412463      0.965142635     -179.411883      0.043275314      38.3093398
2.79161088          0.0411297106      33.3730092      0.965219296     -179.432788      0.965143939      -179.43193     0.0431818015      38.1275555
2.80644098          0.0410662587      33.2032796      0.965225362     -179.453042      0.965144998      -179.45196     0.0430863344      37.9538302
2.82134985          0.0410216194      33.0298001      0.965235769      -179.47322      0.965145802     -179.471974     0.0429885668        37.78905
2.83633793          0.0409776725      32.8567561      0.965246154     -179.493383      0.965146536     -179.491972     0.0428915175      37.6244304
2.85140563          0.0409300306      32.6855725      0.965254385     -179.513546      0.965146955     -179.512012     0.0427969386      37.4619586
2.86655338          0.0408575878       32.522977      0.965250205     -179.533783      0.965145884     -179.532369     0.0427132518      37.3112515
2.88178159           0.040785628      32.3606773      0.965245932     -179.554007      0.965144735     -179.552714     0.0426302873       37.160911
2.89709071          0.0407141466      32.1986743      0.965241565     -179.574218      0.965143508     -179.573046     0.0425480394      37.0109409
2.91248115          0.0406484389      32.0326907      0.965240043     -179.594363      0.965144393     -179.593225     0.0424653315      36.8501187
2.92795335          0.0405945682      31.8579126       0.96524471     -179.614379      0.965149879     -179.613086     0.0423809043      36.6655638
2.94350774           0.040541304      31.6834461      0.965249327     -179.634384       0.96515532     -179.632936     0.0422972787      36.4810435
2.95914477          0.0404886422       31.509293      0.965253897     -179.654378      0.965160719     -179.652774     0.0422144499      36.2965608
2.97486487          0.0404365787      31.3354552      0.965258418     -179.674362      0.965166075       -179.6726     0.0421324132      36.1121188
2.99066848          0.0403738434       31.182292      0.965253558     -179.694277      0.965163499     -179.692422     0.0420454045      35.9265912
3.00655604          0.0403102847      31.0318376      0.965247542     -179.714177      0.965159944     -179.712234     0.0419585003      35.7409272
3.022528             0.040247163      30.8817986      0.965241424     -179.734067      0.965156297     -179.732037     0.0418723452      35.5552537
3.03858481           0.040184474      30.7321759      0.965235203     -179.753949       0.96515256     -179.751831     0.0417869345      35.3695731
3.05472692           0.040127894      30.5732812      0.965235304     -179.773911      0.965156201     -179.771726     0.0417070274      35.1946216
3.07095479          0.0400759625      30.4076881      0.965240034      -179.79393      0.965165252     -179.791692     0.0416313083      35.0276698
3.08726886          0.0400245581       30.242444      0.965244725     -179.813942      0.965174287     -179.811653     0.0415562956      34.8609466
3.1036696           0.0399736768      30.0775501      0.965249376     -179.833949      0.965183306     -179.831608     0.0414819845      34.6944553
3.12015747          0.0399198616      29.9124473      0.965250686     -179.853493       0.96518716     -179.851237     0.0414073682      34.5232318
3.13673293          0.0398602673      29.7466204      0.965245922     -179.872194      0.965181594     -179.870273     0.0413316476      34.3431264
3.15339644          0.0398011507      29.5810594      0.965241069     -179.890886      0.965175935     -179.889301     0.0412566488      34.1631168
3.17014847          0.0397425079      29.4157649      0.965236126     -179.909567      0.965170182      -179.90832     0.0411823672      33.9832056
3.1869895           0.0396877714      29.2479667      0.965233369     -179.928553      0.965166932     -179.927581     0.0411088674      33.8031821
3.20391999          0.0396454675      29.0708628      0.965238434     -179.948623      0.965172615     -179.947704      0.041036318      33.6225197
3.22094043          0.0396037427      28.8940566      0.965243465     -179.968692      0.965178268     -179.967825     0.0409644765      33.4419573
3.23805128          0.0395625934      28.7175495      0.965248461     -179.988761      0.965183889     -179.987947     0.0408933385      33.2614976
3.25525304          0.0395194159      28.5430265      0.965251967      179.991235      0.965187512      179.992027     0.0408224006      33.0843385
3.27254617          0.0394650321      28.3763626      0.965248861      179.971521      0.965182211      179.972438     0.0407498648      32.9217612
3.28993118          0.0394111065      28.2099587       0.96524568      179.951808      0.965176823       179.95285     0.0406779432      32.7594323
3.30740853          0.0393576354      28.0438153      0.965242426      179.932095      0.965171349      179.933263     0.0406066309      32.5973544
3.32497874          0.0393041493      27.8796316      0.965238222      179.912422      0.965165781      179.913714     0.0405376763      32.4352583
3.34264228          0.0392494739       27.721622      0.965230896      179.892884      0.965160101      179.894291     0.0404754231       32.272501
3.36039967          0.0391952046      27.5639186      0.965223477      179.873346      0.965154337      179.874867     0.0404138105      32.1100406
3.37825138          0.0391413375      27.4065216      0.965215966      179.853806      0.965148488      179.855443     0.0403528341      31.9478797
3.39619793          0.0390923759      27.2507187      0.965210613      179.834137      0.965144615      179.835859     0.0402867956       31.780245
3.41423982          0.0390523035      27.0977228       0.96520941      179.814223      0.965144547      179.815972     0.0402106775       31.601901
3.43237755          0.0390126742      26.9451584      0.965208141      179.794305      0.965144424      179.796081     0.0401351517      31.4236065
3.45061164          0.0389734844      26.7930263      0.965206807      179.774381      0.965144244      179.776184      0.040060214      31.2453627
3.46894259          0.0389327162      26.6317809      0.965206392      179.754401      0.965140253      179.756365      0.039992961      31.0745569
3.48737093          0.0388907601      26.4630133      0.965206736      179.734374      0.965133101      179.736609     0.0399321336      30.9100271
3.50589716          0.0388492754      26.2945246      0.965207033      179.714338       0.96512586      179.716847     0.0398719039      30.7457595
3.52452181          0.0388082589      26.1263152      0.965207283      179.694295      0.965118531      179.697079     0.0398122675      30.5817565
3.54324541          0.0387683298      25.9621835      0.965206668      179.674474      0.965113872      179.677297     0.0397477944      30.4122599
3.56206847          0.0387289833      25.7991683      0.965205827      179.654693       0.96510972      179.657506     0.0396827501      30.2417223
3.58099152          0.0386900837      25.6364721      0.965204931      179.634904      0.965105494      179.637707      0.039618274      30.0713518
3.6000151           0.0386489132       25.479046       0.96520283      179.615025      0.965100684      179.617738     0.0395539574      29.9025801
3.61913974          0.0385952221      25.3454499      0.965195206      179.594749      0.965093372      179.596996     0.0394882626      29.7407844
3.63836598          0.0385417861      25.2122845      0.965187493       179.57446      0.965085975      179.576238     0.0394230842      29.5792161
3.65769436          0.0384886014      25.0795499      0.965179691      179.554157      0.965078493      179.555465     0.0393584177      29.4178767
3.67712542          0.0384484464      24.9339972      0.965177667      179.534411      0.965073055      179.535559     0.0392992344      29.2655641
3.6966597            0.038417489      24.7797314      0.965179637      179.515047      0.965069012      179.516251     0.0392439807      29.1196786
3.71629775           0.038386965      24.6258686      0.965181574      179.495673      0.965064902      179.496933     0.0391892269       28.974201
3.73604013          0.0383562481      24.4745287      0.965181817      179.476304      0.965059931       179.47765     0.0391355192      28.8286617
3.75588739          0.0383184046      24.3491316      0.965162039      179.457098      0.965045349      179.458891     0.0390889438      28.6778688
3.77584008          0.0382808587      24.2242893      0.965142114      179.437883      0.965030648      179.440125     0.0390429085      28.5274906
3.79589878          0.0382436069      24.1000019      0.965122042      179.418657      0.965015829       179.42135     0.0389974092      28.3775294
3.81606403          0.0382378557      23.9613848      0.965139717      179.400075       0.96503763      179.402344     0.0389671382      28.2094753
3.8363364           0.0382513271      23.8145647      0.965180165      179.381878      0.965081535      179.383193     0.0389463654      28.0307368
3.85671647          0.0382654147      23.6684778      0.965220786      179.363673      0.965125632      179.364029     0.0389263393      27.8523808
3.87720481          0.0382651951      23.5131441      0.965253016      179.344538      0.965159504      179.344163     0.0388942925      27.6613689
3.89780199           0.038217326      23.3258781      0.965257663      179.322403      0.965159803      179.322049     0.0388217686      27.4281037
3.91850859          0.0381698647      23.1385904      0.965262273      179.300239       0.96516004      179.299907     0.0387499219      27.1943114
3.93932519           0.038122809      22.9512798      0.965266847      179.278046      0.965160217      179.277735     0.0386787512      26.9599911
3.96025237          0.0380749568      22.7783778      0.965254436      179.256873      0.965145894      179.256948     0.0386100828      26.8028722
3.98129073          0.0380273321      22.6070259      0.965240177      179.235782       0.96512997      179.236282     0.0385419723      26.6539144
4.00244085          0.0379800522      22.4357518        0.9652258      179.214666      0.965113919      179.215593     0.0384742137      26.5052054
4.02370333          0.0379339146      22.2671203      0.965212202      179.193631      0.965099477      179.194947     0.0384080824      26.3568946
4.04507877          0.0378973237      22.1283494       0.96520888      179.173805       0.96510504       179.17505     0.0383571084      26.2106165
4.06656775          0.0378610168      21.9899547      0.965205502      179.153958      0.965110594      179.155133     0.0383065561      26.0647029
4.0881709            0.037824991      21.8519354      0.965202068      179.134092      0.965116142      179.135195     0.0382564217      25.9191549
4.10988881           0.037789243      21.7142908      0.965198579      179.114203      0.965121681      179.115235     0.0382067012      25.7739735
4.13172209          0.0377530071      21.5747515      0.965195199       179.09402      0.965119328      179.095262     0.0381672404      25.6039239
4.15367137          0.0377166504      21.4343891      0.965191849       179.07367      0.965112823      179.075269     0.0381334603      25.4210066
4.17573724          0.0376805665      21.2943755      0.965188442      179.053294      0.965106247      179.055253     0.0381002836      25.2382802
4.19792033          0.0376447523      21.1547097      0.965184978      179.032893      0.965099597      179.035214     0.0380677074      25.0557469
4.22022128          0.0376115732       21.010649       0.96517992      179.012564      0.965091363      179.014966     0.0380294279      24.8870307
4.24264069          0.0375833429      20.8576342      0.965171785      178.992403      0.965080086      178.994332     0.0379792759      24.7452551
4.2651792           0.0375554557      20.7049201       0.96516357      178.972217      0.965068714       178.97367     0.0379294912      24.6038464
4.28783744          0.0375279091       20.552506      0.965155277      178.952004      0.965057245       178.95298       0.03788007      24.4628054
4.31061606          0.0374994693      20.4032236      0.965147352       178.93171      0.965046211      178.932264      0.037832543      24.3190866
4.33351568          0.0374618221      20.2760777      0.965142799      178.910967      0.965039179      178.911545     0.0377972552      24.1522462
4.35653696          0.0374243751      20.1493276      0.965138188      178.890194      0.965032074      178.890795     0.0377624662      23.9856637
4.37968053          0.0373871252      20.0229724      0.965133518       178.86939      0.965024895      178.870015     0.0377281728      23.8193403
4.40294705          0.0373500697       19.897011      0.965128788      178.848554      0.965017642      178.849202     0.0376943718      23.6532769
4.42633717          0.0373313513       19.752945      0.965131525      178.828212       0.96501705      178.829542     0.0376567269      23.4923416
4.44985155          0.0373132689      19.6089612      0.965134364      178.807848       0.96501653      178.809875     0.0376194609      23.3317505
4.47349084          0.0372955279      19.4653579      0.965137183      178.787453      0.965015973       178.79018     0.0375826404      23.1714255
4.49725572           0.037278126      19.3221345      0.965139984      178.767028      0.965015381      178.770458     0.0375462623      23.0113672
4.52114684          0.0372527613       19.174081      0.965130128      178.746377      0.965004881      178.749224     0.0375036561      22.8568356
4.54516488          0.0372271841      19.0259949      0.965119403      178.725682      0.964993678      178.727862      0.037461019      22.7028904
4.56931052           0.037201905      18.8781952      0.965108588      178.704952      0.964982383      178.706462     0.0374187592      22.5492058
4.59358442          0.0371769217      18.7306808      0.965097684      178.684189      0.964970995      178.685025     0.0373768733      22.3957819
4.61798728           0.037151548      18.5751447      0.965086055      178.663975      0.964961711      178.665293     0.0373379984      22.2432184
4.64251978          0.0371264858      18.4196913      0.965074322      178.643739      0.964952381       178.64556     0.0372995469      22.0909471
4.6671826           0.0371017443      18.2644546      0.965062495      178.623469       0.96494297      178.625797     0.0372614726      21.9389584
4.69197644          0.0370773231      18.1118294      0.965052408      178.603094      0.964934926      178.605854     0.0372251987       21.786939
4.71690199          0.0370531919      17.9793743      0.965057488      178.582087      0.964938854      178.584648     0.0372011724      21.6326411
4.74195996          0.0370292977      17.8472763      0.965062567      178.561041      0.964942773      178.563403     0.0371775925      21.4786961
4.76715104          0.0370056381      17.7155341      0.965067643      178.539956      0.964946684      178.542118     0.0371544561      21.3251047
4.79247595          0.0369821108      17.5824972      0.965067742      178.518898      0.964945002      178.520881     0.0371249219      21.1715546
4.8179354           0.0369586007      17.4461089      0.965056665      178.497952      0.964930767      178.499803     0.0370804699      21.0175564
4.84353009          0.0369353344      17.3100437      0.965045498      178.476966      0.964916425      178.478685     0.0370363377      20.8637546
4.86926076          0.0369123097      17.1743005      0.965034241       178.45594      0.964901977      178.457526     0.0369925222      20.7101484
4.89512811          0.0368902032      17.0427217      0.965024324      178.434744      0.964892633      178.436453     0.0369501238      20.5517382
4.92113289          0.0368688044      16.9142193      0.965015339      178.413415      0.964886905      178.415429     0.0369088446      20.3899468
4.9472758           0.0368476281      16.7860838      0.965006277      178.392042      0.964881116      178.394364     0.0368679087      20.2282985
4.97355761          0.0368266722      16.6583138      0.964997136      178.370626      0.964875265      178.373257     0.0368273132      20.0667928
4.99997902          0.0368018516      16.5176876      0.964988757      178.348931      0.964864038      178.351158     0.0367966865      19.9101101
5.0265408           0.0367769723      16.3763756      0.964980363      178.327174      0.964852347      178.328943     0.0367671101      19.7540037
5.05324369          0.0367523198       16.235302      0.964971894       178.30537      0.964840566      178.306679     0.0367379052      19.5981478
5.08008843          0.0367336651      16.0914782      0.964968046       178.28379       0.96483481      178.284696     0.0367157177      19.4400185
5.10707578          0.0367259304      15.9424377      0.964972807      178.262667      0.964840277      178.263274     0.0367062076      19.2775567
5.1342065           0.0367185314      15.7936932      0.964977566      178.241498      0.964845743      178.241806     0.0366971825      19.1154337
5.16148135          0.0367114663       15.645244      0.964982321      178.220285      0.964851209       178.22029     0.0366886401      18.9536501
5.18890109          0.0366932133      15.5054682      0.964979105      178.198514      0.964840676      178.198731     0.0366573038      18.8106914
5.2164665           0.0366729499      15.3675893       0.96497429      178.176595      0.964826934      178.177125     0.0366217166      18.6716397
5.24417834          0.0366529122      15.2299692      0.964969423      178.154625      0.964813095      178.155471     0.0365863977      18.5328864
5.2720374           0.0366351434      15.0950334      0.964961541      178.132744      0.964803688       178.13353     0.0365532054      18.3880221
5.30004446          0.0366208603      14.9642699      0.964948853      178.111035      0.964801441      178.111161     0.0365232869      18.2331876
5.3282003           0.0366068065      14.8338339      0.964936072      178.089277      0.964799154      178.088737     0.0364936956      18.0785631
5.35650571            0.03659298      14.7037242      0.964923195      178.067467      0.964796827       178.06626      0.036464429      17.9241477
5.3849615           0.0365764771      14.5724743      0.964929693      178.044422      0.964792332      178.044212     0.0364437842      17.7791901
5.41356845          0.0365601725      14.4415128      0.964936267      178.021314      0.964787779      178.022113      0.036423507      17.6345909
5.44232737          0.0365440743      14.3108431       0.96494285      177.998148      0.964783176       177.99996     0.0364035664      17.4903182
5.47123907          0.0365191025      14.1895907      0.964938793      177.975708      0.964776795      177.977588     0.0363827405      17.3411651
5.50030437          0.0364897194      14.0731862      0.964929363      177.953607      0.964769492      177.955079     0.0363616484      17.1896891
5.52952406          0.0364604333      13.9570766      0.964919858       177.93145      0.964762126      177.932513      0.036340898      17.0384761
5.55889899          0.0364312421        13.84126      0.964910278      177.909239      0.964754697       177.90989     0.0363204871      16.8875257
5.58842996          0.0364166885      13.7259756      0.964905448      177.886571      0.964746348      177.887245     0.0363015731      16.7281592
5.61811781          0.0364050838      13.6111193      0.964901489      177.863768      0.964737766      177.864548     0.0362832489      16.5673441
5.64796338          0.0363936568      13.4966517      0.964897484      177.840905      0.964729112      177.841791     0.0362652938      16.4067318
5.6779675           0.0363824055      13.3825715      0.964893432      177.817982      0.964720387      177.818976     0.0362477057      16.2463217
5.70813101          0.0363688949      13.2542336      0.964886648      177.795142      0.964709907      177.796188     0.0362287146      16.0943185
5.73845476          0.0363522219      13.1057544      0.964876062      177.772441         0.964697      177.773464     0.0362075753      15.9539872
5.7689396           0.0363357854       12.957409      0.964865396       177.74968      0.964684001       177.75068     0.0361867204      15.8139523
5.79958639          0.0363195837      12.8091957      0.964854649      177.726858       0.96467091      177.727834     0.0361661477      15.6742132
5.83039599          0.0363041081      12.6644751      0.964844666      177.704042       0.96465875      177.704965     0.0361462791      15.5349789
5.86136926          0.0362933426      12.5508215      0.964842363      177.681788      0.964655914      177.682387     0.0361305857      15.3979871
5.89250707           0.036282745       12.437529      0.964840026      177.659474       0.96465304      177.659748     0.0361151864      15.2613306
5.9238103           0.0362723136      12.3245958      0.964837655      177.637101       0.96465013      177.637046     0.0361000791      15.1250087
5.95527982          0.0362620466      12.2120203      0.964835249      177.614667      0.964647182      177.614283     0.0360852615      14.9890205
5.98691652          0.0362507607       12.088659      0.964821454      177.591131      0.964634556      177.590885     0.0360538648      14.8441018
6.01872128          0.0362394831      11.9639883      0.964805935      177.567377      0.964620457      177.567339     0.0360202717      14.6980092
6.05069501          0.0362283822      11.8395932       0.96479031      177.543556      0.964606259      177.543725     0.0359868844      14.5520518
6.08283859          0.0362174562       11.715472      0.964774579      177.519665      0.964591962      177.520043     0.0359537008      14.4062278
6.11515293          0.0362038838      11.5899757      0.964767698      177.495838      0.964582545      177.496347     0.0359407105      14.2585266
6.14763893          0.0361895015      11.4641479      0.964763848      177.471988      0.964574772        177.4726     0.0359349263      14.1104073
6.18029752           0.036175276       11.338548      0.964759955      177.448067      0.964566935      177.448783       0.03592949      13.9625808
6.21312959          0.0361612054      11.2131739      0.964756019      177.424074      0.964559036      177.424896     0.0359243997      13.8150464
6.24613609          0.0361477535      11.1160851      0.964762345      177.398334      0.964561705      177.399169     0.0359267572      13.6873289
6.27931793          0.0361345718      11.0313656       0.96477308      177.371796      0.964568903      177.372606     0.0359324667      13.5683821
6.31267604          0.0361214469      10.9471172      0.964783855      177.345173       0.96457612      177.345958     0.0359385035      13.4499318
6.34621136          0.0361083769      10.8633388      0.964794669      177.318463      0.964583356      177.319222      0.035944866      13.3319772
6.37992484          0.0360898307      10.7491712      0.964787964      177.293849      0.964580033      177.294563      0.035934879      13.2048278
6.41381741           0.036069485      10.6245865      0.964775145      177.269912      0.964573022      177.270574     0.0359193975      13.0746654
6.44789003           0.036049249       10.500165      0.964762236      177.245902      0.964565953      177.246511     0.0359041472      12.9447984
6.48214367          0.0360291211      10.3759044      0.964749239      177.221818      0.964558827      177.222375     0.0358891262      12.8152254
6.51657926          0.0360191483      10.2402356      0.964739477      177.197375      0.964545919      177.197891     0.0358780902      12.6754889
6.5511978           0.0360109041      10.1029558      0.964730152      177.172811      0.964532043      177.173288     0.0358679014      12.5344084
6.58600024          0.0360028592      9.96582918      0.964720755       177.14817      0.964518071      177.148607     0.0358579878      12.3935767
6.62098756          0.0359946795      9.82994231      0.964711323      177.123465      0.964504393       177.12387     0.0358476254      12.2531587
6.65616075          0.0359821809      9.70889209      0.964702313      177.098872      0.964495887      177.099349      0.035827773      12.1151964
6.6915208           0.0359698124      9.58804672      0.964693234      177.074201      0.964487315      177.074751     0.0358081298      11.9774268
6.72706869          0.0359575725      9.46740415      0.964684087       177.04945      0.964478677      177.050074     0.0357886938      11.8398481
6.76280542          0.0359479447      9.34853997      0.964676912      177.024538      0.964471311      177.025134     0.0357726763      11.6957868
6.798732            0.0359431623      9.23290568      0.964673554      176.999391      0.964466428      176.999766     0.0357630105      11.5392469
6.83484944           0.035938528      9.11753516      0.964670155       176.97416      0.964461496      176.974313     0.0357536464      11.3828363
6.87115874          0.0359340405      9.00242649      0.964666716      176.948847      0.964456516      176.948777     0.0357445826      11.2265534
6.90766094          0.0359257041      8.88141952      0.964658294      176.923483      0.964442586      176.923594     0.0357383666       11.085959
6.94435705          0.0359157481        8.757892      0.964647628      176.898048      0.964424633      176.898521     0.0357335388      10.9524729
6.9812481            0.035905929      8.63454167      0.964636886      176.872529      0.964406566      176.873365     0.0357289698      10.8192645
7.01833513          0.0358963857       8.5119077      0.964624805      176.846965      0.964388819      176.848087     0.0357230374       10.684771
7.05561918          0.0358880835       8.3937505      0.964602613      176.821645      0.964374405      176.822419     0.0357045126       10.538097
7.0931013           0.0358799086      8.27580054       0.96458028       176.79624       0.96435989      176.796665     0.0356861999      10.3915211
7.13078254          0.0358718597       8.1580558      0.964557806      176.770749      0.964345275      176.770822     0.0356680979      10.2450411
7.16866395           0.035866137      8.04087265      0.964545869      176.745058      0.964333477      176.745129     0.0356522944      10.1058265
7.2067466           0.0358620394      7.92414872      0.964541082      176.719202      0.964323572      176.719509     0.0356381005      9.97162542
7.24503157          0.0358580818      7.80764389      0.964536249      176.693257      0.964313596      176.693801     0.0356241003      9.83760982
7.28351992           0.035852806      7.69028928      0.964530762      176.667279      0.964303644      176.667975     0.0356115842       9.7039169
7.32221273          0.0358391039      7.56683287      0.964521644      176.641541      0.964294189      176.641886     0.0356068616      9.57125591
7.36111109          0.0358255032      7.44348584      0.964512458      176.615713      0.964284663      176.615706     0.0356023734      9.43883545
7.4002161           0.0358120025      7.32024579      0.964503205      176.589796      0.964275068      176.589433     0.0355981183      9.30665395
7.43952885           0.035800526      7.19949526      0.964487707      176.563505      0.964264013      176.563227     0.0355888276       9.1807833
7.47905044          0.0357897705      7.07964778      0.964470115      176.537031      0.964252434      176.536978      0.035578025      9.05710899
7.51878198          0.0357791159      6.95993824      0.964452412      176.510463      0.964240777      176.510637     0.0355673975      8.93367566
7.5587246           0.0357785111      6.84413952      0.964441059      176.483594      0.964228897      176.483991     0.0355615184      8.79464271
7.5988794           0.0357914192      6.73366492      0.964438314       176.45635      0.964216742      176.456964     0.0355620517       8.6345107
7.63924752           0.035804525      6.62350187      0.964435533      176.429007      0.964204501       176.42984     0.0355629041       8.4744779
7.6798301           0.0358178278      6.51364864      0.964432717      176.401565      0.964192174      176.402616     0.0355640748      8.31454303
7.72062826           0.035819964       6.3925783      0.964423884       176.37429      0.964181373      176.375517     0.0355569309      8.17432739
7.76164316          0.0358146682      6.26395261      0.964410983      176.347097      0.964171576      176.348468     0.0355442144       8.0473762
7.80287594          0.0358095137       6.1354206      0.964397995      176.319803      0.964161708      176.321321     0.0355316541      7.92060671
7.84432777          0.0358044994      6.00698006      0.964384921       176.29241       0.96415177      176.294074     0.0355192486      7.79401693
7.88599981          0.0357986373      5.87957717      0.964371195      176.264949      0.964141603       176.26667     0.0355087247      7.66500142
7.92789322          0.0357883433      5.75662547       0.96435477      176.237544      0.964130632      176.238907     0.0355063599      7.52415976
7.97000919          0.0357781436       5.6337538      0.964338239      176.210038      0.964119583       176.21104     0.0355042316      7.38346765
8.01234889           0.035768037      5.51095975        0.9643216      176.182429      0.964108456      176.183069     0.0355023388      7.24292338
8.05491352          0.0357580222      5.38824086      0.964304853      176.154717      0.964097249      176.154993     0.0355006805      7.10252521
8.09770427          0.0357566408      5.26710286      0.964295309       176.12683      0.964082465      176.126827     0.0354954859      6.96461056
8.14072234          0.0357568033      5.14634991      0.964286906      176.098827      0.964067006      176.098558     0.0354898744      6.82721098
8.18396893          0.0357571026      5.02573614      0.964278439      176.070718      0.964051446      176.070182     0.0354844648      6.68993756
8.22744527          0.0357575376      4.90525947      0.964269908      176.042502      0.964035785      176.041697     0.0354792561      6.55278834
8.27115257           0.035759294      4.78672803      0.964258761       176.01398      0.964022173      176.013082      0.035475002      6.41428349
8.31509206          0.0357618686      4.66938972      0.964246065      175.985235      0.964009711      175.984345     0.0354713886      6.27504639
8.35926498          0.0357645791      4.55220634      0.964233282      175.956378      0.963997165      175.955497      0.035467983      6.13592397
8.40367256          0.0357674244      4.43517585      0.964220413       175.92741      0.963984533      175.926538     0.0354647841      5.99691427
8.44831604          0.0357723924      4.32668885       0.96420971      175.898027      0.963975416       175.89738     0.0354628599      5.86137693
8.49319669          0.0357794373      4.22668757      0.964201158       175.86823      0.963969787      175.868022     0.0354621898      5.72929174
8.53831577          0.0357865971      4.12693835      0.964192543      175.838316       0.96396411      175.838549     0.0354617206      5.59736097
8.58367453          0.0357938706      4.02743937      0.964183866      175.808284      0.963958385      175.808961     0.0354614514      5.46558273
8.62927426          0.0357964016      3.90821782      0.964169398      175.778642       0.96395021      175.779519     0.0354609297      5.33131357
8.67511622          0.0357934185      3.76573951      0.964148135      175.749478      0.963939164      175.750269     0.0354600858      5.19408717
8.72120172          0.0357905977      3.62322032      0.964126738        175.7202       0.96392804      175.720904     0.0354594478      5.05697376
8.76753205          0.0357879387       3.4806578      0.964105208      175.690806      0.963916837      175.691423      0.035459015      4.91997148
8.81410849          0.0357814929      3.35289756      0.964091982      175.660998      0.963903107      175.661701     0.0354602494      4.78721443
8.86093237          0.0357712326       3.2397911      0.964086997      175.630778      0.963886869      175.631739     0.0354631244      4.65868095
8.908005             0.035761014      3.12674399      0.964081971      175.600437      0.963870529      175.601657      0.035466198       4.5303129
8.95532769          0.0357508342      3.01375374      0.964076904      175.569975      0.963854087      175.571455     0.0354694713      4.40210957
9.00290178          0.0357537609      2.89825151      0.964061157      175.539627      0.963836162      175.541108     0.0354718882      4.26652239
9.0507286           0.0357645833      2.78136496      0.964038975      175.509299      0.963817307      175.510623     0.0354738881      4.12655435
9.09880949          0.0357755642      2.66463514      0.964016657      175.478848      0.963798334      175.480016     0.0354761009       3.9866718
9.14714581          0.0357867019      2.54805985      0.963994203      175.448274      0.963779243      175.449284     0.0354785271      3.84687369
9.19573891          0.0357860266      2.42512366      0.963991164      175.417248      0.963770552      175.418209     0.0354886021      3.70969318
9.24459015          0.0357829837      2.30087211       0.96399213      175.386029      0.963763971      175.386962     0.0355004577      3.57317766
9.29370091          0.0357800339      2.17663395      0.963993085      175.354681      0.963757337      175.355587     0.0355125641      3.43680856
9.34307257          0.0357837572      2.02623706      0.963981474      175.325593      0.963736418      175.326479     0.0355251285      3.27393467
9.3927065           0.0358442717      1.65433461      0.963863223      175.316662      0.963594556       175.31758     0.0355404735      2.88502012
9.44260411          0.0359066807      1.28248908      0.963744292      175.307721      0.963451889      175.308672     0.0355574733      2.49519136
9.4927668           0.0359709933     0.910734288      0.963624676      175.298769      0.963308412      175.299753     0.0355761416      2.10447595
9.54319596          0.0360124231     0.657801061      0.963553308      175.279449      0.963224014      175.280551     0.0355876699      1.82851775
9.59389303          0.0360246788     0.547630651      0.963540487      175.247584      0.963211295      175.248906      0.035589192      1.69128195
9.64485942          0.0360370627     0.437611163      0.963527582      175.215586      0.963198492      175.217131     0.0355908956      1.55410157
9.69609656           0.036049574     0.327740656      0.963514591      175.183456      0.963185605      175.185223     0.0355927803      1.41697444
9.74760589          0.0360619836     0.206935003      0.963502466      175.151268      0.963169233      175.152986     0.0355991606      1.27842755
9.79938886          0.0360745111    0.0845927911      0.963490399      175.118957      0.963152257      175.120585     0.0356063818      1.13973502
9.85144692           0.036087191   -0.0376669318      0.963478252      175.086511      0.963135173      175.088047      0.035613813      1.00111197
9.90378154          0.0360951918    -0.159033712      0.963463841      175.053928      0.963117698      175.055419     0.0356216132     0.863235401
9.95639417          0.0360945809    -0.278904275      0.963445394      175.021209        0.9630996      175.022735     0.0356299092     0.726656189
10.0092863          0.0360940443    -0.398768346      0.963426831      174.988352       0.96308139      174.989914     0.0356384119     0.590151648
10.0624594          0.0360935811    -0.518628373      0.963408154      174.955356      0.963063066      174.956953     0.0356471209       0.4537198
10.115915           0.0360978674    -0.638680728      0.963390212      174.922357      0.963045094      174.923839     0.0356616043      0.31836939
10.1696546          0.0361027392    -0.758725946      0.963372248      174.889233      0.963027059      174.890583     0.0356769017      0.18323437
10.2236796          0.0361077097    -0.878744697      0.963354171      174.855968      0.963008911      174.857185     0.0356924341    0.0482096669
10.2779917          0.0361149604    -0.996811875      0.963335039      174.822424      0.962991013      174.823628     0.0357006916   -0.0890360817
10.3325923          0.0361243608     -1.11302035      0.963314904      174.788609      0.962973343      174.789912     0.0357021039    -0.228439571
10.3874829          0.0361338702       -1.229166      0.963294646      174.754648      0.962955564      174.756051     0.0357036843    -0.367849094
10.4426651          0.0361427186     -1.34691113      0.963274575      174.720584      0.962937255      174.722061     0.0357062329    -0.506654149
10.4981405          0.0361483331     -1.47184772      0.963255736      174.686555      0.962917012      174.688001     0.0357124347    -0.642783956
10.5539106          0.0361540547     -1.59679483      0.963236781       174.65238      0.962896644      174.653793     0.0357188182    -0.778885206
10.609977           0.0361598826     -1.72175476      0.963217709      174.618056      0.962876152      174.619438      0.035725383    -0.914960025
10.6663412          0.0361662318     -1.84406019      0.963198733      174.583456      0.962855167      174.584888     0.0357345834     -1.05359021
10.7230048          0.0361734175     -1.96160004      0.963180021      174.548478      0.962833399      174.550106     0.0357483707     -1.19678533
10.7799695          0.0361806948     -2.07911541      0.963161193      174.513346      0.962811499      174.515173      0.035762392     -1.33995168
10.8372368          0.0361880628      -2.1966085      0.963142249      174.478061      0.962789466      174.480087     0.0357766473     -1.48309116
10.8948083          0.0361955209     -2.31408148      0.963123188      174.442621      0.962767301      174.444847     0.0357911364     -1.62620559
10.9526856          0.0362013243     -2.43791495       0.96310403      174.407456      0.962748065       174.40972     0.0358059097     -1.75602903
11.0108704          0.0362071089     -2.56219528      0.963084757      174.372164      0.962728914      174.374457     0.0358208881     -1.88489736
11.0693643          0.0362129885     -2.68650742      0.963065368      174.336717      0.962709647      174.339039     0.0358360673     -2.01368156
11.128169           0.0362189625     -2.81085371       0.96304586      174.301115      0.962690262      174.303465     0.0358514469     -2.14238356
11.187286           0.0362235414     -2.93342767      0.963022534      174.265106      0.962667901      174.267504     0.0358634945     -2.27911532
11.2467171          0.0362272774     -3.05492328      0.962996777      174.228783      0.962643635      174.231242     0.0358735624       -2.420851
11.3064639          0.0362310847     -3.17645925      0.962970868      174.192299      0.962619225      174.194818     0.0358838308     -2.56260475
11.3665281          0.0362349625       -3.298038      0.962944806      174.155654       0.96259467      174.158234     0.0358942997     -2.70437862
11.4269114          0.0362425467     -3.41980871      0.962919921      174.119201      0.962568369      174.121712     0.0359054444     -2.84773951
11.4876155          0.0362558081     -3.54181421      0.962896932      174.083134      0.962539458      174.085376      0.035917529     -2.99352803
11.5486421          0.0362691914     -3.66381541      0.962873805      174.046906      0.962510377      174.048878     0.0359298306     -3.13935171
11.6099928          0.0362826958     -3.78581434      0.962850538      174.010517      0.962481126      174.012217     0.0359423494     -3.28521248
11.6716695           0.036295239     -3.90670321      0.962827676      173.973756      0.962454358      173.975302     0.0359565543     -3.43025857
11.7336738          0.0363048643     -4.02450417      0.962806194      173.936242       0.96243485      173.937973     0.0359750839     -3.57293611
11.7960075          0.0363145735     -4.14231547      0.962784584       173.89856      0.962415224      173.900477     0.0359938514     -3.71560956
11.8586724          0.0363243661     -4.26013932      0.962762844      173.860709      0.962395478      173.862811     0.0360128571     -3.85828073
11.9216702          0.0363337041     -4.38090818      0.962740081      173.822726      0.962374301      173.824974     0.0360321088     -3.99844636
11.9850026          0.0363412483     -4.51203664      0.962714041      173.784713      0.962348375      173.786959     0.0360516104     -4.12978099
12.0486714          0.0363488934     -4.64326106      0.962687848      173.746528      0.962322297      173.748772     0.0360713239     -4.26106877
12.1126785          0.0363566386     -4.77458382      0.962661503       173.70817      0.962296067      173.710412     0.0360912495     -4.39231156
12.1770257          0.0363663965     -4.90206941      0.962635648      173.669657      0.962270545      173.671876     0.0361113787     -4.52566872
12.2417146          0.0363815922     -5.01860035      0.962611443      173.631022      0.962247287      173.633159     0.0361317079      -4.6650262
12.3067473          0.0363968893     -5.13512342      0.962587096      173.592211      0.962223891      173.594266     0.0361522679      -4.8043796
12.3721254          0.0364122869     -5.25164062      0.962562606      173.553223      0.962200357      173.555195      0.036173059     -4.94373072
12.4378508          0.0364235204      -5.3687281      0.962537787      173.513888      0.962178127      173.515809     0.0361938639     -5.07900355
12.5039253          0.0364280728     -5.48676982      0.962512531      173.474104      0.962158052      173.476026     0.0362145379     -5.20780366
12.5703509          0.0364326663     -5.60488187      0.962487127      173.434138      0.962137859      173.436059     0.0362354165     -5.33656725
12.6371294          0.0364373001     -5.72306668      0.962461577      173.393989      0.962117545       173.39591     0.0362564998      -5.4652962
12.7042626          0.0364496377     -5.84327452      0.962434686      173.353728      0.962093839      173.355756     0.0362743949      -5.5989561
12.7717524          0.0364674216      -5.9648701      0.962406805      173.313333      0.962067705      173.315543     0.0362901189     -5.73610002
12.8396008          0.0364853207     -6.08648414      0.962378763      173.272751      0.962041419      173.275145     0.0363060365     -5.87328089
12.9078096          0.0365033342     -6.20811856       0.96235056      173.231982      0.962014981      173.234561     0.0363221479     -6.01050064
12.9763808          0.0365190017     -6.32868946      0.962324751      173.191325      0.961987161      173.193947     0.0363459339     -6.15337953
13.0453162           0.036534385     -6.44912715      0.962299189      173.150526      0.961958988       173.15317     0.0363711322     -6.29714989
13.1146179          0.0365498639     -6.56960304      0.962273477      173.109539      0.961930651      173.112203     0.0363965859     -6.44093947
13.1842877          0.0365650174     -6.69141407      0.962247069      173.068312      0.961902165      173.071003     0.0364215047     -6.58376729
13.2543276          0.0365787251     -6.81804016      0.962218499      173.026717      0.961873563      173.029449     0.0364437602     -6.72301699
13.3247396          0.0365925298     -6.94474846      0.962189765      172.984927      0.961844796      172.987702     0.0364662414     -6.86229701
13.3955257          0.0366064307     -7.07154114      0.962160865      172.942943      0.961815864       172.94576     0.0364889487     -7.00160915
13.4666878           0.036622433     -7.19705358      0.962131719      172.901025      0.961784409      172.903695      0.036512712     -7.14286024
13.5382279          0.0366397076     -7.32183506      0.962102359      172.859065      0.961751399      172.861476     0.0365371966     -7.28525784
13.6101481          0.0366570888     -7.44667761      0.962072831      172.816908      0.961718201       172.81906     0.0365619227     -7.42769534
13.6824504           0.036673941     -7.57207388      0.962043408      172.774552      0.961685349      172.776477     0.0365869173     -7.56902705
13.7551367          0.0366860819     -7.70127789      0.962015904      172.731977      0.961656366      172.733942      0.036612341      -7.7016974
13.8282092           0.036698309     -7.83060198      0.961988243      172.689203      0.961627217      172.691208     0.0366379858     -7.83437488
13.9016699          0.0367106217     -7.96004837      0.961960424      172.646228      0.961597902      172.648273      0.036663852     -7.96706124
13.9755208           0.036727946     -8.08987078      0.961927082      172.603129      0.961565394      172.605251     0.0366891277     -8.11923366
14.0497641          0.0367478653      -8.2199094      0.961890847      172.559867      0.961531176      172.562085     0.0367142749     -8.28130262
14.1244017          0.0367679106     -8.35003245      0.961854405      172.516401      0.961496762      172.518716     0.0367397142     -8.44350512
14.1994359          0.0367873312     -8.48016489      0.961819812      172.472677      0.961461267      172.475076     0.0367640328     -8.59979792
14.2748687          0.0368049021     -8.61019435      0.961790417      172.428606      0.961423251      172.431057     0.0367848911     -8.74037327
14.3507022          0.0368225809      -8.7403301      0.961760855      172.384327      0.961385021      172.386831     0.0368059574     -8.88103126
14.4269385          0.0368403667     -8.87057421      0.961731125      172.339838      0.961346579      172.342395     0.0368272321     -9.02177371
14.5035799          0.0368558571     -8.99219406      0.961698558      172.295096      0.961315073      172.297748     0.0368577785     -9.16516232
14.5806284           0.036871283     -9.11341299      0.961665659      172.250139       0.96128379      172.252889     0.0368890965     -9.30873875
14.6580862          0.0368867765     -9.23472003      0.961632574      172.204969      0.961252331      172.207817     0.0369206822     -9.45236044
14.7359555          0.0369025077     -9.35785225      0.961598554      172.159587      0.961220046      172.162518     0.0369519376     -9.59597577
14.8142385           0.036919587     -9.49387508      0.961558819       172.11401      0.961182802      172.116914      0.036979041     -9.73926383
14.8929373          0.0369367756     -9.63004484      0.961518863      172.068216      0.961145349      172.071093     0.0370063862     -9.88262896
14.9720542          0.0369540728      -9.7663636      0.961478684      172.022204      0.961107687      172.025053     0.0370339735     -10.0260728
15.0515914           0.036971478     -9.90283344      0.961438281      171.975972      0.961069815      171.978793     0.0370618035     -10.1695969
15.1315512          0.0369907777     -10.0322038      0.961402084      171.929665      0.961035802      171.932418     0.0370936954     -10.3165617
15.2119357          0.0370111294     -10.1578003       0.96136806      171.883213      0.961003781      171.885877     0.0371279095     -10.4653927
15.2927473          0.0370315736     -10.2834941      0.961333846      171.836538       0.96097158      171.839112     0.0371624116     -10.6142913
15.3739881          0.0370521096     -10.4092873       0.96129944       171.78964      0.960939197      171.792124     0.0371972023      -10.763259
15.4556606          0.0370724744     -10.5351505       0.96126432      171.742306      0.960906545       171.74475     0.0372302305     -10.9101667
15.5377669          0.0370922721     -10.6610413      0.961227705      171.694217      0.960873489      171.696748     0.0372584072     -11.0518568
15.6203094          0.0371121511     -10.7870403      0.961190887      171.645897      0.960840248      171.648515      0.037286818     -11.1936374
15.7032904          0.0371321104     -10.9131495      0.961153865      171.597344      0.960806824      171.600049     0.0373154635       -11.33551
15.7867122          0.0371522576     -11.0393719      0.961116661       171.54857      0.960773084       171.55136      0.037344486     -11.4775863
15.8705772          0.0371776597     -11.1657349      0.961080324      171.500152      0.960732953      171.502926     0.0373805249     -11.6249863
15.9548877          0.0372031693     -11.2921813      0.961043786      171.451501      0.960692601      171.454257     0.0374168506     -11.7724611
16.0396461          0.0372287854     -11.4187126      0.961007045      171.402615      0.960652025      171.405353     0.0374534636      -11.920012
16.1248548           0.037254507     -11.5453308      0.960970101      171.353493      0.960611226      171.356213     0.0374903648     -12.0676403
16.2105161          0.0372772348     -11.6800209      0.960928369      171.304043      0.960570332      171.306778     0.0375203961     -12.2155429
16.2966325          0.0372995191       -11.81628      0.960885588      171.254338      0.960529236      171.257093     0.0375494005     -12.3636065
16.3832064          0.0373219117     -11.9526919      0.960842572      171.204392      0.960487913      171.207167     0.0375786512     -12.5118014
16.4702401          0.0373444117     -12.0892585       0.96079932      171.154203      0.960446363         171.157     0.0376081488     -12.6601291
16.5577363          0.0373691355     -12.2293459      0.960754596      171.104088      0.960406948      171.106741     0.0376435173     -12.8085622
16.6456972          0.0373946319     -12.3706136       0.96070925      171.053827      0.960368034      171.056284     0.0376808756      -12.957084
16.7341255          0.0374202608     -12.5120422      0.960663655       171.00332      0.960328906      171.005582     0.0377185221     -13.1056995
16.8230235          0.0374460215     -12.6536337      0.960617811      170.952568      0.960289563      170.954633     0.0377564577       -13.25441
16.9123938          0.0374749621     -12.7964928      0.960575478      170.901917      0.960246846      170.904082     0.0377952179     -13.4076274
17.0022388          0.0375049589     -12.9398252      0.960534027      170.851121      0.960202958      170.853475     0.0378344438     -13.5622584
17.0925611          0.0375351137     -13.0833042      0.960492348      170.800078      0.960158829      170.802621     0.0378739805     -13.7170025
17.1833633          0.0375654258     -13.2269313      0.960450439      170.748785      0.960114458       170.75152      0.037913829     -13.8718609
17.2746478           0.037590397     -13.3631105      0.960409449      170.696755      0.960073468       170.69946     0.0379496742     -14.0334104
17.3664173          0.0376145688     -13.4982083      0.960368423       170.64439      0.960032847       170.64703      0.037985122     -14.1962045
17.4586742          0.0376388341     -13.6334689      0.960327171       170.59177      0.959992002      170.594344      0.038020878     -14.3591738
17.5514213          0.0376632784     -13.7690204      0.960285516      170.538888      0.959950883      170.541403     0.0380571984     -14.5218664
17.6446611          0.0376909977     -13.9093556      0.960237197      170.485621      0.959907754      170.488378     0.0381031567     -14.6681113
17.7383962          0.0377188375      -14.049854      0.960188615      170.432093      0.959864389      170.435092     0.0381494304     -14.8144208
17.8326293          0.0377467969     -14.1905172      0.960139769      170.378301      0.959820788      170.381544     0.0381960204      -14.960796
17.927363           0.0377748332     -14.3312656      0.960091282      170.324293      0.959776809      170.327701     0.0382418094     -15.1107044
18.0225999          0.0378028731      -14.471961       0.96004422      170.270146      0.959732205      170.273509     0.0382849015     -15.2700959
18.1183428          0.0378310277     -14.6128254      0.959996903      170.215733      0.959687358       170.21905     0.0383283265     -15.4296216
18.2145943          0.0378592961     -14.7538605      0.959949327      170.161052      0.959642266      170.164323     0.0383720857     -15.5892824
18.3113571          0.0378885235     -14.8962334      0.959903647      170.106179      0.959596014      170.109381     0.0384168821     -15.7491956
18.4086339          0.0379184692     -15.0396013      0.959859239       170.05109      0.959548864      170.054208     0.0384625141     -15.9093212
18.5064275          0.0379485389     -15.1831449      0.959814589       169.99573      0.959501457      169.998762     0.0385084894     -16.0695764
18.6047407          0.0379787315     -15.3268659      0.959769696      169.940095      0.959453793      169.943042      0.038554809      -16.229962
18.7035761          0.0380036814     -15.4592676      0.959719594      169.883401      0.959410314      169.886553     0.0386077346     -16.3691145
18.8029366           0.038028544     -15.5915285      0.959669091      169.826405      0.959366722      169.829771      0.038661152     -16.5077302
18.9028249           0.038053461     -15.7239592      0.959618318      169.769126      0.959322897      169.772707     0.0387148935      -16.646383
19.0032439          0.0380807424     -15.8646802      0.959568829      169.711757      0.959276934      169.715383     0.0387683773     -16.7953723
19.1041963          0.0381112128     -16.0164138       0.95952115      169.654363      0.959228182      169.657804     0.0388214499     -16.9581635
19.205685           0.0381418168     -16.1683615      0.959473211      169.596684      0.959179165       169.59994     0.0388749039     -17.1210631
19.3077129          0.0381725531      -16.320525      0.959425012      169.538719      0.959129881      169.541788     0.0389287406     -17.2840714
19.4102827          0.0382088987     -16.4686189      0.959373237      169.481037      0.959077333      169.483948     0.0389759877     -17.4377549
19.5133975          0.0382456874     -16.6166487      0.959321006        169.4231      0.959024342      169.425852     0.0390231854     -17.5910606
19.61706            0.0382826258     -16.7648435      0.959268494      169.364875      0.958971066      169.367468     0.0390707055     -17.7444939
19.7212733          0.0383193833     -16.9155626      0.959216205      169.306697      0.958917228      169.309335     0.0391251032     -17.9108722
19.8260401          0.0383560111      -17.068534      0.959164078      169.248526      0.958862854      169.251389     0.0391856793     -18.0886106
19.9313636          0.0383928011     -17.2216952      0.959111667      169.190065      0.958808184      169.193155     0.0392467168      -18.266461
20.0372465          0.0384294485     -17.3741345      0.959058619      169.131156      0.958753467       169.13441      0.039306248     -18.4429354
20.1436919          0.0384648236     -17.5225121      0.959003644      169.071217      0.958699626      169.074346     0.0393570246      -18.612626
20.2507029          0.0385003259     -17.6710764      0.958948372      169.010978      0.958645494      169.013982     0.0394081805     -18.7824822
20.3582823           0.038535954     -17.8198287      0.958892803      168.950439       0.95859107      168.953316     0.0394597172     -18.9525046
20.4664332           0.038573859     -17.9721029      0.958839602       168.88964      0.958537085      168.892632     0.0395183277     -19.1142696
20.5751586          0.0386122061     -18.1250213      0.958786481      168.828544      0.958482911      168.831684     0.0395782484     -19.2749816
20.6844616          0.0386507008     -18.2781288      0.958733075      168.767141      0.958428445       168.77043     0.0396385648     -19.4357903
20.7943453          0.0386893116     -18.4313266      0.958679307      168.705435      0.958373524      168.708864     0.0396991457     -19.5968464
20.9048127          0.0387275119     -18.5828908      0.958623877      168.643494      0.958315329      168.646882      0.039757714     -19.7607492
21.015867           0.0387658445     -18.7346431      0.958568149      168.581242      0.958256823      168.584588      0.039816677     -19.9247726
21.1275112          0.0388043079      -18.886585      0.958512124      168.518678      0.958198002      168.521982     0.0398760361      -20.088917
21.2397486          0.0388429005     -19.0387176      0.958455798        168.4558      0.958138867      168.459062     0.0399357924     -20.2531828
21.3525821           0.038879333     -19.1934207      0.958398953      168.392815      0.958080681      168.395923     0.0399975345     -20.4182907
21.4660151          0.0389145486     -19.3497412      0.958341677      168.329637      0.958022925      168.332522     0.0400606183      -20.583932
21.5800507          0.0389498834     -19.5062963      0.958284094      168.266142      0.957964861      168.268803      0.040124119      -20.749683
21.6946921           0.038985336     -19.6630874      0.958226202      168.202327      0.957906485      168.204764     0.0401880375     -20.9155441
21.8099425          0.0390219542     -19.8199293       0.95816689      168.137887       0.95784917      168.140268     0.0402518736     -21.0780837
21.9258052          0.0390610231     -19.9765799      0.958104791      168.072446      0.957794604      168.075148     0.0403149908     -21.2331128
22.0422834          0.0391002174     -20.1334457      0.958042362      168.006676      0.957739749      168.009701     0.0403784886     -21.3882379
22.1593803          0.0391395354      -20.290528      0.957979602      167.940574      0.957684602      167.943923     0.0404423677     -21.5434594
22.2770993          0.0391789687     -20.4477811      0.957916606      167.874205      0.957628303      167.877851     0.0405065204     -21.7004687
22.3954437          0.0392184542     -20.6047599      0.957854285      167.808202      0.957562715      167.811838     0.0405699484     -21.8752619
22.5144168          0.0392580582     -20.7619535       0.95779163      167.741867      0.957496776      167.745491     0.0406338137     -22.0502025
22.6340219          0.0392977789     -20.9193631       0.95772864      167.675197      0.957430484       167.67881     0.0406981176     -22.2252903
22.7542624          0.0393376143       -21.07699      0.957665314      167.608189      0.957363839      167.611791     0.0407628613     -22.4005252
22.8751416          0.0393814293     -21.2381742      0.957600033      167.540989      0.957299902      167.544604     0.0408372364     -22.5778081
22.996663           0.0394255649     -21.3997159      0.957534328      167.473456      0.957235762      167.477085     0.0409125261     -22.7552667
23.11883            0.0394698437     -21.5614641       0.95746827      167.405581      0.957171278      167.409224     0.0409883146     -22.9328127
23.241646           0.0395142639     -21.7234195      0.957401859      167.337362      0.957106449       167.34102     0.0410646033      -23.110446
23.3651144          0.0395572638     -21.8896678      0.957333526      167.269134       0.95704057      167.272616     0.0411379718     -23.2846357
23.4892387          0.0396002618     -22.0565341       0.95726468      167.200592      0.956974273      167.203879     0.0412114935     -23.4585974
23.6140224          0.0396434029      -22.223636      0.957195467      167.131703      0.956907621      167.134793     0.0412854905     -23.6326638
23.739469           0.0396866853     -22.3909746      0.957125884      167.062465      0.956840614      167.065357      0.041359964     -23.8068347
23.8655821          0.0397371408     -22.5544566      0.957062532      166.992547       0.95677674      166.995384      0.041436147     -23.9823226
23.9923651          0.0397880751     -22.7179281      0.956999144       166.92226      0.956712685      166.925047     0.0415128731     -24.1579654
24.1198216          0.0398391648     -22.8815757      0.956935418      166.851615      0.956648288      166.854352     0.0415900874     -24.3337072
24.2479552          0.0398909699     -23.0460766      0.956870843      166.780611      0.956583394      166.783308     0.0416671886     -24.5093189
24.3767695          0.0399494377     -23.2185299      0.956800046       166.70923      0.956516385      166.712022      0.041737814     -24.6824134
24.5062681          0.0400081226     -23.3911319      0.956728871      166.637487      0.956449019      166.640373     0.0418088827     -24.8556442
24.6364547          0.0400670223     -23.5638831      0.956657318      166.565379      0.956381294       166.56836     0.0418803956     -25.0290112
24.7673329          0.0401226535     -23.7378309      0.956586147      166.492949      0.956311605      166.496054     0.0419554003     -25.2052862
24.8989063          0.0401695783     -23.9146656      0.956516551      166.420265      0.956237439      166.423571     0.0420386843     -25.3887402
25.0311787          0.0402166612     -24.0917517      0.956446582      166.347212      0.956162876      166.350718     0.0421225058     -25.5722788
25.1641538             0.0402639     -24.2690901      0.956376239      166.273786      0.956087914      166.277494      0.042206866     -25.7559016
25.2978353          0.0403181671     -24.4354909      0.956306336      166.200038      0.956016053      166.203892     0.0422918495     -25.9429246
25.432227           0.0403780257     -24.5931757      0.956236708      166.125956      0.955946589       166.12991     0.0423774568     -26.1326624
25.5673326          0.0404380279     -24.7509766      0.956166708      166.051496      0.955876752       166.05555     0.0424636279     -26.3224889
25.7031559          0.0404981705     -24.9088943      0.956096332      165.976656      0.955806542      165.980811     0.0425503643      -26.512403
25.8397008          0.0405455925     -25.0902667      0.956022899      165.901482      0.955731333      165.905535     0.0426408219      -26.692614
25.9769711          0.0405918402     -25.2743194      0.955948797      165.825928      0.955655243      165.829858     0.0427321557      -26.871873
26.1149706          0.0406382358     -25.4586582      0.955874299      165.749989      0.955578748      165.753794     0.0428240413      -27.051186
26.2537032          0.0406874749     -25.6441749       0.95579821      165.673715       0.95550278      165.677431     0.0429157044     -27.2280348
26.3931728          0.0407425115     -25.8317978      0.955719226      165.597163      0.955428361      165.600864     0.0430062824     -27.3996985
26.5333833          0.0407977466     -26.0196537      0.955639822      165.520219      0.955353546      165.523905     0.0430973778     -27.5714172
26.6743387          0.0408531779     -26.2077428      0.955559995      165.442881      0.955278332      165.446552     0.0431889917     -27.7431906
26.8160429          0.0409092193     -26.3904937      0.955481895      165.365028       0.95519485      165.368709     0.0432852085     -27.9328449
26.9584998          0.0409655266     -26.5721395      0.955403884      165.286747      0.955109059      165.290444     0.0433830008     -28.1267497
27.1017136          0.0410219961     -26.7539923      0.955325455      165.208066      0.955022808      165.211778     0.0434814167     -28.3206983
27.2456881          0.0410793309     -26.9362826      0.955246622      165.129093      0.954938115      165.132777     0.0435776598     -28.5130946
27.3904275          0.0411380975     -27.1191875      0.955167399      165.049915      0.954856603      165.053495     0.0436694735     -28.7027025
27.5359358          0.0411970309     -27.3022912      0.955087752      164.970332      0.954774655      164.973805     0.0437618565     -28.8923947
27.6822171           0.041256128     -27.4855939      0.955007679      164.890341       0.95469227      164.893708     0.0438548097     -29.0821701
27.8292756          0.0413188034     -27.6655624      0.954927719      164.809769       0.95461597      164.813046     0.0439477136     -29.2782907
27.9771152          0.0413817478     -27.8455839      0.954847348      164.728778      0.954539472      164.731966     0.0440411897     -29.4747051
28.1257402          0.0414448482     -28.0257714      0.954766546      164.647371      0.954462564       164.65047     0.0441352592      -29.671211
28.2751548          0.0415079722      -28.212091      0.954686597      164.565555      0.954388221      164.568778     0.0442321227     -29.8663396
28.4253631          0.0415712031     -28.4019603      0.954606946      164.483325      0.954315162      164.486792     0.0443308284     -30.0607116
28.5763694          0.0416346167     -28.5920221      0.954526866      164.400673       0.95424171      164.404385     0.0444301391      -30.255149
28.7281779          0.0416982095     -28.7822763      0.954446357      164.317595      0.954167863      164.321554     0.0445300559     -30.4496503
28.8807928           0.041762298     -28.9733406      0.954364828      164.234321      0.954093147      164.238272     0.0446248853     -30.6447659
29.0342185          0.0418266385     -29.1647399      0.954282726      164.150673       0.95401792      164.154555     0.0447189752     -30.8401104
29.1884593          0.0418911539      -29.356331      0.954200184      164.066594       0.95394229      164.070408     0.0448136414     -31.0355587
29.3435194          0.0419558403      -29.548114        0.9541172      163.982083      0.953866254      163.985827     0.0449088848     -31.2311094
29.4994033          0.0420210614     -29.7394467      0.954033796      163.897228      0.953786311      163.900867     0.0450102568     -31.4263486
29.6561153          0.0420870178     -29.9299586      0.953949983      163.812079      0.953700468      163.815558     0.0451209111     -31.6209836
29.8136598          0.0421531321     -30.1206454      0.953865719      163.726491      0.953614164      163.729808     0.0452322174       -31.81563
29.9720412          0.0422194002     -30.3115068      0.953781002      163.640462      0.953527396      163.643616     0.0453441766     -32.0102864
30.131264           0.0422860704     -30.5032877      0.953695357      163.553986      0.953440047      163.556985      0.045456754     -32.2054649
30.2913327           0.042356239     -30.7050244      0.953603017      163.467025      0.953350709      163.469972     0.0455695337     -32.4073957
30.4522517          0.0424266154     -30.9069287       0.95351018      163.379615      0.953260888       163.38251     0.0456829938     -32.6093344
30.6140256          0.0424971954     -31.1090003      0.953416841      163.291754      0.953170583      163.294597     0.0457971353     -32.8112793
30.7766589           0.042567975     -31.3112386      0.953322999      163.203439       0.95307979      163.206231     0.0459119588     -33.0132288
30.9401561          0.0426392715     -31.5085888      0.953231361       163.11452      0.952986734      163.117363     0.0460281034     -33.2104499
31.1045219           0.042710793     -31.7051791      0.953139718      163.025114      0.952892858      163.028029     0.0461450298     -33.4068154
31.2697609          0.0427824749     -31.9019183      0.953047584      162.935247      0.952798478      162.938233     0.0462626223     -33.6031758
31.4358777          0.0428543124     -32.0988059      0.952954954      162.844915       0.95270359      162.847973     0.0463808814     -33.7995296
31.602877           0.0429274595     -32.2945904      0.952859865      162.754264      0.952607621      162.757455     0.0464993018     -34.0059587
31.7707634          0.0430012158     -32.4900154      0.952763486      162.663203      0.952510908      162.666553     0.0466182361     -34.2163753
31.9395418          0.0430751183     -32.6855737      0.952666585      162.571672      0.952413672       162.57518     0.0467378929     -34.4267871
32.1092167          0.0431491621     -32.8812646      0.952569161      162.479667      0.952315911      162.483335     0.0468582729      -34.637192
32.279793           0.0432227268     -33.0886979       0.95247115      162.387217      0.952219357      162.390922     0.0469830734     -34.8372643
32.4512755          0.0432961845     -33.3019122       0.95237258      162.294303      0.952123123      162.297986     0.0471103606     -35.0323049
32.6236689          0.0433698392     -33.5152965      0.952273479      162.200909       0.95202637      162.204568     0.0472383412     -35.2273012
32.7969782           0.043443686     -33.7288499      0.952173842       162.10703      0.951929094      162.110667     0.0473670157      -35.422252
32.9712081          0.0435212675     -33.9375823      0.952077202       162.01291      0.951831903      162.016569     0.0474938542     -35.6275595
33.1463637           0.043600433     -34.1444636      0.951981441        161.9184      0.951734427      161.922099     0.0476204172      -35.836956
33.3224497          0.0436797711     -34.3514624      0.951885161        161.8234      0.951636423       161.82714     0.0477477126      -36.046321
33.4994711          0.0437592763     -34.5585777      0.951788359      161.727907      0.951537888      161.731688     0.0478757408     -36.2556526
33.677433           0.0438348699     -34.7715469      0.951683032      161.631844      0.951432684       161.63555     0.0480078957     -36.4671159
33.8563403          0.0439098486     -34.9857651      0.951575604      161.535267      0.951325736      161.538877     0.0481414638      -36.678931
34.036198           0.0439849839     -35.2001408      0.951467592       161.43819      0.951218207      161.441702     0.0482758012     -36.8906804
34.2170111          0.0440606506     -35.4147649      0.951359391      161.340615      0.951110433      161.344031     0.0484110553     -37.1020202
34.3987848          0.0441452865     -35.6316328       0.95125979      161.242661      0.951009912      161.246046     0.0485504705     -37.3053779
34.5815242          0.0442301199     -35.8485913      0.951159646      161.144199      0.950908845      161.147552     0.0486906368     -37.5086485
34.7652343          0.0443151447     -36.0656391      0.951058958      161.045225      0.950807228      161.048547     0.0488315542     -37.7118301
34.9499204          0.0444012515     -36.2804758      0.950956248      160.945816        0.9507056      160.949053     0.0489719127     -37.9193043
35.1355876          0.0444894492     -36.4904483      0.950849813      160.846057      0.950604587      160.849098     0.0491102378     -38.1360964
35.3222411          0.0445778022     -36.7004752      0.950742797      160.745781      0.950503021      160.748623     0.0492493522      -38.352811
35.5098862          0.0446663039     -36.9105556      0.950635198      160.644984        0.9504009      160.647626     0.0493892558     -38.5694457
35.6985282          0.0447520966     -37.1295515      0.950526109      160.543674      0.950292027      160.546295      0.049532419     -38.7843174
35.8881723          0.0448366357     -37.3530702      0.950415972      160.441843      0.950179454      160.444532     0.0496776158      -38.998247
36.0788238          0.0449213473     -37.5766858      0.950305233      160.339484      0.950066265       160.34224     0.0498236123     -39.2120693
36.2704882          0.0450063031     -37.8000616      0.950194409      160.236588      0.949953005      160.239411     0.0499704711     -39.4259823
36.4631707          0.0450922579     -38.0198969       0.95008862      160.133114       0.94984505       160.13599     0.0501188169     -39.6419494
36.6568769          0.0451783473     -38.2398178      0.949982251      160.029102      0.949736504      160.032032     0.0502679742     -39.8577998
36.8516121          0.0452645641     -38.4598231        0.9498753      159.924549      0.949627364      159.927532     0.0504179427     -40.0735313
37.0473818           0.045353309     -38.6779708      0.949764234      159.819567      0.949515504      159.822598     0.0505670285     -40.2914172
37.2441915          0.0454439958     -38.8946976      0.949649883      159.714127      0.949401421      159.717201     0.0507156447     -40.5109112
37.4420467          0.0455347947     -39.1114622      0.949534906      159.608138      0.949286713      159.611256     0.0508650736     -40.7302904
37.640953           0.0456254865     -39.3306822      0.949419909      159.501603      0.949171509      159.504752     0.0510163587     -40.9484007
37.840916           0.0457147496     -39.5680415      0.949308846      159.394559      0.949056656      159.397638     0.0511762636     -41.1577656
38.0419413          0.0458041981     -39.8054786      0.949197172      159.286958      0.948941172      159.289966     0.0513369857     -41.3669725
38.2440345          0.0458938243     -40.0429916      0.949084884      159.178796      0.948825054      159.181732     0.0514985243     -41.5760196
38.4472012          0.0459870273     -40.2686043       0.94896968      159.070099      0.948708783       159.07319     0.0516577839     -41.7999752
38.6514473          0.0460816107     -40.4897863      0.948852983      158.960847      0.948592053      158.964178     0.0518167669     -42.0293742
38.8567784          0.0461762906     -40.7109827      0.948735642      158.851025      0.948474678      158.854597     0.0519766333     -42.2586084
39.0632003          0.0462701786     -40.9367912      0.948618527      158.740767      0.948357167       158.74452     0.0521381396     -42.4839348
39.2707188          0.0463628558     -41.1695446      0.948502084      158.630139       0.94823978       158.63398      0.052301645     -42.7034705
39.4793397          0.0464556492      -41.402338      0.948384998      158.518935      0.948121747      158.522864     0.0524660009      -42.922835
39.6890689          0.0465485497     -41.6351696      0.948267267       158.40715      0.948003062      158.411168     0.0526312063      -43.142026
39.8999123          0.0466438919     -41.8743353      0.948148692      158.294746       0.94788296      158.298704     0.0527974029     -43.3661953
40.1118757          0.0467411424     -42.1182307      0.948029314      158.181728      0.947761619      158.185515     0.0529645861     -43.5940333
40.3249651          0.0468385565     -42.3621376      0.947909273       158.06812      0.947639604      158.071734     0.0531326569     -43.8216787
40.5391866          0.0469361248     -42.6060537      0.947788565      157.953919      0.947516912       157.95736     0.0533016137     -44.0491289
40.7545461          0.0470349945     -42.8484801      0.947666694      157.839167      0.947394111      157.842493     0.0534718866     -44.2758443
40.9710497          0.0471405089     -43.0824388       0.94754136      157.724069       0.94727386      157.727611     0.0536454729     -44.4993275
41.1887034          0.0472461388     -43.3163302      0.947415331      157.608369       0.94715294       157.61213     0.0538199405     -44.7225968
41.4075134           0.047351874     -43.5501525      0.947288603      157.492065      0.947031348      157.496045     0.0539952879     -44.9456499
41.6274857           0.047457704     -43.7839038      0.947161173      157.375153      0.946909081      157.379353     0.0541715135     -45.1684846
41.8486267          0.0475583978     -44.0228736      0.947036114      157.257571      0.946784298       157.26161     0.0543471236     -45.3958676
42.0709424          0.0476580989     -44.2628976       0.94691099      157.139362      0.946658446      157.143162       0.05452332     -45.6240022
42.2944392          0.0477578602        -44.5029      0.946785169      157.020536      0.946531895      157.024095      0.054700406     -45.8519143
42.5191232          0.0478576705     -44.7428787      0.946658649      156.901088       0.94640464      156.904405     0.0548783797     -46.0796012
42.7450009          0.0479593973      -44.986475      0.946533012        156.7811      0.946277064      156.784455     0.0550598387     -46.3088224
42.9720785          0.0480624108     -45.2323874      0.946407702      156.660539      0.946149026      156.664116     0.0552438927      -46.538932
43.2003625          0.0481654963     -45.4782549      0.946281691      156.539348      0.946020273      156.543146     0.0554288662     -46.7687834
43.4298591          0.0482686421     -45.7240752      0.946154974      156.417522        0.9458908      156.421545      0.055614757     -46.9983742
43.660575            0.048372381     -45.9688164      0.946027108      156.295147      0.945761306      156.299178     0.0558006806     -47.2308814
43.8925165          0.0484767485     -46.2123653       0.94589804      156.172227       0.94563186      156.176029     0.0559865643      -47.466618
44.1256901          0.0485811319     -46.4558478      0.945768248      156.048664       0.94550169      156.052236     0.0561733814     -47.7020869
44.3601025          0.0486855187     -46.6992618      0.945637729      155.924454       0.94537079      155.927796     0.0563611293     -47.9372853
44.5957601          0.0487922562     -46.9445956      0.945503744      155.799677      0.945238952      155.802973      0.056550435     -48.1701114
44.8326697          0.0489020957      -47.192424      0.945365433      155.674353      0.945106107      155.677849     0.0567414781     -48.3999227
45.0708378          0.0490119636     -47.4401357      0.945226348      155.548373      0.944972518      155.552069     0.0569334306     -48.6294545
45.3102711          0.0491218468     -47.6877285      0.945086486      155.421734       0.94483818      155.425632     0.0571262895     -48.8587042
45.5509764           0.049230879     -47.9369446      0.944950194      155.294505      0.944703966       155.29841     0.0573218743      -49.090507
45.7929604          0.0493389689     -48.1879728      0.944817935       155.16669      0.944569965      155.170388     0.0575203985     -49.3251238
46.0362299          0.0494470434     -48.4388978       0.94468493      155.038206      0.944435208      155.041696     0.0577198664     -49.5594243
46.2807918          0.0495550887     -48.6897173      0.944551176       154.90905      0.944299693       154.91233     0.0579202747      -49.793406
46.5266529          0.0496623853     -48.9445113      0.944415211      154.779119      0.944162608      154.782433     0.0581183203     -50.0281226
46.7738201          0.0497691818     -49.2019282      0.944277507      154.648444      0.944024214      154.651955     0.0583150844     -50.2632394
47.0223003          0.0498759413     -49.4592439      0.944139027      154.517083      0.943885042      154.520794     0.0585127614     -50.4980538
47.2721005          0.0499826491     -49.7164555      0.943999769      154.385036      0.943745087      154.388945     0.0587113475     -50.7325629
47.5232278          0.0500940943      -49.974236      0.943861679      154.252557       0.94360809        154.2563     0.0589157585     -50.9662676
47.7756892          0.0502066846     -50.2320369      0.943723294      154.119448      0.943471249      154.122934     0.0591223141     -51.1995138
48.0294917          0.0503192185     -50.4896839      0.943584127      153.985642      0.943333634      153.988868     0.0593297942     -51.4324191
48.2846425          0.0504318461     -50.7469816      0.943444104      153.851133      0.943194814      153.854134     0.0595382245     -51.6661687
48.5411488          0.0505463411     -51.0018286      0.943302488      153.715888      0.943050165       153.71909      0.059747969     -51.9135971
48.7990178          0.0506607299     -51.2564905      0.943160067      153.579935      0.942904695      153.583338     0.0599587107     -52.1606466
49.0582566          0.0507749961     -51.5109645      0.943016835      153.443269      0.942758399      153.446875      0.060170445     -52.4073142
49.3188726          0.0508897885     -51.7696069      0.942874934      153.306103      0.942614404      153.309768     0.0603824592     -52.6489653
49.5808731          0.0510053745     -52.0339182      0.942735117      153.168509      0.942473811      153.172036      0.060594458     -52.8840258
49.8442655          0.0511208649     -52.2980376      0.942594505      153.030194      0.942332419      153.033582     0.0608073699     -53.1187282
50.1090571          0.0512362423      -52.561962      0.942453093      152.891153      0.942190223      152.894403       0.06102119     -53.3530695
50.3752553          0.0513519071     -52.8259315      0.942306788      152.751125      0.942045066      152.754508     0.0612362066     -53.5924982
50.6428678          0.0514675038     -53.0897358      0.942158895      152.610315      0.941898686      152.613883     0.0614522068     -53.8325489
50.9119018          0.0515829376     -53.3533263      0.942010161      152.468767      0.941751474      152.472521     0.0616691341     -54.0722134
51.1823651          0.0517017261     -53.6183227      0.941860622      152.326592      0.941603043      152.330439     0.0618873861      -54.311279
51.4542652          0.0518275858     -53.8863513       0.94171031      152.183906      0.941452984      152.187656     0.0621073797     -54.5495232
51.7276097          0.0519533202     -54.1540723      0.941559141      152.040472      0.941302069      152.044124     0.0623282896     -54.7873692
52.0024063          0.0520789101     -54.4214826      0.941407109      151.896286      0.941150293      151.899839     0.0625501099      -55.024814
52.2786628          0.0522005019      -54.684284      0.941251441       151.75126      0.940996677      151.754841     0.0627771017     -55.2688706
52.5563868          0.0523213254     -54.9461997      0.941094499      151.605462      0.940842047      151.609088     0.0630056492     -55.5134584
52.8355862          0.0524418902     -55.2078249      0.940936661      151.458899      0.940686534       151.46257     0.0632351575     -55.7575972
53.1162689          0.0525611057     -55.4749256      0.940781992        151.3117       0.94053276      151.315307     0.0634637797     -56.0014193
53.3984426          0.0526789536     -55.7477881      0.940630707      151.163867      0.940380863      151.167296      0.063691411     -56.2449434
53.6821153          0.0527965493     -56.0203856      0.940478555       151.01526      0.940228095      151.018508     0.0639199644     -56.4880299
53.967295            0.052914427     -56.2927729      0.940325106      150.865866      0.940074204      150.868983     0.0641490703     -56.7303216
54.2539897          0.0530349492     -56.5651791      0.940168537      150.715655      0.939918118      150.718903     0.0643771603     -56.9703108
54.5422074          0.0531551795     -56.8372799      0.940011072      150.564656      0.939761142      150.568035     0.0646061305     -57.2098658
54.8319562          0.0532750961     -57.1090715      0.939852709      150.412865      0.939603268      150.416376     0.0648359737     -57.4489833
55.1232443          0.0533957961      -57.379353      0.939693878      150.260338      0.939445218      150.263992     0.0650704033     -57.6909881
55.4160799          0.0535183862     -57.6468914      0.939535013      150.107134      0.939287719       150.11095     0.0653132525     -57.9392015
55.710471           0.0536405887     -57.9140833      0.939375233      149.953125      0.939129311      149.957106     0.0655570657     -58.1869014
56.0064261            0.05376238     -58.1809246      0.939214532      149.798308       0.93896999      149.802453     0.0658018351     -58.4340848
56.3039535          0.0538837366     -58.4474116      0.939052906      149.642679       0.93880975      149.646989     0.0660475528     -58.6807488
56.6030613          0.0540067006     -58.7239732      0.938891761      149.486531      0.938647854      149.490669     0.0662878472     -58.9246171
56.9037582           0.054129476     -59.0011884      0.938729828      149.329593      0.938484956      149.333525     0.0665284047     -59.1677708
57.2060525          0.0542518401     -59.2780301      0.938566965      149.171831      0.938321122      149.175556     0.0667698388     -59.4104307
57.5099527           0.054373768     -59.5544942      0.938403165       149.01324      0.938156348      149.016758     0.0670121411     -59.6525933
57.8154673           0.054496295     -59.8298764       0.93823841      148.853803      0.937991273      148.857233     0.0672588189     -59.9001609
58.122605           0.0546190703     -60.1043756      0.938072694      148.693518      0.937825694      148.696947     0.0675088518     -60.1512805
58.4313742           0.054741333     -60.3784697       0.93790602      148.532392      0.937659159      148.535819     0.0677598115     -60.4018466
58.7417838          0.0548630569     -60.6521542      0.937738384      148.370419      0.937491663      148.373845      0.068011689     -60.6518558
59.0538424          0.0549855399     -60.9276041      0.937571153      148.207661      0.937324167      148.211156     0.0682643713     -60.8988022
59.3675587          0.0551097561     -61.2063775      0.937405327      148.044159      0.937157376      148.047847     0.0685177493     -61.1408878
59.6829416          0.0552334158     -61.4847098      0.937238544      147.879797      0.936989623      147.883679     0.0687719801      -61.382426
60                  0.0553564911     -61.7625964      0.937070797      147.714573      0.936820901       147.71865     0.0690270543     -61.6234134
