! TOUCHSTONE file generated by CST DESIGN STUDIO
! Date and time: Tue May 12 13:52:02 2026
! Project name: C:\sim_local\10base-t1m\passive_node_simulations_nostub.cst
! Tree item: Tasks\SPara1\S-Parameters
! Header version: 2024
! Port assignment regex: !\s*Touchstone port\s*([0-9]+)\s*=\s*(CST MWS port|CST DES external port|CST DES block port)\s*(.+)\s* \(\"(.*)\"\)(\s*mode\s*([0-9]+))?.*
! Touchstone port assignment:
! Touchstone port 1 = CST DES external port 1 ("PHY")
! Touchstone port 2 = CST DES external port 2 ("MDI")
# MHz S MA R 100
0.3                  0.292375328       118.14555      0.898528703     -154.123766      0.898582643     -154.121699       0.34925307      105.487199
0.301593713          0.290903538       117.92539      0.899227018     -154.262398      0.899288041     -154.260654       0.34749472      105.347276
0.303195893          0.289438352      117.705944      0.899917043      -154.40035      0.899985203      -154.39893      0.345744569      105.207847
0.304806585          0.287979749      117.487204      0.900598835     -154.537626      0.900674185     -154.536532        0.3440026      105.068906
0.306425833          0.286527708      117.269163      0.901272451     -154.674229      0.901355046     -154.673464      0.342268791       104.93045
0.308053682          0.285082694      117.051105      0.901947819     -154.809913      0.902030191      -154.80933      0.340548542      104.790896
0.30969018           0.283644635      116.833204      0.902622592     -154.944744      0.902699249     -154.944234      0.338840336      104.650619
0.311335372          0.282213179      116.615963      0.903289713     -155.078907      0.903360622     -155.078471      0.337140193      104.510756
0.312989303          0.280788301      116.399377      0.903949238     -155.212408      0.904014369     -155.212046      0.335448091      104.371302
0.31465202           0.279369376      116.183575       0.90459956     -155.345247      0.904661505     -155.345008      0.333760203      104.232209
0.316323571          0.277955262      115.968811      0.905237615     -155.477423      0.905303903     -155.477446      0.332069326      104.093403
0.318004001          0.276547674      115.754696      0.905868216     -155.608948      0.905938875     -155.609234      0.330386291      103.955006
0.319693359          0.275146588      115.541222      0.906491419     -155.739825      0.906566477     -155.740375      0.328711076      103.817013
0.321391691          0.273752187      115.328367      0.907107539     -155.870071      0.907186946     -155.870873      0.327044146      103.679439
0.323099045          0.272369934      115.115723      0.907723671     -156.000004      0.907805333     -156.000682      0.325398499      103.542759
0.32481547           0.270994164       114.90371      0.908332755     -156.129296      0.908416679      -156.12985      0.323760735      103.406466
0.326541012          0.269624854      114.692322      0.908934845     -156.257951      0.909021038      -156.25838       0.32213083      103.270557
0.328275722          0.268261981      114.481552      0.909529993     -156.385973      0.909618462     -156.386277      0.320508761      103.135028
0.330019646          0.266900371      114.272667      0.910124029     -156.513499        0.9102071     -156.513551      0.318888853      103.001026
0.331772836          0.265544538      114.064542      0.910711872      -156.64041      0.910788695     -156.640199      0.317276125      102.867545
0.333535338          0.264195001      113.857036      0.911292967     -156.766697      0.911363499     -156.766221      0.315671153      102.734462
0.335307204          0.262851734      113.650142      0.911867364     -156.892364      0.911931564     -156.891623      0.314073911      102.601771
0.337088483          0.261517845      113.441425      0.912433451     -157.016691        0.9124963     -157.016021      0.312486991      102.468721
0.338879225           0.26019082      113.232873      0.912992725     -157.140284      0.913055029      -157.13974      0.310908168      102.335919
0.340679479          0.258870143      113.024866      0.913545506     -157.263263      0.913607267     -157.262845      0.309336999      102.203481
0.342489297          0.257555789      112.817398      0.914091844     -157.385631      0.914153063     -157.385339      0.307773458      102.071402
0.34430873           0.256244488       112.61073      0.914643315      -157.50783      0.914698228     -157.507574      0.306205579      101.940693
0.346137828          0.254939042      112.404624      0.915189737     -157.629473      0.915237691     -157.629241      0.304643946      101.810475
0.347976643          0.253639765      112.199044      0.915729943     -157.750515       0.91577089     -157.750309      0.303089794       101.68064
0.349825227          0.252347038      111.994062      0.916263671     -157.870932      0.916297705     -157.870759      0.301543481      101.551099
0.351683631          0.251074686      111.792381      0.916780429     -157.989726      0.916812451     -157.989863      0.300018072      101.418971
0.353551907          0.249808567       111.59126      0.917291153     -158.107925      0.917321144     -158.108375      0.298500086      101.287146
0.355430109          0.248548654      111.390693      0.917795888     -158.225534      0.917823831     -158.226296      0.296989498       101.15562
0.357318288          0.247292478      111.190503      0.918298134     -158.342673      0.918324023     -158.343574      0.295487533      101.024535
0.359216498          0.246034182      110.990268      0.918806177     -158.459626      0.918830045     -158.460074      0.293997151      100.894236
0.361124792          0.244781915      110.790543      0.919308529     -158.575998      0.919330369      -158.57599      0.292514148       100.76423
0.363043223          0.243535651      110.591322      0.919805237     -158.691791       0.91982504     -158.691327      0.291038498      100.634512
0.364971846          0.242303959      110.394066      0.920295957     -158.807519       0.92031466     -158.806611      0.289563811      100.506061
0.366910715          0.241086605        110.1988      0.920780711     -158.923178      0.920799226     -158.921837      0.288090172      100.378886
0.368859883          0.239875168      110.004107      0.921259906     -159.038275      0.921278223     -159.036498      0.286623763      100.252035
0.370819407          0.238669622      109.809979      0.921733583     -159.152814      0.921751694     -159.150597      0.285164556      100.125504
0.37278934           0.237455231      109.613281      0.922208038     -159.265126       0.92221526     -159.263417      0.283715766      99.9987812
0.374769738          0.236244244      109.416515      0.922678227     -159.376589      0.922672674     -159.375552       0.28227469       99.872272
0.376760656          0.235039142      109.220198      0.923143139     -159.487489      0.923124731     -159.487128      0.280840752      99.7460581
0.378762151          0.233841555      109.025425      0.923597553     -159.598071      0.923570568     -159.598289      0.279414372       99.620399
0.380774279          0.232654222      108.834087      0.924032663     -159.708743      0.924008716     -159.709276      0.277996291      99.4957414
0.382797096          0.231472694      108.643277      0.924462528     -159.818865      0.924441639     -159.819714      0.276585303      99.3713839
0.384830659          0.230296947      108.452988      0.924887187      -159.92844      0.924869375     -159.929607      0.275181381      99.2473229
0.386875025          0.229128877      108.261684       0.92531527     -160.037377      0.925300186     -160.038382      0.273785187      99.1212336
0.388930252          0.227967176      108.070362      0.925741081     -160.145744      0.925728608     -160.146431      0.272396171      98.9946417
0.390996396          0.226811206      107.879503       0.92616192     -160.253575      0.926152055     -160.253943      0.271014076      98.8682811
0.393073517          0.225660313      107.689193      0.926577774     -160.360739      0.926569751     -160.360898       0.26963624      98.7431775
0.395161672          0.224513687      107.499547      0.926988611     -160.467065      0.926980706     -160.467265      0.268259297      98.6206781
0.39726092            0.22337274      107.310348      0.927394573     -160.572858      0.927386804     -160.573099      0.266889205      98.4984656
0.399371321          0.222237449      107.121591      0.927795695     -160.678123      0.927788083     -160.678404      0.265525939      98.3765366
0.401492932          0.221124279       106.93309      0.928197158     -160.782214      0.928182703     -160.783106      0.264172522       98.253755
0.403625815          0.220018329      106.745015      0.928594418     -160.885718       0.92857242     -160.887277      0.262826151      98.1311246
0.405770028          0.218918088      106.557381      0.928987049     -160.988699      0.928957439     -160.990927      0.261486524      98.0087434
0.407925631          0.217805695      106.369636      0.929379359      -161.09222      0.929346091     -161.093959      0.260157138      97.8876075
0.410092687          0.216686255      106.181906      0.929770154     -161.195974      0.929736045     -161.196402      0.258836978      97.7674348
0.412271254          0.215572223      105.994557      0.930156479     -161.299218       0.93012154     -161.298331      0.257523557      97.6475248
0.414461395          0.214463576      105.807581      0.930538366     -161.401958      0.930502608     -161.399749      0.256216849      97.5278744
0.416663171            0.2133764       105.62365      0.930912781     -161.503203      0.930875244     -161.500931      0.254911815      97.4060262
0.418876643          0.212299749      105.440998      0.931281879     -161.603631      0.931242244     -161.601695      0.253611759      97.2836122
0.421101874          0.211228522      105.258784      0.931646667     -161.703556      0.931604916     -161.701959      0.252318227      97.1613984
0.423338927          0.210162695      105.077003      0.932007178     -161.802983      0.931963293     -161.801726      0.251031191      97.0393809
0.425587863          0.209100668      104.895124      0.932362204     -161.901868      0.932317033     -161.900899      0.249749958      96.9171998
0.427848747          0.208040934      104.712623      0.932710595      -162.00017      0.932665831     -161.999385      0.248473842      96.7945011
0.430121641          0.206986561      104.530508      0.933054804     -162.097982      0.933010453     -162.097381      0.247204109      96.6719714
0.43240661           0.205937526      104.348774      0.933394862     -162.195305       0.93335093     -162.194889      0.245940733      96.5496069
0.434703718          0.204893861      104.167424      0.933730923     -162.292148      0.933687432     -162.291908      0.244683999      96.4274422
0.437013028          0.203858503      103.986864      0.934069593     -162.388716      0.934027368      -162.38821      0.243450151      96.3074759
0.439334607          0.202828404      103.806678       0.93440432     -162.484803      0.934363364      -162.48403      0.242222731      96.1876842
0.441668518          0.201803538      103.626863      0.934735133     -162.580411       0.93469545     -162.579369      0.241001713      96.0680634
0.444014829          0.200783884      103.447411      0.935062063     -162.675543      0.935023655     -162.674232      0.239787069        95.94861
0.446373603          0.199752855       103.26901      0.935382668     -162.769584      0.935340971     -162.768375      0.238570569      95.8309534
0.448744909          0.198722659      103.091124       0.93569879      -162.86299      0.935652606      -162.86198      0.237358242      95.7139174
0.451128812           0.19769753      102.913566      0.936011091     -162.955922      0.935960399     -162.955112      0.236152173      95.5970824
0.453525378          0.196677447       102.73633      0.936319601     -163.048384      0.936264377     -163.047775      0.234952335      95.4804454
0.455934677          0.195679952      102.558164      0.936630382     -163.140512      0.936579431     -163.139919      0.233752085      95.3610547
0.458356774          0.194696441      102.379683      0.936940557     -163.232246      0.936898379     -163.231574      0.232554557      95.2403095
0.460791739          0.193718031      102.201513       0.93724712     -163.323519      0.937213763     -163.322768      0.231363047      95.1196857
0.463239639          0.192744698      102.023649      0.937550096     -163.414335      0.937525609     -163.413504       0.23017753      94.9991793
0.465700543          0.191772475      101.843838      0.937844274     -163.505196      0.937823396     -163.504487      0.228997911      94.8827923
0.46817452           0.190802924      101.662926      0.938131686      -163.59591      0.938111191     -163.595444      0.227824265      94.7690412
0.470661641          0.189838433      101.482268      0.938415536     -163.686174       0.93839542     -163.685953      0.226656623       94.655507
0.473161973          0.188878981      101.301857      0.938695849     -163.775991      0.938676107     -163.776017      0.225494961      94.5421871
0.475675589          0.187928187      101.125075      0.938983045     -163.864885      0.938961588     -163.865061       0.22434142       94.424822
0.478202557          0.186984166      100.950295      0.939272134     -163.953094      0.939247891      -163.95337      0.223194848        94.30542
0.48074295           0.186045043      100.775811      0.939557907     -164.040864      0.939530857      -164.04124      0.222054112      94.1861127
0.483296839          0.185110794      100.601618       0.93984039     -164.128197      0.939810511     -164.128673      0.220919186      94.0668964
0.485864294          0.184177026      100.427895       0.94012019     -164.215989      0.940086023       -164.2165      0.219798614      93.9521471
0.488445389          0.183246862      100.254522      0.940396955     -164.303591      0.940358092      -164.30412      0.218686238      93.8387382
0.491040196          0.182321454      100.081448      0.940670558     -164.390764      0.940626981     -164.391312      0.217579737      93.7254946
0.493648787           0.18140078      99.9086676      0.940941023     -164.477511      0.940892713     -164.478078      0.216479087      93.6124136
0.496271236          0.180489486      99.7366617      0.941199755     -164.562423      0.941150846     -164.562688      0.215387087       93.496835
0.498907617          0.179583023      99.5649314      0.941455261     -164.646892        0.9414058      -164.64685      0.214300903      93.3813375
0.501558003          0.178681319      99.3934663      0.941707657     -164.730937      0.941657646     -164.730586      0.213220478      93.2659468
0.504222469          0.177784285      99.2228922      0.941960543     -164.814644       0.94190959     -164.814197      0.212143638      93.1502215
0.506901089          0.176891728      99.0543428      0.942220305      -164.89816      0.942167314     -164.898219      0.211066533      93.0333755
0.509593939          0.176003775      98.8860919      0.942477147      -164.98126      0.942422099     -164.981827      0.209995042      92.9166057
0.512301095          0.175120405      98.7181348      0.942731092     -165.063947      0.942673967     -165.065026      0.208929139      92.7999084
0.515022632           0.17423502      98.5465962       0.94297461     -165.145736      0.942917366     -165.146926      0.207861772      92.6818564
0.517758627          0.173350139      98.3728114      0.943210468     -165.226809       0.94315435     -165.227856       0.20679546      92.5629532
0.520509157          0.172469883       98.199176      0.943443404     -165.307473      0.943388421     -165.308377      0.205734565      92.4440817
0.523274299          0.171594537      98.0258647      0.943673551      -165.38776      0.943619555     -165.388522      0.204679476      92.3254449
0.52605413           0.170732827      97.8581153      0.943904208     -165.468541      0.943846485     -165.469204      0.203642187      92.2130235
0.528848728          0.169875627      97.6906216      0.944132063     -165.548921      0.944070595     -165.549485      0.202610384      92.1007193
0.531658173          0.169022916      97.5233791      0.944357135     -165.628902      0.944291903     -165.629366      0.201584042      91.9885293
0.534482542          0.168176716      97.3561937       0.94458191     -165.708268      0.944515844     -165.708538      0.200561773      91.8751922
0.537321915          0.167336886      97.1890647      0.944806287     -165.787033      0.944742145     -165.787024      0.199543612      91.7607601
0.540176373          0.166501505      97.0221619         0.945028     -165.865404      0.944965794     -165.865115      0.198530801      91.6463959
0.543045994           0.16567027      96.8554443      0.945246683     -165.943395      0.945186905     -165.942832      0.197523426      91.5320499
0.54593086           0.164839477      96.6884225      0.945457274     -166.021166      0.945406764     -166.020431      0.196522946       91.417101
0.548831051           0.16401306       96.521606      0.945665242      -166.09855      0.945624058     -166.097642      0.195527747       91.302198
0.551746649          0.163190999        96.35499      0.945870606     -166.175551      0.945838806     -166.174468      0.194537805      91.1873377
0.554677736          0.162364226      96.1889065      0.946072978     -166.252257      0.946039865     -166.251272      0.193554919      91.0719469
0.557624394          0.161537406      96.0231743      0.946272608     -166.328624      0.946233021     -166.327869      0.192578119      90.9563072
0.560586706          0.160714827      95.8576282      0.946469716     -166.404615      0.946423607     -166.404091      0.191606516      90.8406845
0.563564754          0.159906832      95.6909234      0.946672518     -166.480625      0.946622829     -166.480093      0.190635179      90.7263806
0.566558623          0.159122565      95.5218758      0.946888309     -166.557003      0.946840645      -166.55601      0.189659745      90.6145853
0.569568397          0.158342579      95.3529946      0.947101754     -166.633015      0.947056129     -166.631558      0.188689377      90.5028691
0.57259416           0.157566854      95.1842754      0.947312869     -166.708663      0.947269298     -166.706741       0.18772405      90.3912295
0.575635997          0.156788959      95.0165886      0.947516283     -166.783131      0.947469125     -166.781081       0.18676895       90.278913
0.578693993          0.156009368      94.8498533      0.947712405      -166.85648      0.947656408     -166.854613       0.18582369       90.165952
0.581768234          0.155233978      94.6832549      0.947906215     -166.929463      0.947841335     -166.927782      0.184883452      90.0530292
0.584858807          0.154462768      94.5167887      0.948097728     -167.002084      0.948023923     -167.000588      0.183948214      89.9401418
0.587965798          0.153695119       94.350855       0.94828649     -167.074341      0.948204968     -167.073034      0.183018309      89.8271102
0.591089295           0.15292609      94.1887684      0.948468693     -167.146204      0.948390884     -167.145129      0.182096603      89.7124811
0.594229385          0.152161107      94.0268557      0.948648676      -167.21771        0.9485746     -167.216867      0.181179836      89.5978476
0.597386156           0.15140015      93.8651125      0.948826456      -167.28886      0.948756132     -167.288251      0.180267988      89.4832064
0.600559698            0.1506432      93.7035348      0.949002048     -167.359656      0.948935495     -167.359284      0.179361034      89.3685544
0.603750098           0.14989272      93.5408348      0.949180157     -167.430207      0.949109006     -167.429996      0.178452886      89.2547382
0.606957447          0.149146949      93.3779116      0.949357482     -167.500438      0.949279301     -167.500369      0.177547827      89.1411667
0.610181834          0.148405166      93.2151244      0.949532707     -167.570322      0.949447447     -167.570397      0.176647554      89.0275976
0.613423351          0.147667352      93.0524692      0.949705849     -167.639861      0.949613458     -167.640081      0.175752045       88.914028
0.616682088          0.146930963      92.8884336       0.94987208     -167.708812      0.949779181     -167.709212      0.174865039      88.7981014
0.619958136          0.146196507      92.7232727      0.950032362     -167.777223      0.949944324     -167.777832       0.17398578      88.6802261
0.623251589          0.145465996       92.558179      0.950190585     -167.845293      0.950107451     -167.846111      0.173111239      88.5622685
0.626562537           0.14473941      92.3931476      0.950346763     -167.913024      0.950268579     -167.914052      0.172241392      88.4442248
0.629891074           0.14402085      92.2285951       0.95050543     -167.980526      0.950429513     -167.981531      0.171377403      88.3290886
0.633237294          0.143311781       92.064687      0.950668267     -168.047838       0.95059092     -168.048505      0.170519712      88.2180078
0.63660129           0.142606601      91.9008547      0.950829178     -168.114817      0.950750385     -168.115143      0.169666702      88.1069435
0.639983157          0.141905292      91.7370938      0.950988177     -168.181463      0.950907922     -168.181448      0.168818353      87.9958934
0.643382989          0.141206518      91.5755958      0.951146312      -168.24795      0.951066904     -168.247695      0.167967352      87.8833616
0.646800883           0.14050937      91.4177809      0.951304248     -168.314384      0.951229459     -168.314058       0.16710907       87.768384
0.650236934          0.139815933      91.2601181      0.951460325     -168.380496      0.951390178     -168.380097      0.166255249      87.6533594
0.653691238          0.139126188      91.1026042      0.951614556     -168.446287      0.951549073     -168.445816      0.165405868      87.5382848
0.657163894          0.138438826        90.94206       0.95176716     -168.511596      0.951702075     -168.511129       0.16456635      87.4243206
0.660654997          0.137753432      90.7772586      0.951918253     -168.576363      0.951847728     -168.576009      0.163738686      87.3119077
0.664164646          0.137071767      90.6124736      0.952067578     -168.640812      0.951991582      -168.64057      0.162915488      87.1994743
0.66769294           0.136393814      90.4477004      0.952215149     -168.704943       0.95213365     -168.704815      0.162096733      87.0870178
0.671239977          0.135721281      90.2849306      0.952357242     -168.768911      0.952269939     -168.768939      0.161286223        86.97228
0.674805858          0.135053845      90.1238687       0.95249451     -168.832693      0.952401149     -168.832912      0.160483292      86.8555977
0.678390682          0.134390062       89.962879      0.952630048     -168.896166      0.952530599     -168.896578      0.159684768      86.7388149
0.68199455           0.133729914      89.8019575      0.952763868     -168.959331      0.952658302     -168.959936      0.158890631      86.6219284
0.685617563          0.133079185      89.6417397      0.952906737     -169.022437      0.952804916     -169.022548      0.158091865      86.5086671
0.689259823          0.132433978      89.4818101      0.953051573     -169.085321      0.952956839     -169.084706      0.157294387      86.3966185
0.692921432          0.131792333      89.3219536      0.953194798     -169.147903      0.953107194     -169.146558      0.156501181      86.2845421
0.696602492          0.131154326      89.1620362       0.95333613      -169.21017      0.953255338     -169.208124      0.155712434      86.1723792
0.700303108          0.130523372      88.9972452      0.953464725     -169.271609      0.953377241     -169.270021      0.154935748      86.0580396
0.704023383          0.129896055      88.8324614      0.953591716      -169.33275      0.953497493     -169.331621      0.154163314      85.9436269
0.707763422          0.129272358       88.667681      0.953717112     -169.393594      0.953616105     -169.392926      0.153395111      85.8291382
0.711523329          0.128647256      88.5035144      0.953842578     -169.454061      0.953738958     -169.453617      0.152628513      85.7151811
0.71530321           0.128017305      88.3403571      0.953969251     -169.514096      0.953870071     -169.513478      0.151861727      85.6021816
0.719103171          0.127390825      88.1771732      0.954094388     -169.573836      0.953999681     -169.573044      0.151099077      85.4891272
0.722923319            0.1267678      88.0139582      0.954217999     -169.633284        0.9541278     -169.632317      0.150340542      85.3760156
0.726763761          0.126145225      87.8520602      0.954343963     -169.692944      0.954247152     -169.692172      0.149591128      85.2615287
0.730624605          0.125525248      87.6905113       0.95446949      -169.75245      0.954363094      -169.75197      0.148847137      85.1466092
0.73450596            0.12490863      87.5289572      0.954593586     -169.811672      0.954477544     -169.811486      0.148107235      85.0315963
0.738407933          0.124297513      87.3690309      0.954715326      -169.87035      0.954592297     -169.870437      0.147373405      84.9167415
0.742330636           0.12369536      87.2134187      0.954833202     -169.928064      0.954710275     -169.928365      0.146648877      84.8024594
0.746274177          0.123096514       87.057876      0.954949659     -169.985495      0.954826845     -169.986008      0.145928425      84.6880887
0.750238667          0.122500962      86.9024001      0.955064709     -170.042644      0.954942017     -170.043371      0.145212027      84.5736269
0.754224219          0.121919361      86.7423066      0.955179512     -170.099786      0.955065692     -170.100165      0.144483882      84.4518799
0.758230943          0.121343373      86.5812337      0.955293176     -170.156711      0.955190134      -170.15662      0.143756315      84.3283993
0.762258953          0.120770744      86.4201598      0.955405466     -170.213361      0.955313274     -170.212798      0.143032624      84.2046853
0.766308361          0.120193627      86.2590342      0.955516977     -170.269954      0.955426339     -170.269153      0.142319671      84.0863756
0.770379281          0.119609682      86.0978255       0.95562792     -170.326552      0.955526728     -170.325819       0.14161951      83.9752437
0.774471827          0.119028962       85.936586      0.955737565      -170.38288      0.955625749     -170.382215       0.14092328      83.8640689
0.778586114          0.118450387      85.7751156      0.955845234     -170.438846      0.955723635     -170.438253      0.140229307      83.7517277
0.782722258          0.117866154      85.6119379      0.955945885     -170.493758      0.955822048     -170.493275      0.139525425      83.6299299
0.786880375          0.117285089      85.4486517      0.956045213     -170.548402      0.955919127     -170.548029      0.138825315      83.5079217
0.791060581          0.116707178      85.2852526      0.956143226     -170.602781      0.956014882     -170.602517      0.138128959      83.3856993
0.795262994          0.116137328      85.1230186      0.956243709     -170.657136      0.956109672      -170.65685      0.137439343      83.2650899
0.799487732          0.115583276      84.9640377      0.956352669     -170.711848       0.95620408     -170.711197      0.136761209      83.1490313
0.803734913          0.115032354      84.8050526      0.956460448     -170.766301      0.956297222     -170.765284      0.136086842      83.0328504
0.808004657          0.114484547      84.6460605      0.956567054     -170.820497      0.956389109     -170.819112      0.135416224      82.9165447
0.812297083           0.11393984      84.4870586      0.956672496     -170.874437      0.956479749     -170.872683      0.134749337       82.800112
0.816612313          0.113392925      84.3298374      0.956764953     -170.927831      0.956578303     -170.926279       0.13408237      82.6848536
0.820950466          0.112848166      84.1729136      0.956854253     -170.980921      0.956677202     -170.979668      0.133418451      82.5697014
0.825311666          0.112306416      84.0159905      0.956942347     -171.033758      0.956774949     -171.032806      0.132758187      82.4544402
0.829696034          0.111767661      83.8590653      0.957029244     -171.086343      0.956871555     -171.085694      0.132101559      82.3390678
0.834103693           0.11123211      83.6994711      0.957117871     -171.138685       0.95696809     -171.138146      0.131451262      82.2200769
0.838534767          0.110699751      83.5375272      0.957207857     -171.190784       0.95706443      -171.19019      0.130806911      82.0978889
0.842989381          0.110170386       83.375495      0.957296717     -171.242637      0.957159682     -171.241987       0.13016617      81.9754809
0.847467659          0.109644003      83.2133712       0.95738446     -171.294245      0.957253852     -171.293539      0.129529022      81.8528498
0.851969728          0.109126398      83.0513425      0.957474573     -171.345502       0.95734561     -171.344798      0.128892978      81.7306626
0.856495714          0.108624431      82.8896617      0.957571186     -171.396281      0.957433378     -171.395705      0.128255091       81.609724
0.861045743          0.108125495      82.7279308      0.957666771     -171.446816      0.957520068     -171.446371      0.127620703       81.488586
0.865619944          0.107629577      82.5661474      0.957761337     -171.497111      0.957605688     -171.496796      0.126989795       81.367246
0.870218444          0.107131861      82.4034956      0.957852512     -171.547299      0.957691301     -171.547034      0.126364586      81.2462692
0.874841374          0.106615829      82.2371143      0.957932132     -171.597837      0.957780564     -171.597264      0.125752748      81.1276283
0.879488862          0.106102674      82.0705502      0.958010703     -171.648141      0.957868834     -171.647259      0.125144411      81.0088262
0.88416104           0.105592384      81.9037992      0.958088232     -171.698213      0.957956121     -171.697021      0.124539558      80.8898608
0.888858037          0.105087771      81.7373603      0.958166327     -171.747986      0.958041663     -171.746503      0.123936645      80.7707933
0.893579988          0.104603137      81.5738248      0.958253107     -171.797116      0.958121579     -171.795469      0.123327907      80.6519444
0.898327022          0.104121403      81.4101905      0.958338931     -171.846015      0.958200498     -171.844204      0.122722543       80.532932
0.903099275          0.103642556       81.246455      0.958423807     -171.894685       0.95827843     -171.892707      0.122120536       80.413754
0.90789688           0.103165401      81.0850121       0.95850649     -171.943206      0.958354728      -171.94122      0.121521792      80.2935088
0.912719972          0.102685779      80.9342012      0.958582678     -171.991856      0.958427158     -171.990568      0.120926031      80.1690617
0.917568686          0.102208856      80.7834767      0.958657912     -172.040282      0.958498612     -172.039697      0.120333578      80.0443665
0.922443158          0.101734617      80.6328378      0.958732199     -172.088488      0.958569096     -172.088609      0.119744418      79.9194202
0.927343525          0.101262387      80.4754897      0.958804419     -172.136537      0.958639098     -172.137013       0.11915934      79.7978207
0.932269924          0.100791447      80.3027198      0.958873166     -172.184511      0.958709239     -172.184543       0.11857934       79.684185
0.937222495           0.10032334      80.1296961      0.958940974     -172.232268      0.958778444     -172.231852      0.118002593      79.5704723
0.942201375         0.0998580528      79.9564149       0.95900785     -172.279807       0.95884672     -172.278943      0.117429084      79.4566817
0.947206705         0.0993978833      79.7911244      0.959075671     -172.326688      0.958917898     -172.325414      0.116856435      79.3360895
0.952238626         0.0989426496      79.6336929      0.959144392     -172.372925      0.958991884     -172.371279      0.116284706      79.2087869
0.957297277         0.0984900861      79.4762256      0.959212223     -172.418947      0.959065013     -172.416927      0.115716151      79.0811975
0.962382803         0.0980401797      79.3187213      0.959279171     -172.464756       0.95913729     -172.462358      0.115150755      78.9533183
0.967495344         0.0975791649      79.1589881      0.959348064      -172.51058      0.959204014     -172.508375      0.114601022      78.8309097
0.972635045         0.0971169658       78.998549      0.959416896     -172.556254      0.959268608     -172.554402      0.114057899      78.7098799
0.977802051          0.096657307      78.8379896       0.95948491     -172.601719      0.959332357     -172.600222      0.113517971      78.5886698
0.982996505         0.0962030746      78.6765232      0.959552743      -172.64691      0.959396157     -172.645742      0.112980269      78.4664945
0.988218554         0.0957700965      78.5098704      0.959623839      -172.69147      0.959464858     -172.690456      0.112439573      78.3390466
0.993468345         0.0953397843      78.3430566      0.959694159     -172.735821      0.959532771     -172.734963      0.111901993      78.2113227
0.998746025          0.094912126      78.1760797      0.959763709     -172.779965      0.959599902     -172.779265      0.111367516      78.0833201
1.00405174          0.0944758339      78.0082095      0.959826161     -172.824579      0.959663643     -172.823672      0.110827453      77.9575592
1.00938564          0.0940329573      77.8395341      0.959882669     -172.869541       0.95972447     -172.868127      0.110283358      77.8336088
1.01474788          0.0935926035      77.6706265      0.959938358     -172.914306      0.959784503     -172.912382      0.109742228      77.7094357
1.02013861          0.0931554739      77.5016279      0.959993745     -172.958823      0.959843827     -172.956422      0.109204829      77.5850271
1.02555797          0.0927394779      77.3362066      0.960061729     -173.001778      0.959904479     -172.999817      0.108690794      77.4601169
1.03100612          0.0923260388      77.1706404      0.960129002     -173.044532      0.959964378     -173.043015      0.108179797      77.3349825
1.03648322          0.0919151446      77.0049273      0.960195569     -173.087086      0.960023531     -173.086016      0.107671825      77.2096222
1.04198941          0.0915074169      76.8362015      0.960254869     -173.129333      0.960081842     -173.128621       0.10715322      77.0798426
1.04752485          0.0911027092       76.665248      0.960308778     -173.171306      0.960139341     -173.170889      0.106627875      76.9467742
1.0530897           0.0907005756      76.4940757      0.960361928     -173.213083      0.960196101     -173.212963      0.106105398      76.8133516
1.05868411          0.0902967562      76.3260745      0.960414994      -173.25484      0.960253933     -173.254943      0.105590057      76.6805547
1.06430824          0.0898779794      76.1718104      0.960470074     -173.297118      0.960318446      -173.29714      0.105095105      76.5514648
1.06996225          0.0894614673      76.0175112      0.960524464     -173.339208      0.960382312     -173.339148      0.104603089      76.4221019
1.07564629          0.0890472077      75.8631756      0.960578166      -173.38111      0.960445535     -173.380968      0.104113994       76.292464
1.08136053          0.0886472331      75.6931542      0.960632192     -173.423283      0.960501902     -173.422689      0.103620517      76.1676713
1.08710513           0.088251529      75.5205086      0.960685687     -173.465344      0.960556655     -173.464237      0.103128768      76.0434609
1.09288024          0.0878582579       75.347614      0.960738504     -173.507223      0.960610744     -173.505602      0.102639842      75.9190544
1.09868603          0.0874675546      75.1749173      0.960790962     -173.548899      0.960664205      -173.54678      0.102153565      75.7942796
1.10452267          0.0870827342      75.0128771      0.960850383     -173.589825       0.96071771     -173.587706      0.101666225      75.6651529
1.11039031          0.0867002417      74.8507479      0.960909187      -173.63057      0.960770569      -173.62845      0.101181653      75.5357587
1.11628912          0.0863200656      74.6885288      0.960967379     -173.671135      0.960822787     -173.669014      0.100699834      75.4060949
1.12221927          0.0859421945      74.5262193      0.961024963     -173.711521      0.960874367       -173.7094      0.100220754      75.2761598
1.12818093          0.0855650931       74.359529      0.961076337      -173.75195      0.960924839     -173.749716     0.0997530411      75.1544902
1.13417425          0.0851893714      74.1900225      0.961123641      -173.79234      0.960974404     -173.789924     0.0992934069      75.0379829
1.14019941          0.0848159664      74.0203237      0.961170331     -173.832555      0.961023365     -173.829956     0.0988365222      74.9214155
1.14625659          0.0844448671      73.8504311      0.961216412     -173.872598      0.961071725     -173.869813     0.0983823735      74.8047886
1.15234593          0.0840744651      73.6815151      0.961261241     -173.912544      0.961118631     -173.909687     0.0979253287      74.6818349
1.15846763          0.0837025529      73.5151876      0.961303935     -173.952502      0.961162909     -173.949839     0.0974577514      74.5438787
1.16462185          0.0833328528      73.3487094      0.961346003     -173.992292       0.96120657     -173.989825     0.0969928135      74.4055351
1.17080876          0.0829653537      73.1820794      0.961387452     -174.031916      0.961249619     -174.029647     0.0965305024      74.2668011
1.17702854          0.0826007298      73.0153783      0.961429222      -174.07128      0.961293271     -174.069251      0.096071916      74.1277961
1.18328136          0.0822467378      72.8495428      0.961481974     -174.109298      0.961351289     -174.108039     0.0956296388      73.9899251
1.1895674           0.0818949477      72.6835749      0.961534207     -174.147147      0.961408813      -174.14666     0.0951900281      73.8516953
1.19588683          0.0815453487       72.517474      0.961585923     -174.184827      0.961465847     -174.185118     0.0947530719      73.7131047
1.20223983          0.0811979302      72.3512396      0.961637127      -174.22234      0.961522397     -174.223412     0.0943187584       73.574151
1.20862659          0.0808474994      72.1816227      0.961685415     -174.260176      0.961566751     -174.261153     0.0938805683      73.4409791
1.21504727          0.0804989295      72.0116187      0.961733039     -174.297877      0.961609874     -174.298706     0.0934445572      73.3078894
1.22150206          0.0801525162      71.8414166      0.961780147     -174.335417      0.961652457     -174.336097     0.0930110952        73.17452
1.22799114          0.0798082492      71.6710153      0.961826741     -174.372795      0.961694506     -174.373326       0.09258017      73.0408696
1.23451469          0.0794585535      71.5011265      0.961875662     -174.410498      0.961737316     -174.410775     0.0921595785      72.9054247
1.2410729           0.0791101028      71.3311005      0.961924421     -174.448098      0.961779761     -174.448109     0.0917423996      72.7695176
1.24766595          0.0787637074      71.1608572      0.961972714     -174.485543      0.961821705     -174.485286     0.0913277739      72.6333111
1.25429403          0.0784193569      70.9903953      0.962020546     -174.522835       0.96186315     -174.522309     0.0909156897      72.4968041
1.26095731          0.0780982371      70.8134093      0.962053962     -174.560081      0.961904609     -174.559315     0.0904910448      72.3650035
1.26765599          0.0777805717      70.6358349      0.962086009     -174.597182      0.961945606     -174.596177     0.0900679226      72.2332549
1.27439026          0.0774650994      70.4580459      0.962117514     -174.634132      0.961986115     -174.632887     0.0896472024      72.1012621
1.2811603           0.0771506433       70.280623      0.962149147     -174.670875      0.962025914       -174.6694     0.0892296776      71.9686584
1.28796631          0.0768222013      70.1110026      0.962189435     -174.706668      0.962062153     -174.705125     0.0888256756      71.8307357
1.29480848          0.0764957762       69.941198      0.962229266      -174.74231       0.96209791     -174.740697     0.0884241204      71.6925006
1.30168699           0.076171358      69.7712084      0.962268642     -174.777802      0.962133188     -174.776119     0.0880250004       71.553952
1.30860204          0.0758504576      69.6010041      0.962307118     -174.813271      0.962169621     -174.811637     0.0876285714      71.4147418
1.31555383          0.0755356805      69.4305558      0.962343916     -174.848936       0.96221002     -174.847678     0.0872352856      71.2742646
1.32254255          0.0752228963      69.2599541      0.962380255     -174.884456      0.962249977     -174.883575     0.0868444099      71.1334538
1.3295684           0.0749120953      69.0891991      0.962416139     -174.919832      0.962289497     -174.919331     0.0864559333      70.9923081
1.33663157          0.0746020581      68.9206578      0.962452745     -174.954815      0.962327408     -174.954363      0.086068861       70.853614
1.34373226           0.074292955      68.7539612      0.962489897     -174.989446      0.962363911     -174.988767     0.0856833264      70.7169579
1.35087067          0.0739857761      68.5871476      0.962526628     -175.023934      0.962399986     -175.023026     0.0853001306      70.5800353
1.35804701          0.0736805114      68.4202173       0.96256294     -175.058279      0.962435635     -175.057141     0.0849192624      70.4428458
1.36526147          0.0733762974      68.2434805      0.962596761     -175.093451        0.9624781     -175.092149     0.0845300569      70.3080602
1.37251425          0.0730739258      68.0653577      0.962629902     -175.128601      0.962521039     -175.127143     0.0841418286      70.1733477
1.37980557          0.0727734909       67.886985      0.962662609     -175.163616      0.962563603     -175.162001     0.0837558199      70.0383937
1.38713562          0.0724760731      67.7110379      0.962696284     -175.198076      0.962605637     -175.196533     0.0833739345       69.897349
1.39450461          0.0721829535      67.5408062      0.962732633     -175.231469      0.962646953     -175.230508     0.0829985282      69.7430122
1.40191274          0.0718917142      67.3704376      0.962768594     -175.264726      0.962687907     -175.264349     0.0826254077      69.5881675
1.40936023          0.0716023457      67.1999328      0.962804171     -175.297845        0.9627285     -175.298056     0.0822545631      69.4328124
1.41684729          0.0713067719       67.018276      0.962844317     -175.331835      0.962757118     -175.331924     0.0818860021      69.2984854
1.42437412          0.0710110287       66.833483      0.962885381     -175.365949      0.962782357     -175.365735      0.081519618      69.1694809
1.43194093           0.070717166      66.6483365      0.962926108     -175.399935      0.962807172     -175.399416     0.0811553854       69.040352
1.43954794          0.0704319796      66.4691951      0.962962343       -175.4334      0.962838037      -175.43267     0.0807970653      68.9047926
1.44719537          0.0701615216      66.3019436      0.962990342     -175.465992      0.962880803     -175.465234     0.0804480907      68.7570149
1.45488342          0.0698929047      66.1346537      0.963017956     -175.498454      0.962923263     -175.497666     0.0801013523      68.6088723
1.46261231          0.0696261194      65.9673274      0.963045189     -175.530785      0.962965419      -175.52997     0.0797568403      68.4603641
1.47038226          0.0693452542      65.7945367      0.963074926     -175.563487      0.962991948     -175.562685     0.0794119232      68.3193512
1.47819348          0.0690654321      65.6213355      0.963104436     -175.596085      0.963017409       -175.5953     0.0790690507      68.1784364
1.48604621           0.068787363      65.4479669      0.963133592     -175.628558      0.963042498     -175.627789     0.0787283302      68.0372662
1.49394065          0.0685106669      65.2694154      0.963164198     -175.660897      0.963073961     -175.659808     0.0783868989      67.8979181
1.50187702          0.0682355245      65.0876209      0.963195537     -175.693106      0.963109106     -175.691496      0.078045875        67.75958
1.50985556          0.0679621563      64.9055394      0.963226546     -175.725193       0.96314394     -175.723059     0.0777069354       67.621026
1.51787649          0.0676905541      64.7231706      0.963257226     -175.757158      0.963178465     -175.754497     0.0773700694      67.4822565
1.52594002          0.0674202176      64.5465598      0.963283193     -175.789205      0.963205983      -175.78645     0.0770358067      67.3298718
1.53404639          0.0671514582      64.3712737      0.963307711     -175.821186      0.963231479     -175.818444     0.0767037906      67.1737086
1.54219583          0.0668843847      64.1958106      0.963331877      -175.85305      0.963256628     -175.850322      0.076373883      67.0170956
1.55038855          0.0666189882      64.0201709      0.963355693     -175.884798      0.963281433     -175.882085     0.0760460746      66.8600316
1.5586248           0.0663616839      63.8394097      0.963377116     -175.916008      0.963302713     -175.913507     0.0757154746      66.7038849
1.56690481          0.0661167234       63.650291      0.963394817     -175.946403        0.9633184     -175.944443     0.0753788826      66.5495477
1.5752288           0.0658736136      63.4609062      0.963412148     -175.976679      0.963333707     -175.975262     0.0750442773      66.3947761
1.58359701          0.0656323467      63.2712566      0.963429109     -176.006836      0.963348637     -176.005966      0.074711649      66.2395682
1.59200968           0.065391987      63.0820705      0.963446302     -176.036927      0.963364205     -176.036568     0.0743812844      66.0841891
1.60046703          0.0651384276      62.9043511       0.96347279     -176.067739      0.963395772     -176.067259     0.0740576455      65.9327015
1.60896932          0.0648864968      62.7264473      0.963498973     -176.098439      0.963427062     -176.097838     0.0737359633      65.7808502
1.61751677          0.0646361861      62.5483594      0.963524853     -176.129029      0.963458076     -176.128306     0.0734162282      65.6286345
1.62610964          0.0643874869      62.3700881      0.963550431     -176.159508      0.963488819     -176.158663     0.0730984306      65.4760536
1.63474815          0.0641437075      62.1906169      0.963575916     -176.189616      0.963514645     -176.188728     0.0727983359       65.326348
1.64343255          0.0639022106      62.0107657      0.963601169     -176.219562      0.963539276     -176.218646      0.072503354      65.1770064
1.65216308          0.0636623358      61.8307365      0.963626153     -176.249399      0.963563632     -176.248456     0.0722103676      65.0273979
1.66094             0.0634240749      61.6505304       0.96365087     -176.279128      0.963587715     -176.278157     0.0719193674      64.8775239
1.66976354          0.0631887981      61.4693261      0.963674835     -176.309068      0.963614278     -176.307924     0.0716265348      64.7282297
1.67863395           0.062955708      61.2876016      0.963698325     -176.339038      0.963641743     -176.337658     0.0713340415        64.57903
1.68755149          0.0627242193      61.1057035      0.963721544     -176.368906       0.96366896     -176.367288     0.0710434732      64.4295718
1.6965164           0.0624943238      60.9236333      0.963744495     -176.398671      0.963695932     -176.396815     0.0707548206      64.2798561
1.70552894          0.0622692446       60.744432      0.963770611     -176.427936      0.963714669     -176.426181     0.0704568812      64.1262731
1.71458936           0.062047398      60.5666841      0.963798237     -176.456894      0.963729022     -176.455416     0.0701550579      63.9704902
1.7236979           0.0618271244      60.3888516      0.963825625     -176.485749      0.963743065     -176.484549     0.0698550521      63.8143332
1.73285484          0.0616084158      60.2109368      0.963852778     -176.514502      0.963756801     -176.513582     0.0695568544      63.6578014
1.74206042          0.0613863359      60.0399118      0.963870208     -176.543588      0.963777097      -176.54278     0.0692695244      63.5009475
1.7513149           0.0611636479      59.8718195      0.963883363     -176.572761      0.963800026     -176.571992      0.068987855      63.3437718
1.76061855          0.0609423997       59.703747      0.963896223     -176.601837      0.963822713     -176.601108     0.0687080361      63.1862579
1.76997162          0.0607225828      59.5356967      0.963908788     -176.630819      0.963845161     -176.630129     0.0684300588      63.0284064
1.77937438          0.0604993928      59.3503706      0.963933393     -176.659891      0.963866226      -176.65898     0.0681502449      62.8697709
1.78882709          0.0602766999      59.1611949      0.963960348     -176.688909      0.963886806     -176.687721     0.0678714703      62.7106875
1.79833002          0.0600555033      58.9717481      0.963987092     -176.717835       0.96390714     -176.716369     0.0675944887      62.5512476
1.80788343          0.0598359427      58.7819184      0.964013552     -176.746669      0.963927403     -176.744927     0.0673194067      62.3918639
1.81748759          0.0596227767      58.5880836      0.964037331     -176.775428      0.963953144     -176.773516     0.0670499071      62.2459008
1.82714277          0.0594111347      58.3939613        0.9640609     -176.804097      0.963978685     -176.802013     0.0667821419      62.0997849
1.83684924          0.0592010098      58.1995525      0.964084261     -176.832677      0.964004029     -176.830421     0.0665161017      61.9535186
1.84660728          0.0589943685      58.0125448      0.964102765      -176.86088      0.964026014     -176.858536     0.0662491974      61.8038661
1.85641716          0.0587936467      57.8429287      0.964110448     -176.888339      0.964040587     -176.886097     0.0659781384      61.6466075
1.86627915          0.0585943216      57.6733754      0.964117843     -176.915707      0.964054909     -176.913568      0.065708771      61.4890362
1.87619353          0.0583963849      57.5038882      0.964124953     -176.942984      0.964068983     -176.940948     0.0654410864      61.3311526
1.88616058          0.0582035707      57.3236367       0.96414398     -176.970353      0.964085641     -176.968504     0.0651800763      61.1742912
1.89618057          0.0580141985      57.1375976      0.964169255     -176.997731       0.96410357     -176.996114     0.0649233994      61.0178657
1.9062538           0.0578263039      56.9514659      0.964194356     -177.025022      0.964121284     -177.023638     0.0646684122      60.8611819
1.91638054          0.0576377077      56.7655821       0.96421854     -177.052269      0.964138896     -177.051109     0.0644156957      60.7033411
1.92656108          0.0574225858      56.5838813      0.964232959     -177.079979      0.964157746     -177.078908      0.064172276      60.5336145
1.9367957           0.0572087295      56.4019818      0.964247159     -177.107609      0.964176402     -177.106627     0.0639306168      60.3634979
1.9470847            0.056996131      56.2198837       0.96426114     -177.135158      0.964194865     -177.134267     0.0636907105      60.1929925
1.95742835          0.0568064092      56.0383418      0.964271462     -177.161959      0.964205876     -177.161285     0.0634407216      60.0294925
1.96782695          0.0566353053      55.8573907      0.964278796     -177.188143      0.964210857     -177.187789     0.0631829274      59.8715671
1.97828079          0.0564656543      55.6764877      0.964285874     -177.214241      0.964215568      -177.21421      0.062926692       59.713358
1.98879016          0.0562936414      55.4942363      0.964293802     -177.240459      0.964221894     -177.240634     0.0626729594      59.5542892
1.99935537          0.0560908001      55.2999909      0.964310864     -177.268332      0.964243928     -177.267694     0.0624288635      59.3900402
2.0099767           0.0558892527      55.1054282      0.964327735     -177.296131      0.964265799     -177.294678     0.0621863708      59.2254679
2.02065446          0.0556889923      54.9105478      0.964344415      -177.32386      0.964287508     -177.321585     0.0619454733      59.0605735
2.03138894          0.0555208224      54.7133515      0.964371525     -177.350605      0.964305354     -177.348353     0.0617070967      58.8900549
2.04218044          0.0553663207      54.5152567      0.964402715     -177.376914      0.964321554     -177.375022     0.0614707026      58.7170403
2.05302928          0.0552133361      54.3170924      0.964433802     -177.403147       0.96433757     -177.401616     0.0612359202      58.5436135
2.06393575          0.0550444303      54.1270522      0.964450921     -177.429158      0.964349702     -177.427791     0.0610066033      58.3738725
2.07490016          0.0548492143       53.949882      0.964445878     -177.454859      0.964355766     -177.453341     0.0607849974      58.2103249
2.08592281          0.0546551554      53.7726173      0.964440553     -177.480485      0.964361607     -177.478814     0.0605649877      58.0465441
2.09700402          0.0544622458      53.5952592      0.964434948     -177.506037      0.964367227     -177.504212     0.0603465662      57.8825327
2.1081441           0.0542808068      53.4074909      0.964438677     -177.531696      0.964375673     -177.529599     0.0601227684      57.7154682
2.11934336          0.0541087772      53.2114339      0.964449753     -177.557426      0.964386315     -177.554962     0.0598950369      57.5458679
2.13060211          0.0539380702      53.0151814      0.964460639     -177.583085      0.964396764     -177.580253     0.0596688255        57.37593
2.14192068          0.0537686793      52.8187357      0.964471334     -177.608674      0.964407021     -177.605471     0.0594441265      57.2056555
2.15329937          0.0536003897      52.6243396      0.964481804     -177.634246      0.964418433     -177.630799     0.0592218282      57.0345166
2.16473851          0.0534320418      52.4437887       0.96449186     -177.660076      0.964438059     -177.657183     0.0590066256      56.8597431
2.17623842          0.0532648743       52.263237      0.964501731      -177.68584      0.964457549     -177.683503     0.0587929642       56.684616
2.18779942          0.0530988799      52.0826874      0.964511418      -177.71154      0.964476907     -177.709761     0.0585808367      56.5091368
2.19942184          0.0529340514      51.9021427      0.964520922     -177.737174      0.964496132     -177.735958      0.058370236      56.3333072
2.211106            0.0527686412      51.7132989      0.964530646     -177.762498      0.964497094     -177.761483     0.0581481652      56.1670746
2.22285223          0.0526040505      51.5225057      0.964540278     -177.787702      0.964493795     -177.786809     0.0579246014      56.0027813
2.23466086           0.052440664      51.3315957      0.964549728     -177.812842      0.964490246      -177.81207     0.0577024048      55.8382309
2.24653223          0.0522784751      51.1405712         0.964559     -177.837918      0.964486449     -177.837268     0.0574815676      55.6734246
2.25846666          0.0521289009      50.9505733      0.964571698     -177.862818      0.964498388     -177.862165     0.0572793158      55.5042485
2.27046449          0.0519883507      50.7613512      0.964586711     -177.887579      0.964521084     -177.886836     0.0570902802      55.3320472
2.28252605          0.0518490618      50.5721625      0.964601598     -177.912279      0.964543691     -177.911445     0.0569027643      55.1596313
2.29465169          0.0517110276      50.3830118       0.96461636     -177.936916      0.964566213     -177.935993      0.056716761      54.9870044
2.30684175          0.0515692476        50.19001       0.96462628     -177.961983      0.964584445     -177.960713     0.0565266311      54.8205674
2.31909657          0.0514229371       49.992451       0.96463059     -177.987559      0.964597707     -177.985644     0.0563314108      54.6613953
2.33141649          0.0512778504      49.7947914      0.964634719      -178.01308      0.964610839     -178.010517     0.0561375604      54.5021386
2.34380185          0.0511339813      49.5970347      0.964638668     -178.038548      0.964623842     -178.035333     0.0559450723      54.3428007
2.35625301           0.050986715      49.4087783      0.964643635     -178.063342      0.964628735     -178.060161     0.0557485901      54.1769854
2.36877032          0.0508342134      49.2337118      0.964650069     -178.087225      0.964622477     -178.085028     0.0555461159      54.0021473
2.38135413          0.0506827395      49.0587332      0.964656335     -178.111049      0.964615983      -178.10984     0.0553449745      53.8269933
2.39400478          0.0505322864      48.8838453      0.964662432     -178.134815      0.964609253       -178.1346     0.0551451587      53.6515246
2.40672264          0.0503888945      48.7026051      0.964669511     -178.159076      0.964611923     -178.159128     0.0549565063      53.4731263
2.41950806          0.0502535906      48.5139662      0.964677765     -178.183923      0.964625575     -178.183396     0.0547806393      53.2914193
2.4323614           0.0501194177      48.3253604      0.964685875      -178.20872      0.964639111     -178.207612     0.0546062159      53.1094372
2.44528302          0.0499863693      48.1367913      0.964693841     -178.233469      0.964652533     -178.231775     0.0544332298      52.9271834
2.45827329          0.0498482317      47.9447416      0.964703744     -178.257833      0.964666054     -178.255854     0.0542504286      52.7424399
2.47133257          0.0497068328      47.7501482      0.964714974     -178.281912      0.964679607     -178.279859     0.0540610911      52.5557579
2.48446122          0.0495665191      47.5554545      0.964726079      -178.30594      0.964693045     -178.303814     0.0538730863      52.3686683
2.49765962          0.0494272844      47.3606631      0.964737059     -178.329918      0.964706368     -178.327718     0.0536864078      52.1811721
2.51092813          0.0492917294      47.1818873      0.964748364     -178.353783      0.964708324     -178.351791     0.0535135638       52.004858
2.52426713          0.0491578595      47.0075451      0.964759675     -178.377581      0.964707105     -178.375875     0.0533453924      51.8314638
2.537677            0.0490249631      46.8333647      0.964770875     -178.401332       0.96470571     -178.399912     0.0531785475      51.6579261
2.5511581           0.0488929578      46.6583618      0.964781178     -178.425052      0.964704385     -178.423908     0.0530117964      51.4841837
2.56471081          0.0487608775      46.4694165      0.964780172     -178.448962      0.964706371     -178.447931      0.052828903      51.3093265
2.57833553           0.048629822      46.2804793      0.964778989     -178.472827      0.964708198     -178.471909     0.0526472196      51.1342318
2.59203262          0.0484997851       46.091553      0.964777629     -178.496648      0.964709866     -178.495844     0.0524667393      50.9589014
2.60580248           0.048369857      45.8980416      0.964780288      -178.52062      0.964715065     -178.519788     0.0522975367      50.7847678
2.61964549          0.0482396865      45.6979478      0.964788742     -178.544826      0.964725361     -178.543765     0.0521438534      50.6125392
2.63356204          0.0481105567      45.4977336      0.964797085     -178.568993      0.964735554     -178.567702      0.051991467      50.4402454
2.64755251          0.0479824619      45.2974014      0.964805317     -178.593122      0.964745644     -178.591598     0.0518403708      50.2678909
2.66161731          0.0478602359      45.1189139      0.964814493     -178.616334      0.964751934     -178.615139     0.0516711855      50.0828092
2.67575683          0.0477399205       44.945028      0.964823771     -178.639327      0.964757351     -178.638575     0.0514993188      49.8948461
2.68997146          0.0476205256      44.7713467      0.964832939     -178.662278      0.964762637     -178.661972      0.051328665      49.7065322
2.70426161          0.0475045711       44.590638      0.964840096     -178.685317      0.964767135     -178.685311       0.05116206      49.5215237
2.71862767          0.0473950745      44.3944344      0.964843027     -178.708598      0.964770082     -178.708574     0.0510027796       49.344168
2.73307005           0.047286638      44.1982805      0.964845824     -178.731841      0.964772895     -178.731798     0.0508446902      49.1666528
2.74758915          0.0471792558      44.0021804      0.964848489     -178.755046      0.964775576     -178.754984      0.050687785      48.9889813
2.76218538           0.047052437      43.8207778      0.964854331     -178.778599      0.964780694     -178.778296     0.0505311982      48.8053146
2.77685916          0.0469232818      43.6417017       0.96486057     -178.802177      0.964786089     -178.801598     0.0503756711      48.6205141
2.79161088          0.0467949458      43.4626839      0.964866694     -178.825723      0.964791364     -178.824865     0.0502213324      48.4354829
2.80644098          0.0466832622      43.2769576      0.964876659     -178.849184      0.964796324     -178.848102     0.0500663908      48.2575464
2.82134985          0.0465899617      43.0839403       0.96489089     -178.872556      0.964800956      -178.87131     0.0499106029      48.0875426
2.83633793          0.0464977091      42.8910979       0.96490506     -178.895896      0.964805477     -178.894485     0.0497558999      47.9174744
2.85140563          0.0464023528      42.7005803      0.964917014     -178.919219      0.964809622     -178.917685     0.0496042433      47.7487134
2.86655338          0.0462839073      42.5226272      0.964916396     -178.942598      0.964812111     -178.941184     0.0494650727      47.5879139
2.88178159          0.0461662709      42.3447979      0.964915645     -178.965947      0.964814483     -178.964654     0.0493270027      47.4272322
2.89709071          0.0460494376      42.1670948      0.964914763     -178.989267      0.964816741     -178.988095     0.0491900265      47.2666732
2.91248115          0.0459381041      41.9847223      0.964916757     -179.012502       0.96482114     -179.011364     0.0490516689      47.0968668
2.92795335          0.0458376661      41.7922438      0.964925046     -179.035587      0.964830247     -179.034294      0.048909191      46.9070084
2.94350774          0.0457381652       41.599854      0.964933249     -179.058645      0.964839273     -179.057196     0.0487678637      46.7169204
2.95914477          0.0456395959      41.4075564      0.964941366     -179.081676      0.964848218     -179.080071     0.0486276811      46.5266057
2.97486487          0.0455419528      41.2153545      0.964949398      -179.10468      0.964857084     -179.102918     0.0484886375      46.3360674
2.99066848          0.0454364811      41.0433585      0.964948052     -179.127602      0.964858022     -179.125746     0.0483449125      46.1454164
3.00655604          0.0453307909      40.8738799       0.96494552     -179.150492      0.964857949      -179.14855     0.0482016249      45.9545222
3.022528            0.0452258566      40.7046579      0.964942849     -179.173358      0.964857748     -179.171328      0.048059424      45.7633731
3.03858481          0.0451216722      40.5356956      0.964940039       -179.1962      0.964857421     -179.194082      0.047918304      45.5719713
3.05472692          0.0450227785      40.3573573      0.964943431     -179.219106      0.964864352     -179.216921     0.0477841933      45.3886634
3.07095479          0.0449280234      40.1721738      0.964951356     -179.242054      0.964876597     -179.239817     0.0476554714      45.2113636
3.08726886          0.0448341111      39.9871492      0.964959208     -179.264981      0.964888792     -179.262692     0.0475278064      45.0340418
3.1036696           0.0447410361      39.8022865      0.964966988     -179.287886      0.964900937     -179.285545     0.0474011921       44.856702
3.12015747          0.0446451856      39.6178595      0.964971423     -179.310312      0.964907916     -179.308056     0.0472740683      44.6752456
3.13673293          0.0445435816       39.434042      0.964969811      -179.33188      0.964905502     -179.329959     0.0471451774      44.4862249
3.15339644          0.0444427574      39.2503213      0.964968076     -179.353422      0.964902961     -179.351837     0.0470173438       44.297046
3.17014847          0.0443427075      39.0666995      0.964966219     -179.374939      0.964900293     -179.373693      0.046890562      44.1077121
3.1869895           0.0442465846      38.8799622      0.964966516     -179.396747      0.964900097     -179.395775     0.0467648703       43.918028
3.20391999          0.0441622351      38.6821841      0.964974604     -179.419622      0.964908803     -179.418703     0.0466403747      43.7275032
3.22094043          0.0440787722      38.4844965      0.964982625     -179.442482      0.964917446     -179.441616     0.0465169178       43.536825
3.23805128          0.0439961908      38.2869027       0.96499058     -179.465327      0.964926026     -179.464514      0.046394494      43.3459968
3.25525304          0.0439120785      38.0914508      0.964997002     -179.488094      0.964932564     -179.487302     0.0462729625      43.1579012
3.27254617          0.0438179248      37.9053063       0.96499672      -179.51056      0.964930088     -179.509643     0.0461518026      42.9827292
3.28993118          0.0437245203      37.7192627      0.964996335      -179.53301      0.964927496     -179.531968     0.0460315898      42.8075818
3.30740853          0.0436318598      37.5333219      0.964995847     -179.555446      0.964924788     -179.554277     0.0459123177      42.6324627
3.32497874          0.0435396576      37.3491004      0.964994372     -179.577827      0.964921949     -179.576535     0.0457956811      42.4567953
3.34264228          0.0434471934      37.1706136      0.964989724     -179.600055      0.964918947     -179.598649     0.0456858958      42.2791645
3.36039967          0.0433554202      36.9922946      0.964984955      -179.62227      0.964915832     -179.620748     0.0455770836      42.1015916
3.37825138          0.0432643327      36.8141453      0.964980065     -179.644471      0.964912603     -179.642834     0.0454692385      41.9240809
3.39619793          0.0431785684      36.6363499      0.964977358      -179.66679      0.964911376     -179.665068     0.0453561008      41.7426911
3.41423982           0.043102236      36.4591431      0.964978871     -179.689342      0.964914024     -179.687593     0.0452321474      41.5538088
3.43237755          0.0430266363      36.2822215       0.96498029     -179.711885      0.964916588     -179.710109     0.0451090943      41.3647653
3.45061164          0.0429517641       36.105588      0.964981616     -179.734419      0.964919067     -179.732615     0.0449869358      41.1755625
3.46894259          0.0428745624      35.9211044      0.964983769     -179.756993      0.964917645     -179.755029     0.0448734788      40.9912938
3.48737093          0.0427956028       35.730097      0.964986599       -179.7796      0.964912981     -179.777365     0.0447673473      40.8111961
3.50589716          0.0427173941      35.5392113      0.964989357     -179.802202      0.964908202     -179.799693     0.0446621315      40.6311369
3.52452181          0.0426399314      35.3484497      0.964992041     -179.824798      0.964903309     -179.822014      0.044557826      40.4511202
3.54324541          0.0425642201      35.1611354      0.964993884      -179.84716      0.964901108     -179.844337     0.0444484492       40.267144
3.56206847           0.042489449      34.9746907      0.964995485     -179.869468      0.964899399     -179.866655     0.0443386926      40.0822845
3.58099152          0.0424153991      34.7884213      0.964997006      -179.89177      0.964897591     -179.888967     0.0442298098      39.8973813
3.6000151           0.0423399343      34.6073363      0.964997291      -179.91415      0.964895167     -179.911437     0.0441215482      39.7137848
3.61913974          0.0422549748      34.4502419      0.964992007     -179.936917      0.964890195     -179.934669     0.0440129567      39.5365721
3.63836598          0.0421705298      34.2935032      0.964986609     -179.959682      0.964885112     -179.957903     0.0439051846      39.3593953
3.65769436          0.0420865939       34.137122      0.964981097     -179.982448       0.96487992      -179.98114     0.0437982263      39.1822574
3.67712542          0.0420142698      33.9665972      0.964981279      179.995356      0.964876689      179.996504     0.0436979161      39.0119752
3.6966597           0.0419502577      33.7863778      0.964985393      179.973555       0.96487479      179.974759     0.0436024374      38.8465674
3.71629775          0.0418869476      33.6064334      0.964989448      179.951758        0.9648728      179.953018     0.0435077658      38.6813821
3.73604013          0.0418239238      33.4288046      0.964991789      179.929978      0.964869927      179.931324     0.0434143904      38.5158925
3.75588739          0.0417565863      33.2760375      0.964974089      179.908378      0.964857422      179.910171     0.0433277833      38.3442455
3.77584008          0.0416898059      33.1237482      0.964956221      179.886781      0.964844776      179.889022     0.0432420231      38.1728132
3.79589878          0.0416235775      32.9719393      0.964938183      179.865185       0.96483199      179.867878     0.0431571045      38.0016001
3.81606403          0.0415874576      32.8011456      0.964957889      179.844255      0.964855822      179.846523     0.0430856368      37.8111083
3.8363364           0.0415698581       32.619283      0.965000361      179.823726       0.96490175      179.825041     0.0430227355       37.609077
3.85671647          0.0415531633      32.4380197      0.965042984      179.803203      0.964947847      179.803559     0.0429608953      37.4071523
3.87720481          0.0415217001      32.2510951      0.965077295      179.781757        0.9649838      179.781383     0.0428861651      37.1962174
3.89780199          0.0414404282      32.0440985      0.965084326      179.757315      0.964986483      179.756962     0.0427674124      36.9554209
3.91850859          0.0413597975      31.8369574      0.965091297      179.732857      0.964989083      179.732524     0.0426495795      36.7138577
3.93932519          0.0412798045       31.629672      0.965098209      179.708381      0.964991598       179.70807     0.0425326642       36.471526
3.96025237           0.041200341      31.4356297      0.965087787      179.684927      0.964979264      179.685002     0.0424263396      36.2979705
3.98129073          0.0411214484      31.2429315      0.965075463      179.661568      0.964965275      179.662067     0.0423216485      36.1316055
4.00244085          0.0410431309      31.0502143         0.965063      179.638194      0.964951137      179.639121     0.0422175827      35.9653625
4.02370333          0.0409664218       30.859697       0.96505129      179.614914      0.964938584      179.616231     0.0421154162      35.7991176
4.04507877          0.0409022273      30.6949508      0.965049782       179.59286      0.964945959      179.594106     0.0420286848      35.6315931
4.06656775          0.0408385492      30.5305183      0.965048198      179.570798      0.964953306      179.571973     0.0419426548       35.464283
4.0881709           0.0407753829      30.3664006      0.965046539      179.548727      0.964960626       179.54983     0.0418573208      35.2971903
4.10988881          0.0407127239       30.202599      0.965044805      179.526646       0.96496792      179.527677     0.0417726774      35.1303181
4.13172209          0.0406495919      30.0371056      0.965043233      179.504287      0.964967374      179.505529     0.0416959694      34.9388288
4.15367137          0.0405864557       29.870866      0.965041708      179.481778      0.964962695      179.483377     0.0416238719      34.7344678
4.17573724          0.0405238176      29.7049187      0.965040108      179.459254      0.964957926      179.461213     0.0415526554      34.5300777
4.19792033          0.0404616733      29.5392647      0.965038433      179.436715      0.964953064      179.439036     0.0414823159      34.3256623
4.22022128          0.0404019071      29.3690174      0.965035109      179.414257      0.964946566      179.416658     0.0414079461      34.1348774
4.24264069          0.0403463779      29.1894635      0.965028621       179.39197      0.964936937      179.393899     0.0413247051      33.9709349
4.2651792           0.0402914181       29.010136      0.965022037      179.369669      0.964927195      179.371123     0.0412420964      33.8072348
4.28783744          0.0402370238      28.8310361      0.965015357      179.347353      0.964917339      179.348329     0.0411601146      33.6437799
4.31061606          0.0401822463      28.6550371      0.965009034      179.324968      0.964907908      179.325522     0.0410799795      33.4774868
4.33351568          0.0401206824      28.5014331      0.965006124      179.302152      0.964902519      179.302729     0.0410099666      33.2876152
4.35653696          0.0400595291      28.3481993      0.965003138      179.279316      0.964897039      179.279917     0.0409407176      33.0978303
4.37968053          0.0399987819      28.1953367      0.965000076       179.25646      0.964891468      179.257084     0.0408722281      32.9081352
4.40294705          0.0399384365      28.0428458      0.964996938      179.233583      0.964885807      179.234231     0.0408044935      32.7185331
4.42633717          0.0398946369      27.8701494      0.965001241      179.211208      0.964886781      179.212539     0.0407336828      32.5343559
4.44985155          0.0398516595      27.6974452      0.965005629      179.188823      0.964887811       179.19085     0.0406635164      32.3503811
4.47349084          0.0398092407      27.5250669      0.965009983      179.166418      0.964888789      179.169145     0.0405940515      32.1665253
4.49725572          0.0397673767      27.3530161      0.965014301      179.143992      0.964889715      179.147422     0.0405252833      31.9827914
4.52114684          0.0397174594      27.1778285      0.965005946      179.121349      0.964880715      179.124196      0.040451101      31.8053534
4.54516488          0.0396675191       27.002668      0.964996706      179.098672      0.964870996      179.100852     0.0403771701      31.6284351
4.56931052          0.0396180839      26.8277474       0.96498736      179.075971       0.96486117      179.077481     0.0403038626      31.4516566
4.59358442            0.03956915      26.6530677      0.964977909      179.053246      0.964851236      179.054082     0.0402311737        31.27502
4.61798728          0.0395190931      26.4712037       0.96496771      179.031083      0.964843381      179.032401     0.0401617673      31.0985473
4.64251978          0.0394695357      26.2893817      0.964957391      179.008907      0.964835465      179.010728     0.0400930284      30.9222398
4.6671826           0.0394205009      26.1077228      0.964946964      178.986708      0.964827454      178.989035     0.0400249091      30.7460995
4.69197644          0.0393722262      25.9284728      0.964938259      178.964414      0.964820791      178.967174     0.0399587882      30.5695529
4.71690199           0.039326422      25.7681102      0.964944688      178.941502      0.964826067      178.944064      0.039904803      30.3884298
4.74195996          0.0392810483      25.6080888        0.9649511      178.918561       0.96483132      178.920924     0.0398515112       30.207532
4.76715104          0.0392361014      25.4484091      0.964957496      178.895592      0.964836551      178.897754     0.0397989087      30.0268625
4.79247595          0.0391912945      25.2874794      0.964958918      178.872658      0.964836191      178.874641     0.0397401922      29.8475011
4.8179354           0.0391462868      25.1233108      0.964949185       178.84984      0.964823301      178.851691     0.0396668793      29.6706924
4.84353009          0.0391017135      24.9594487      0.964939349      178.826992      0.964810291      178.828711     0.0395941131      29.4939853
4.86926076          0.0390575708      24.7958935       0.96492941      178.804114       0.96479716        178.8057     0.0395218891      29.3173811
4.89512811          0.0390148721      24.6361658      0.964920811      178.781077      0.964789134      178.782786     0.0394508533      29.1360242
4.92113289          0.0389733059      24.4792796      0.964913141      178.757917       0.96478472      178.759931     0.0393808395      28.9512864
4.9472758           0.0389321465      24.3227574      0.964905379      178.734723      0.964780231      178.737045     0.0393113914      28.7665903
4.97355761          0.0388913902      24.1665996      0.964897525      178.711495      0.964775667      178.714126     0.0392425048      28.5819369
4.99997902          0.0388459677      23.9990674      0.964890386         178.688      0.964765679      178.690227      0.039184124      28.3997676
5.0265408           0.0388005966      23.8309431      0.964883215      178.664453      0.964755213      178.666222     0.0391270412      28.2179164
5.05324369          0.0387556301      23.6630475      0.964875958      178.640868      0.964744642      178.642178     0.0390705543      28.0362172
5.08008843          0.0387165191      23.4915841      0.964873302       178.61752       0.96474008      178.618426     0.0390210278      27.8510041
5.10707578          0.0386879241      23.3133952      0.964879236      178.594641      0.964746718      178.595248     0.0389838948      27.6592426
5.1342065           0.0386598504      23.1354791      0.964885154      178.571726      0.964753344      178.572034     0.0389474803      27.4677029
5.16148135          0.0386322949      22.9578367      0.964891056      178.548775      0.964759957      178.548781     0.0389117808      27.2763883
5.18890109          0.0385944952      22.7903383       0.96488896      178.525269      0.964750544      178.525486     0.0388553021      27.1071454
5.2164665           0.0385550063      22.6250251      0.964885248      178.501621      0.964737907      178.502152     0.0387951327       26.942402
5.24417834           0.038515914      22.4599712      0.964881474      178.477932       0.96472516      178.478778     0.0387354407      26.7779005
5.2720374           0.0384794498      22.2970931       0.96487469      178.454342      0.964716851      178.455128     0.0386775279       26.607276
5.30004446           0.038446943      22.1375821      0.964863116      178.430934      0.964715717      178.431059      0.038622213      26.4266788
5.3282003           0.0384148343      21.9784099      0.964851436      178.407486      0.964714531      178.406946     0.0385674339      26.2462158
5.35650571          0.0383831205      21.8195766       0.96483965      178.383995      0.964713293      178.382788     0.0385131868       26.065888
5.3849615           0.0383488952      21.6603141      0.964847183       178.35928      0.964709834       178.35907     0.0384684617      25.8927726
5.41356845          0.0383150311       21.501358      0.964854781      178.334511      0.964706306      178.335309      0.038424316      25.7199447
5.44232737          0.0382815348      21.3427106      0.964862377      178.309692      0.964702716      178.311504      0.038380715      25.5473819
5.47123907          0.0382400287      21.1946286      0.964859341      178.285609      0.964697356      178.287488     0.0383360197      25.3704216
5.50030437          0.0381946135      21.0519908       0.96485093      178.261872      0.964691073      178.263344     0.0382910558      25.1913436
5.52952406          0.0381494444      20.9096847      0.964842434      178.238089      0.964684715      178.239152     0.0382466373      25.0124639
5.55889899          0.0381045179      20.7677094      0.964833853      178.214259      0.964678283       178.21491     0.0382027607      24.8337839
5.58842996          0.0380743244      20.6236719      0.964830034      178.189983      0.964670946      178.190656     0.0381598731      24.6468965
5.61811781          0.0380472232      20.4795982      0.964827081       178.16558       0.96466337      178.166359      0.038117641      24.4585394
5.64796338          0.0380204522      20.3359527       0.96482407      178.141126      0.964655712      178.142012     0.0380759783      24.2703132
5.6779675           0.0379940084      20.1927351      0.964821003       178.11662      0.964647972      178.117613     0.0380348817      24.0822194
5.70813101           0.037964349      20.0364308      0.964815172      178.092204      0.964638444       178.09325     0.0379932456      23.9023555
5.73845476          0.0379301415      19.8615706      0.964805501      178.067934      0.964626452      178.068957     0.0379505797       23.733966
5.7689396           0.0378963222      19.6868505      0.964795739      178.043613      0.964614357      178.044612     0.0379083891      23.5658378
5.79958639          0.0378628886      19.5122699      0.964785887      178.019238      0.964602161      178.020215     0.0378666701      23.3979719
5.83039599          0.0378305706       19.340964      0.964776787      177.994878      0.964590885      177.995802     0.0378258565      23.2304888
5.86136926          0.0378053075      19.1986752      0.964775348      177.971089      0.964588911      177.971689     0.0377895261      23.0643899
5.89250707          0.0377803552      19.0567932      0.964773865      177.947249      0.964586891      177.947523     0.0377536776      22.8985995
5.9238103           0.0377557107      18.9153176      0.964772338      177.923358      0.964584826      177.923303     0.0377183076      22.7331186
5.95527982          0.0377313712      18.7742479      0.964770768      177.899413      0.964582714      177.899029     0.0376834126      22.5679483
5.98691652          0.0377054371      18.6229366      0.964757847       177.87437      0.964570961      177.874124     0.0376315407      22.3974036
6.01872128            0.03767955      18.4704276      0.964743201      177.849118      0.964557735      177.849079     0.0375775628      22.2261731
6.05069501          0.0376539791      18.3182354       0.96472844      177.823805        0.9645444      177.823974     0.0375239625      22.0550563
6.08283859          0.0376287216      18.1663595      0.964713563      177.798431      0.964530958      177.798808     0.0374707362      21.8840526
6.11515293          0.0376008659       18.013801      0.964707508      177.773134      0.964522366      177.773642     0.0374375742      21.7075732
6.14763893          0.0375723042      17.8611764      0.964704469      177.747822      0.964515404      177.748434     0.0374116976      21.5294155
6.18029752          0.0375440322      17.7088223      0.964701379      177.722448      0.964508371      177.723164     0.0373863514      21.3515219
6.21312959          0.0375160472      17.5567376      0.964698237       177.69701      0.964501266      177.697832     0.0373615324      21.1738937
6.24613609          0.0374910294      17.4317238      0.964705288      177.669833       0.96450466      177.670668     0.0373457368       21.013895
6.27931793          0.0374673461      17.3186196      0.964716714      177.641867      0.964512548      177.642677     0.0373340649      20.8617556
6.31267604           0.037443838      17.2060684      0.964728172      177.613822      0.964520449      177.614607      0.037322897      20.7101288
6.34621136          0.0374205022      17.0940696      0.964739662      177.585698      0.964528361      177.586458     0.0373122301      20.5590156
6.37992484          0.0373893985      16.9539296       0.96473367      177.559674      0.964525751      177.560389     0.0372847968      20.4021151
6.41381741          0.0373557881      16.8041699      0.964721571      177.534334      0.964519459      177.534996     0.0372518311      20.2433742
6.44789003          0.0373224092      16.6546217      0.964709375      177.508927      0.964513103      177.509537     0.0372192597      20.0849348
6.48214367          0.0372892589      16.5052833      0.964697083      177.483454      0.964506681      177.484011     0.0371870795      19.9267973
6.51657926           0.037265587      16.3433578      0.964688041      177.457631      0.964494493      177.458147     0.0371582717      19.7582708
6.5511978           0.0372436487      16.1796729      0.964679432      177.431695      0.964481333      177.432171     0.0371303567      19.5883619
6.58600024          0.0372220359      16.0161807      0.964670744      177.405688       0.96446807      177.406125     0.0371028798      19.4186999
6.62098756          0.0372004853       15.853985      0.964662014      177.379624      0.964455094      177.380028      0.037075132      19.2495707
6.65616075          0.0371757045      15.7068984      0.964653701      177.353677      0.964447286      177.354154      0.037038273        19.08451
6.6915208            0.037151171      15.5600725      0.964645313      177.327659      0.964439404      177.328209     0.0370017765      18.9196486
6.72706869          0.0371268824      15.4135059      0.964636848      177.301569      0.964431448      177.302193     0.0369656396      18.7549859
6.76280542           0.037105432      15.2683325      0.964630364      177.275326      0.964424772      177.275921     0.0369325887      18.5835458
6.798732            0.0370891519      15.1256133      0.964627714      177.248855      0.964420597       177.24923     0.0369051298      18.3990459
6.83484944           0.037073135      14.9832226      0.964625016      177.222309      0.964416366      177.222462     0.0368781292      18.2146633
6.87115874          0.0370573789      14.8411593       0.96462227      177.195687       0.96441208      177.195617     0.0368515847      18.0303981
6.90766094           0.037037468      14.6940408      0.964614495      177.169021      0.964398797      177.169132     0.0368290894      17.8608256
6.94435705          0.0370158652      14.5448028      0.964604451      177.142292      0.964381466      177.142765     0.0368085951       17.697942
6.9812481           0.0369945108      14.3958001      0.964594325      177.115485      0.964364015      177.116321     0.0367885097      17.5353568
7.01833513          0.0369735748      14.2475279      0.964582858       177.08864      0.964346883      177.089761     0.0367671145      17.3718349
7.05561918          0.0369542421      14.1034402      0.964561314      177.062042      0.964333116      177.062816     0.0367325158       17.198729
7.0931013           0.0369351451      13.9596242      0.964539623      177.035367      0.964319242      177.035791     0.0366982713      17.0257302
7.13078254          0.0369162816      13.8160787      0.964517784      177.008612      0.964305262      177.008685     0.0366643786      16.8528376
7.16866395          0.0368998715      13.6728943      0.964506456      176.981664      0.964294073      176.981735     0.0366333872      16.6866418
7.2067466           0.0368852067      13.5300567      0.964502259      176.954558      0.964284758      176.954865     0.0366044567      16.5250906
7.24503157          0.0368707873      13.3875064      0.964498011       176.92737      0.964275366      176.927914     0.0365758575      16.3637516
7.28351992          0.0368550942      13.2444262      0.964493101      176.900155      0.964265992      176.900851     0.0365488806      16.2025459
7.32221273          0.0368307248      13.0967815      0.964484546      176.873188      0.964257099      176.873534     0.0365298457      16.0411285
7.36111109          0.0368065569       12.949308      0.964475918      176.846139      0.964248131      176.846131     0.0365111835      15.8799838
7.4002161           0.0367825884      12.8020039      0.964467216      176.819006      0.964239087      176.818643     0.0364928914      15.7191115
7.43952885           0.036760874      12.6568484      0.964452253      176.791505      0.964228568      176.791226     0.0364701182      15.5652603
7.47905044          0.0367400213      12.5125322      0.964435188      176.763826      0.964217515      176.763774     0.0364460986      15.4138643
7.51878198          0.0367193669       12.368421      0.964418006       176.73606      0.964206378      176.736235     0.0364223833      15.2627527
7.5587246           0.0367090678       12.226741      0.964407201         176.708      0.964195046      176.708398     0.0364025183      15.0957995
7.5988794           0.0367126621      12.0883906      0.964405041      176.679575      0.964183476      176.680189     0.0363878255      14.9073818
7.63924752          0.0367165557      11.9504371      0.964402839      176.651056      0.964171815      176.651888     0.0363735907      14.7190723
7.6798301           0.0367207468      11.8128792      0.964400596      176.622444      0.964160061      176.623495     0.0363598122      14.5308712
7.72062826          0.0367132238      11.6661385      0.964392293      176.594003       0.96414979       176.59523     0.0363391199      14.3632445
7.76164316          0.0366979336      11.5132107      0.964379891      176.565648      0.964140491       176.56702     0.0363138238      14.2094837
7.80287594            0.03668288      11.3604402      0.964367397        176.5372      0.964131117      176.538717     0.0362888055      14.0559506
7.84432777          0.0366680612      11.2078255      0.964354811      176.508657      0.964121668      176.510321     0.0362640626       13.902644
7.88599981          0.0366525462      11.0564221      0.964341573      176.480054      0.964111988      176.481776     0.0362411534      13.7467555
7.92789322          0.0366329573      10.9100386      0.964325653      176.451515      0.964101521      176.452878     0.0362257553      13.5781436
7.97000919          0.0366135516      10.7638034       0.96430962       176.42288      0.964090971      176.423882     0.0362107184      13.4097187
8.01234889          0.0365943269      10.6177147      0.964293475      176.394148      0.964080337      176.394788     0.0361960407      13.2414801
8.05491352          0.0365752815      10.4717702      0.964277217       176.36532      0.964069618      176.365596     0.0361817202      13.0734272
8.09770427          0.0365650125      10.3262744      0.964268153      176.336322      0.964055315      176.336319     0.0361641424      12.9084193
8.14072234          0.0365563856      10.1810392      0.964260225      176.307213       0.96404033      176.306944     0.0361462921      12.7440552
8.18396893          0.0365479839      10.0360177      0.964252227      176.278003       0.96402524      176.277467      0.036128761      12.5798612
8.22744527          0.0365398057      9.89120821      0.964244162      176.248693      0.964010044      176.247888     0.0361115472      12.4158361
8.27115257          0.0365331403      9.74820586      0.964233477      176.219083      0.963996895      176.218185     0.0360953133      12.2504197
8.31509206          0.0365274394      9.60635213      0.964221241      176.189255      0.963984893      176.188365     0.0360797837      12.0842695
8.35926498          0.0365219595       9.4647324      0.964208913      176.159322      0.963972801      176.158441     0.0360645765      11.9182798
8.40367256          0.0365166988      9.32334497      0.964196494      176.129283      0.963960619      176.128411     0.0360496899      11.7524493
8.44831604          0.0365141075      9.19013578       0.96418623      176.098834       0.96395194      176.098187     0.0360363791      11.5899129
8.49319669          0.0365141292      9.06506431      0.964178103      176.067978      0.963946736       176.06777     0.0360246194      11.4306599
8.53831577          0.0365143447      8.94033828      0.964169911       176.03701      0.963941481      176.037243     0.0360131708      11.2716171
8.58367453          0.0365147522      8.81595605      0.964161651       176.00593      0.963936173      176.006607     0.0360020316      11.1127836
8.62927426           0.036509428      8.67301411      0.964147602      175.975245      0.963928417      175.976122     0.0359906012      10.9516319
8.67511622          0.0364974271      8.50813101      0.964126759      175.945044       0.96391779      175.945835     0.0359787856      10.7877116
8.72120172          0.0364856714      8.34326658       0.96410578      175.914733      0.963907082      175.915438     0.0359672836      10.6239576
8.76753205          0.0364741595      8.17841881      0.964084662      175.884313      0.963896291       175.88493     0.0359560937      10.4603687
8.81410849          0.0364597377      8.02863424      0.964071835      175.853485      0.963882959      175.854188        0.0359469      10.3007987
8.86093237          0.0364423581      7.89377576      0.964067238      175.822249      0.963867107       175.82321     0.0359396714      10.1452373
8.908005            0.0364250913      7.75905732      0.964062592      175.790899      0.963851147      175.792119     0.0359327449      9.98990424
8.95532769          0.0364079354      7.62447654        0.9640579      175.759431      0.963835081      175.760913     0.0359261191      9.83479846
9.00290178          0.0364037669      7.48581593      0.964042537      175.728084      0.963817547      175.729566     0.0359183296      9.67264888
9.0507286           0.0364074554      7.34487683      0.964020747      175.696762      0.963799086      175.698087     0.0359099862      9.50634189
9.09880949          0.0364113779      7.20418067      0.963998819      175.665323      0.963780503      175.666491     0.0359019596       9.3401768
9.14714581          0.0364155329      7.06372583      0.963976751      175.633765      0.963761799      175.634775     0.0358942482      9.17415239
9.19573891           0.036407718      6.91872952      0.963974086      175.601762      0.963753482      175.602723     0.0358943932      9.00974416
9.24459015          0.0363975583      6.77285127      0.963975422      175.569571       0.96374727      175.570505     0.0358964427       8.8458481
9.29370091          0.0363875616      6.62706181      0.963976742      175.537257      0.963741001      175.538163     0.0358988443      8.68216533
9.34307257          0.0363827754      6.45486933      0.963965541      175.507208      0.963720492      175.508093     0.0359004053       8.4923919
9.3927065           0.0364219473      6.05833372      0.963848109      175.497323       0.96357945      175.498241     0.0358930345      8.07935036
9.44260411          0.0364632023      5.66156224       0.96372999      175.487433      0.963437595      175.488384     0.0358874766      7.66505105
9.4927668           0.0365065506      5.26459483       0.96361118      175.477538      0.963294924      175.478522     0.0358837471      7.24952384
9.54319596          0.0365339601      4.98721637      0.963540406      175.457276      0.963211119      175.458378     0.0358790348      6.94825662
9.59389303          0.0365404099      4.85385198      0.963527925      175.424473       0.96319874      175.425795     0.0358716307      6.78547765
9.64485942          0.0365470542      4.72073209      0.963515356      175.391542      0.963186274      175.393086     0.0358644992      6.62282096
9.69609656          0.0365538917      4.58785484      0.963502699      175.358482      0.963173719      175.360249     0.0358576388      6.46028488
9.74760589          0.0365601815      4.44433121      0.963490905      175.325372      0.963157679      175.327089     0.0358552745      6.29585097
9.79938886          0.0365665816      4.29938662      0.963479167      175.292143      0.963141031       175.29377     0.0358538287       6.1312609
9.85144692          0.0365732008      4.15461116      0.963467344      175.258783      0.963124272      175.260319     0.0358526829      5.96681046
9.90378154          0.0365752535      4.01134317      0.963453254      175.225292      0.963107117      175.226782     0.0358520286      5.80315009
9.95639417          0.0365688407      3.87060638      0.963435121      175.191669      0.963089334      175.193195     0.0358520184      5.64081061
10.0092863          0.0365625625      3.72995761       0.96341687      175.157913      0.963071435      175.159475     0.0358523021      5.47861915
10.0624594          0.0365564174      3.58939432        0.9633985      175.124023       0.96305342       175.12562     0.0358528786      5.31657424
10.115915           0.0365550555       3.4482077      0.963380861      175.090136      0.963035751      175.091618     0.0358593473      5.15497884
10.1696546          0.0365543365      3.30705762      0.963363197      175.056128      0.963018016      175.057478     0.0358667201      4.99360528
10.2236796          0.0365537754      3.16601617      0.963345418      175.021984      0.963000166      175.023201      0.035874414      4.83242369
10.2779917          0.0365556374      3.02673536      0.963326588      174.987565      0.962982568      174.988768       0.03587483      4.67004812
10.3325923          0.0365597844      2.88914964      0.963306758      174.952877      0.962965198      174.954179     0.0358684018      4.50646978
10.3874829          0.0365641012      2.75172379      0.963286796      174.918049      0.962947711      174.919451     0.0358622224      4.34294955
10.4426651          0.0365677459      2.61289321      0.963267014      174.883121      0.962929692      174.884598     0.0358571157      4.18000018
10.4981405          0.0365678981      2.46741634      0.963248457      174.848235       0.96290973       174.84968     0.0358558565      4.01935859
10.5539106          0.0365682148      2.32200884      0.963229781      174.813206      0.962889643       174.81462     0.0358548574      3.85882082
10.609977           0.0365686948      2.17666925      0.963210986      174.778034      0.962869428      174.779416     0.0358541177      3.69838503
10.6663412          0.0365698728      2.03398281      0.963192288       174.74259      0.962848722      174.744022     0.0358559639      3.53519335
10.7230048          0.0365721564      1.89599959      0.963173859      174.706773      0.962827236      174.708401      0.035862251      3.36702031
10.7799695          0.0365745856      1.75812676      0.963155311      174.670807      0.962805616      174.672634     0.0358688521      3.19895161
10.8372368          0.0365771591      1.62036213      0.963136644      174.634692      0.962783861      174.636718     0.0358757666      3.03098569
10.8948083          0.0365798758      1.48270351      0.963117857      174.598427       0.96276197      174.600653     0.0358829938      2.86312106
10.9526856          0.0365807012      1.33905068       0.96309895       174.56244      0.962742985      174.564705     0.0358911838      2.70855197
11.0108704          0.0365815417      1.19505085      0.963079923      174.526332       0.96272408      174.528625     0.0358996924      2.55501962
11.0693643          0.0365825299      1.05110049      0.963060777      174.490073      0.962705057      174.492394     0.0359084748      2.40165832
11.128169           0.0365836646      0.90719726      0.963041511      174.453662      0.962685914      174.456012     0.0359175302      2.24846637
11.187286           0.0365835493     0.765245932      0.963018436      174.416848      0.962663803      174.419247     0.0359229747      2.08776511
11.2467171          0.0365826988     0.624515494      0.962992935      174.379726      0.962639794      174.382184     0.0359262953      1.92240476
11.3064639          0.0365819691      0.48382662       0.96296728      174.342446      0.962615637      174.344965     0.0359298885      1.75710175
11.3665281          0.0365813587     0.343176825      0.962941469      174.305008      0.962591333      174.307588     0.0359337537      1.59185427
11.4269114          0.0365844667     0.202064284      0.962916835      174.267768      0.962565283      174.270278     0.0359382962      1.42504836
11.4876155          0.0365932459    0.0602611266      0.962894097      174.230917      0.962536624      174.233159     0.0359437439      1.25581711
11.5486421          0.0366021973   -0.0814524583      0.962871219       174.19391      0.962507792      174.195881     0.0359494798      1.08662514
11.6099928          0.0366113198    -0.223078547      0.962848199      174.156745      0.962478787      174.158445     0.0359555031     0.917470777
11.6716695          0.0366195892    -0.363408309       0.96282558      174.119213      0.962452262      174.120759     0.0359633153     0.749045219
11.7336738          0.0366251512    -0.500283103      0.962804335      174.080933      0.962432991      174.082664     0.0359756138     0.582618919
11.7960075          0.0366308435    -0.637083082      0.962782959      174.042489        0.9624136      174.044405     0.0359882197     0.416278223
11.8586724          0.0366366648    -0.773810534      0.962761451      174.003879      0.962394086      174.005981     0.0360011326     0.250021571
11.9216702           0.036641963    -0.913324762      0.962738915      173.965142      0.962373135       173.96739     0.0360144641    0.0863473427
11.9850026          0.0366451142     -1.06286049      0.962713086      173.926378       0.96234742      173.928625     0.0360284781   -0.0684273903
12.0486714          0.0366484129     -1.21241438      0.962687102      173.887447      0.962321551      173.889691     0.0360427684    -0.223065974
12.1126785           0.036651858     -1.36198886      0.962660964      173.848347      0.962295527      173.850589     0.0360573345    -0.377570138
12.1770257          0.0366575061     -1.50785821      0.962635316      173.809095      0.962270213      173.811314     0.0360720791    -0.534096065
12.2417146          0.0366690399     -1.64327411      0.962611325      173.769725      0.962247169      173.771863     0.0360868419    -0.696527108
12.3067473          0.0366807188     -1.77859474       0.96258719      173.730184      0.962223985      173.732239     0.0361018995     -0.85886899
12.3721254          0.0366925415     -1.91382222      0.962562909      173.690469       0.96220066      173.692442     0.0361172515     -1.02112336
12.4378508          0.0367002407      -2.0491407      0.962538292      173.650411      0.962178631      173.652332     0.0361328436     -1.17919352
12.5039253          0.0367012958     -2.18471037      0.962513225      173.609908      0.962158747      173.611829     0.0361486234      -1.3306692
12.5703509          0.0367024317     -2.32026917       0.96248801      173.569227      0.962138741      173.571148     0.0361646666     -1.48201734
12.6371294           0.036703647     -2.45581968      0.962462646      173.528366      0.962118614      173.530286     0.0361809728     -1.63323976
12.7042626          0.0367125117     -2.59398611      0.962435946      173.487396      0.962095098      173.489424     0.0361939608     -1.78897166
12.7717524          0.0367267992     -2.73392558      0.962408257      173.446296      0.962069157      173.448507     0.0362047046     -1.94787275
12.8396008          0.0367412437     -2.87379786      0.962380407      173.405013      0.962043062      173.407408     0.0362156995     -2.10672807
12.9078096          0.0367558442     -3.01360505      0.962352392      173.363547      0.962016812      173.366126      0.036226945     -2.26553951
12.9763808          0.0367681662     -3.15205181      0.962326778      173.322197      0.961989187      173.324819     0.0362456927     -2.43064659
13.0453162          0.0367802478     -3.29024848      0.962301411      173.280709      0.961961209      173.283352     0.0362658767     -2.59667141
13.1146179          0.0367924646     -3.42839956      0.962275892      173.239036      0.961933065        173.2417     0.0362863753     -2.76262978
13.1842877          0.0368043537     -3.56775861      0.962249674      173.197128      0.961904768      173.199818      0.036306436     -2.92746524
13.2543276          0.0368146844     -3.71169144      0.962221286      173.154853      0.961876348      173.157585     0.0363240313     -3.08836039
13.3247396          0.0368251511     -3.85562627      0.962192731      173.112389      0.961847761      173.115163     0.0363419078     -3.24920016
13.3955257          0.0368357527      -3.9995654       0.96216401      173.069733      0.961819008       173.07255     0.0363600654     -3.40998631
13.4666878          0.0368485255     -4.14232604      0.962135043      173.027147      0.961787731      173.029817     0.0363792618     -3.57270505
13.5382279          0.0368626274     -4.28437978      0.962105862      172.984522        0.9617549      172.986934     0.0363991927     -3.73653118
13.6101481           0.036876874     -4.42641265       0.96207651      172.941705      0.961721879      172.943856       0.03641942     -3.90031196
13.6824504          0.0368906127     -4.56885951      0.962047261      172.898691        0.9616892      172.900617     0.0364400113     -4.06290119
13.7551367          0.0368995534     -4.71459637      0.962019918      172.855463      0.961660378      172.857428      0.036461399     -4.21673774
13.8282092          0.0369086169     -4.86037619      0.961992416      172.812038      0.961631388      172.814043     0.0364830585     -4.37049115
13.9016699          0.0369178019     -5.00620138      0.961964754      172.768416       0.96160223      172.770461     0.0365049897     -4.52416319
13.9755208          0.0369320113     -5.15273985      0.961931591      172.724674      0.961569902      172.726795     0.0365256899     -4.69721746
14.0497641          0.0369488408     -5.29962304      0.961895547      172.680771      0.961535874      172.682989     0.0365459699     -4.88008435
14.1244017          0.0369658335     -5.44651074      0.961859294      172.636668      0.961501648      172.638982     0.0365665978     -5.06301017
14.1994359          0.0369822456     -5.59326729      0.961824879       172.59231      0.961466331      172.594709     0.0365863737     -5.23981065
14.2748687          0.0369968638     -5.73968299       0.96179564      172.547608      0.961428472      172.550059     0.0366032981     -5.40044516
14.3507022          0.0370116249     -5.88612666      0.961766233      172.502701      0.961390397      172.505205     0.0366204785     -5.56107986
14.4269385           0.037026528     -6.03260051      0.961736656      172.457588      0.961352107      172.460145     0.0366379148     -5.72171661
14.5035799          0.0370394522     -6.17023014      0.961704246      172.412226      0.961320759      172.414878     0.0366645699      -5.8856796
14.5806284          0.0370523595     -6.30737127      0.961671502      172.366653      0.961289631      172.369403     0.0366920404     -6.04978521
14.6580862          0.0370653662     -6.44452102      0.961638571      172.320869      0.961258325      172.323718     0.0367198277     -6.21384815
14.7359555          0.0370785874     -6.58342324      0.961604703      172.274877      0.961226193      172.277809      0.036747336     -6.37776798
14.8142385          0.0370927898     -6.73518764      0.961565117      172.228693      0.961189097      172.231597     0.0367707589     -6.54091493
14.8929373          0.0371071353     -6.88702405      0.961525308      172.182295      0.961151792      172.185172       0.03679447     -6.70405455
14.9720542          0.0371216229      -7.0389347      0.961485275      172.135682      0.961114275      172.138531     0.0368184695      -6.8671885
15.0515914          0.0371362516     -7.19092183      0.961445016      172.088852      0.961076547      172.091673     0.0368427575     -7.03031843
15.1315512          0.0371530203     -7.33587925      0.961408967       172.04195      0.961042682      172.044703      0.036871038     -7.19712051
15.2119357          0.0371709858     -7.47706175      0.961375092      171.994907      0.961010809      171.997571     0.0369016264     -7.36587156
15.2927473          0.0371890745     -7.61826286      0.961341024      171.947645      0.960978755      171.950219     0.0369325499     -7.53460397
15.3739881          0.0372072853     -7.75948476      0.961306764      171.900162      0.960946519      171.902646     0.0369638088     -7.70331907
15.4556606          0.0372253671     -7.90068363      0.961271786      171.852246      0.960914007       171.85469     0.0369934219     -7.86972037
15.5377669          0.0372429414     -8.04179513      0.961235303      171.803578      0.960881083      171.806109     0.0370184028     -8.03040245
15.6203094          0.0372606262     -8.18293695      0.961198616      171.754682      0.960847974      171.757299     0.0370436599     -8.19109088
15.7032904          0.0372784203     -8.32411131      0.961161723      171.705556      0.960814679      171.708261     0.0370691935     -8.35178736
15.7867122          0.0372964298       -8.465329      0.961124647      171.656211      0.960781067      171.659002     0.0370951417     -8.51261476
15.8705772          0.0373196844     -8.60697321      0.961088445      171.607227      0.960741071          171.61     0.0371279774     -8.67921029
15.9548877          0.0373430756     -8.74862127       0.96105204      171.558013      0.960700852      171.560768      0.037161143       -8.845794
16.0396461          0.0373666023     -8.89027516      0.961015431      171.508566      0.960660408      171.511304     0.0371946389     -9.01236726
16.1248548          0.0373902632     -9.03193689      0.960978618      171.458886      0.960619739      171.461606     0.0372284655     -9.17893148
16.2105161          0.0374107386     -9.18136099      0.960937013      171.408881      0.960578972      171.411616      0.037255466     -9.34517377
16.2966325          0.0374307602     -9.33223861      0.960894357      171.358623      0.960538001      171.361378     0.0372814802     -9.51140534
16.3832064           0.037450919     -9.48319514      0.960851465      171.308127      0.960496803      171.310903     0.0373077804     -9.67768801
16.4702401          0.0374712137     -9.63423267      0.960808336      171.257392      0.960455376      171.260188     0.0373343671     -9.84402339
16.5577363          0.0374936523     -9.78883616      0.960763735      171.206734      0.960416084      171.209386     0.0373668589     -10.0107739
16.6456972          0.0375168599     -9.94458284      0.960718511      171.155932      0.960377293       171.15839     0.0374013791     -10.1776471
16.7341255          0.0375402292     -10.1004175      0.960673038      171.104888      0.960338286       171.10715     0.0374362275      -10.344529
16.8230235           0.037563759     -10.2563422      0.960627314      171.053602      0.960299062      171.055666     0.0374714043      -10.511421
16.9123938          0.0375904378     -10.4136454      0.960585104      171.002418      0.960256469      171.004583     0.0375073162     -10.6828006
17.0022388          0.0376181847     -10.5714027      0.960543777      170.951093      0.960212705      170.953447     0.0375436959       -10.85553
17.0925611          0.0376461189     -10.7292332       0.96050222      170.899524      0.960168698      170.902068     0.0375804264     -11.0282894
17.1833633          0.0376742394     -10.8871387      0.960460432      170.847708      0.960124448      170.850443     0.0376175082     -11.2010801
17.2746478          0.0376972872     -11.0372047      0.960419568      170.795156      0.960083583      170.797862     0.0376504432     -11.3802438
17.3664173          0.0377196003     -11.1860647      0.960378666      170.742274      0.960043086      170.744914     0.0376829904     -11.5605366
17.4586742          0.0377420321     -11.3350151      0.960337538      170.689137      0.960002365      170.691711     0.0377158853      -11.740928
17.5514213          0.0377646646     -11.4841896      0.960296006      170.635742      0.959961369      170.638258     0.0377493958     -11.9209791
17.6446611          0.0377904715     -11.6382704      0.960247793      170.581966      0.959918346      170.584723     0.0377930361     -12.0849733
17.7383962          0.0378164249     -11.7924423      0.960199316      170.527931      0.959875087       170.53093      0.037837028     -12.2489431
17.8326293          0.0378425239     -11.9467072      0.960150576      170.473636      0.959831592      170.476879     0.0378813722     -12.4128897
17.927363            0.037868727     -12.1009821      0.960102195      170.419126      0.959787719      170.422535     0.0379248574      -12.580238
18.0225999          0.0378949637     -12.2551235      0.960055248      170.364481      0.959743229      170.367844     0.0379654292     -12.7568692
18.1183428          0.0379213403     -12.4093627      0.960008043      170.309571      0.959698494      170.312888     0.0380063711     -12.9335534
18.2145943          0.0379478554     -12.5637015      0.959960579      170.254396      0.959653514      170.257667     0.0380476839     -13.1102914
18.3113571          0.0379753209     -12.7193489       0.95991501      170.199032      0.959607373      170.202234     0.0380900667     -13.2872433
18.4086339          0.0380035063     -12.8759501      0.959870712      170.143455      0.959560333      170.146572     0.0381333191     -13.4643561
18.5064275          0.0380318403     -13.0326565      0.959826171      170.087608      0.959513035       170.09064     0.0381769509     -13.6415167
18.6047407          0.0380603215     -13.1894698      0.959781386       170.03149      0.959465478      170.034437      0.038220963     -13.8187258
18.7035761          0.0380839021     -13.3346314      0.959731372      169.974316      0.959422088      169.977467     0.0382721678       -13.97481
18.8029366           0.038107425     -13.4795745      0.959680956      169.916842      0.959378583      169.920208     0.0383239105     -14.1302704
18.9028249          0.0381310231      -13.624617      0.959630268      169.859088      0.959334844      169.862669     0.0383760081     -14.2856758
19.0032439          0.0381568028     -13.7779846      0.959580874      169.801247      0.959288976      169.804872     0.0384276158     -14.4513774
19.1041963          0.0381855242     -13.9424362      0.959533301      169.743382       0.95924033      169.746823     0.0384784965     -14.6308628
19.205685           0.0382144032     -14.1070347      0.959485467      169.685235      0.959191417      169.688491     0.0385297941     -14.8103724
19.3077129          0.0382434386     -14.2717816      0.959437373      169.626804      0.959142238      169.629874     0.0385815094     -14.9899066
19.4102827          0.0382781766     -14.4327043      0.959385689      169.568659      0.959089782       169.57157     0.0386269099     -15.1595734
19.5133975          0.0383133854     -14.5935094      0.959333548      169.510261      0.959036881      169.513013     0.0386723049     -15.3287563
19.61706            0.0383487677     -14.7544092      0.959281125      169.451577      0.958983694       169.45417     0.0387180531     -15.4979857
19.7212733          0.0383839173     -14.9177384       0.95922894      169.392943      0.958929958      169.395581     0.0387703911     -15.6805361
19.8260401          0.0384188951     -15.0832295      0.959176927      169.334319      0.958875698      169.337182     0.0388286642     -15.8747652
19.9313636           0.038454059     -15.2488425      0.959124628      169.275408      0.958821141      169.278497     0.0388874363     -16.0690233
20.0372465          0.0384891337     -15.4136537      0.959071689       169.21605      0.958766534      169.219304     0.0389447763      -16.261708
20.1436919          0.0385230975      -15.574277      0.959016813      169.155664      0.958712791      169.158793     0.0389935685     -16.4469956
20.2507029          0.0385572103     -15.7350188       0.95896164      169.094981      0.958658757      169.097984      0.039042773     -16.6323714
20.3582823          0.0385914706     -15.8958806      0.958906167      169.033999       0.95860443      169.036876     0.0390923906     -16.8178359
20.4664332          0.0386279461     -16.0602891      0.958853058      168.972762      0.958550536      168.975753     0.0391493087     -16.9952248
20.5751586          0.0386648745     -16.2252869      0.958800026      168.911228      0.958496451      168.914368     0.0392075946      -17.171512
20.6844616          0.0387019727     -16.3904064      0.958746708      168.849391      0.958442074       168.85268      0.039266307     -17.3478113
20.7943453          0.0387392112      -16.555548      0.958693028      168.787253      0.958387241      168.790682      0.039325311     -17.5242685
20.9048127          0.0387761016     -16.7189742      0.958637686      168.724882      0.958329134      168.728269     0.0393822708     -17.7033971
21.015867           0.0388131455     -16.8825214      0.958582046      168.662202      0.958270715      168.665548     0.0394396556     -17.8825646
21.1275112          0.0388503412     -17.0461911      0.958526107      168.599212      0.958211981      168.602517     0.0394974664     -18.0617715
21.2397486          0.0388876869     -17.2099849      0.958469866      168.535911      0.958152931      168.539173      0.039555704     -18.2410184
21.3525821          0.0389228365     -17.3761694      0.958413108      168.472505      0.958094831      168.475613       0.03961594     -18.4211063
21.4660151          0.0389567565      -17.543841      0.958355917      168.408908      0.958037161      168.411793     0.0396775375     -18.6016923
21.5800507           0.038990816     -17.7116834      0.958298419      168.344996      0.957979181      168.347658     0.0397395814     -18.7823056
21.6946921          0.0390250133     -17.8796984      0.958240612      168.280767      0.957920889      168.283204     0.0398020724     -18.9629467
21.8099425          0.0390604088      -18.047749       0.95818138      168.215915      0.957863655      168.218296     0.0398645851     -19.1401299
21.9258052          0.0390983029     -18.2156506      0.958119353      168.150064      0.957809162      168.152766     0.0399265728     -19.3095999
22.0422834          0.0391363422     -18.3837029      0.958056996      168.083886      0.957754377      168.086911     0.0399889669     -19.4790829
22.1593803          0.0391745248     -18.5519073      0.957994306      168.017378      0.957699301      168.020728     0.0400517681     -19.6485796
22.2770993          0.0392128408     -18.7202194      0.957931381      167.950606      0.957643074      167.954252     0.0401148321     -19.8197927
22.3954437          0.0392512155     -18.8882037      0.957869145      167.884202       0.95757757      167.887837     0.0401768228      -20.008826
22.5144168          0.0392897281      -19.056339      0.957806574      167.817467      0.957511715      167.821091     0.0402392797     -20.1979291
22.6340219          0.0393283762     -19.2246267      0.957743668      167.750399      0.957445507      167.754012     0.0403022039      -20.387102
22.7542624          0.0393671579     -19.3930684      0.957680424      167.682996      0.957378943      167.686598     0.0403655964     -20.5763449
22.8751416           0.039409863     -19.5651617      0.957615229      167.615403      0.957315093      167.619018     0.0404386055      -20.767954
22.996663           0.0394529048      -19.737556       0.95754961      167.547479      0.957251039      167.551108     0.0405125571      -20.959674
23.11883            0.0394961093     -19.9100931      0.957483637      167.479215      0.957186641      167.482859     0.0405870371     -21.1513987
23.241646           0.0395394744     -20.0827741      0.957417311       167.41061      0.957121896      167.414268     0.0406620465      -21.343128
23.3651144          0.0395813492     -20.2596199      0.957349057      167.341997      0.957056096      167.345479      0.040734237     -21.5311626
23.4892387          0.0396232329     -20.4370161      0.957280289      167.273073      0.956989877      167.276359      0.040806615     -21.7188725
23.6140224          0.0396652792     -20.6145869      0.957211153      167.203803      0.956923302      167.206893     0.0408794955     -21.9066068
23.739469           0.0397074856     -20.7923334      0.957141646      167.134185      0.956856371      167.137078     0.0409528795     -22.0943654
23.8655821          0.0397569703     -20.9664308      0.957078372      167.063891      0.956792575      167.066728     0.0410279753     -22.2834194
23.9923651          0.0398069567     -21.1404656      0.957015061      166.993229      0.956728597      166.996016       0.04110364     -22.4725503
24.1198216          0.0398571174     -21.3146124       0.95695141      166.922212      0.956664275      166.924949     0.0411798196     -22.6616999
24.2479552           0.039907999     -21.4895711       0.95688691      166.850837      0.956599456      166.853534      0.041255917     -22.8506147
24.3767695          0.0399654113     -21.6726761      0.956816182      166.779087      0.956532516      166.781879      0.041325617     -23.0366535
24.5062681          0.0400230612      -21.855865      0.956745076      166.706977      0.956465219      166.709862     0.0413957847     -23.2227528
24.6364547          0.0400809464     -22.0391383       0.95667359      166.634503      0.956397561      166.637483     0.0414664208     -23.4089126
24.7673329           0.040135563     -22.2234129      0.956602489       166.56171      0.956327942      166.564815     0.0415405197     -23.5980395
24.8989063          0.0401814406     -22.4101799      0.956532971      166.488665      0.956253854       166.49197     0.0416227888     -23.7946105
25.0311787          0.0402274951       -22.59714      0.956463079      166.415252      0.956179368      166.418758     0.0417056224     -23.9911862
25.1641538          0.0402737241      -22.784294      0.956392812      166.341469      0.956104482      166.345177     0.0417890214     -24.1877659
25.2978353          0.0403271994     -22.9607032      0.956322987      166.267366      0.956032699       166.27122     0.0418730094     -24.3877013
25.432227           0.0403864418     -23.1285307      0.956253439       166.19293      0.955963314      166.196884     0.0419576005     -24.5903002
25.5673326          0.0404458444     -23.2964086      0.956183517      166.118118      0.955893556      166.122173     0.0420427828     -24.7929089
25.7031559          0.0405054042     -23.4643375      0.956113219      166.042928      0.955823424      166.047084     0.0421285574     -24.9955267
25.8397008           0.040551852     -23.6552009      0.956039857      165.967406      0.955748286      165.971459     0.0422182537     -25.1883701
25.9769711          0.0405971017     -23.8486419      0.955965825      165.891507      0.955672266      165.895437      0.042308869     -25.3801805
26.1149706          0.0406425173     -24.0423135      0.955891396      165.815224       0.95559584      165.819029     0.0424000607     -25.5719635
26.2537032          0.0406907755     -24.2372012      0.955815374      165.738608      0.955519939      165.742324     0.0424910981      -25.761152
26.3931728          0.0407448106     -24.4343326      0.955736451      165.661715      0.955445581      165.665416     0.0425811653     -25.9449728
26.5333833          0.0407990635     -24.6316398      0.955657107      165.584433      0.955370826      165.588119     0.0426717719     -26.1287684
26.6743387          0.0408535315     -24.8291231       0.95557734      165.506758      0.955295673      165.510429     0.0427629187     -26.3125386
26.8160429           0.040908727      -25.021235      0.955499314      165.428569      0.955212264       165.43225     0.0428583855     -26.5144066
26.9584998          0.0409642296     -25.2121893       0.95542138      165.349955      0.955126549      165.353652     0.0429553821      -26.720515
27.1017136           0.041019912     -25.4032923      0.955343025      165.270942      0.955040373      165.274654     0.0430530284     -26.9265873
27.2456881          0.0410764702     -25.5947951      0.955264265      165.191639      0.954955753      165.195323     0.0431485552     -27.1309307
27.3904275          0.0411344652     -25.7868903       0.95518511      165.112133      0.954874308      165.115712     0.0432397259     -27.3322347
27.5359358          0.0411926445     -25.9791264       0.95510553      165.032223      0.954792427      165.035696     0.0433314896     -27.5335475
27.6822171           0.041251005     -26.1715036      0.955025523      164.951906      0.954710108      164.955273     0.0434238471      -27.734868
27.8292756          0.0413130233     -26.3605875      0.954945633      164.871011      0.954633878      164.874288      0.043516077     -27.9425023
27.9771152          0.0413753297     -26.5496683      0.954865331      164.789698      0.954557449      164.792886     0.0436089002     -28.1503576
28.1257402          0.0414378089      -26.738856      0.954784598      164.707971      0.954480609       164.71107      0.043702341     -28.3582307
28.2751548          0.0415002282     -26.9341067      0.954704716      164.625837      0.954406334      164.629059     0.0437986227     -28.5646977
28.4253631          0.0415627155     -27.1328441      0.954625132       164.54329      0.954333342      164.546757     0.0438967831     -28.7703583
28.5763694          0.0416254031     -27.3317171      0.954545118      164.460323      0.954259957      164.464035      0.043995572     -28.9760089
28.7281779          0.0416882873     -27.5307258      0.954464675      164.376932      0.954186175      164.380891     0.0440949901     -29.1816481
28.8807928          0.0417516715     -27.7304991      0.954383208      164.293346      0.954111522      164.297296     0.0441893362     -29.3876853
29.0342185          0.0418153218     -27.9305536      0.954301168      164.209387      0.954036357      164.213269     0.0442829633     -29.5938469
29.1884593          0.0418791641     -28.1307437      0.954218687         164.125      0.953960788      164.128813     0.0443771887     -29.8000414
29.3435194          0.0419431944     -28.3310698      0.954135764      164.040181      0.953884813      164.043926      0.044472013     -30.0062674
29.4994033          0.0420077839     -28.5309047      0.954052422      163.955021      0.953804932      163.958661     0.0445729931     -30.2122439
29.6561153          0.0420731372     -28.7298861      0.953968672      163.869569      0.953719153      163.873047      0.044683286     -30.4177478
29.8136598           0.042138665     -28.9289863      0.953884472      163.783679      0.953632912      163.786996     0.0447942534     -30.6231857
29.9720412           0.042204363     -29.1282053      0.953799818       163.69735      0.953546208      163.700504     0.0449058958     -30.8285565
30.131264            0.042270468      -29.328296      0.953714236      163.610576      0.953458921      163.613575     0.0450181709     -31.0343765
30.2913327          0.0423399394     -29.5383904      0.953621963      163.523317      0.953369649      163.526265      0.045130572     -31.2469263
30.4522517          0.0424096365     -29.7485977      0.953529191      163.435612      0.953279894      163.438507     0.0452436766     -31.4594083
30.6140256          0.0424795549     -29.9589174      0.953435917      163.347457      0.953189653        163.3503     0.0453574852     -31.6718209
30.7766589          0.0425496904     -30.1693493      0.953342139       163.25885      0.953098925      163.261641     0.0454719984     -31.8841627
30.9401561          0.0426204374     -30.3748448      0.953250561       163.16964       0.95300593      163.172483     0.0455879219     -32.0916698
31.1045219          0.0426914398     -30.5795263      0.953158979      163.079945      0.952912113      163.082859     0.0457046602     -32.2982403
31.2697609           0.042762619     -30.7843016      0.953066903       162.98979      0.952817792      162.992776     0.0458220855     -32.5047303
31.4358777          0.0428339701     -30.9891705      0.952974331      162.899172      0.952722962      162.902229     0.0459401981     -32.7111388
31.602877           0.0429066594      -31.192914      0.952879307      162.808236      0.952627057      162.811427     0.0460583539     -32.9276324
31.7707634          0.0429799788     -31.3962556      0.952782992      162.716892      0.952530409      162.720241     0.0461769912     -33.1480735
31.9395418          0.0430534603     -31.5996756      0.952686156      162.625078      0.952433238      162.628586     0.0462963737     -33.3684364
32.1092167          0.0431270986     -31.8031735      0.952588796      162.532792      0.952335541       162.53646     0.0464165018     -33.5887194
32.279793           0.0432001106     -32.0183461      0.952490844      162.440064      0.952239046      162.443769     0.0465412102      -33.798574
32.4512755          0.0432729539     -32.2392412       0.95239233      162.346873      0.952142868      162.350555     0.0466684917     -34.0033104
32.6236689          0.0433460115     -32.4602547      0.952293283      162.253202      0.952046169      162.256862      0.046796486     -34.2079273
32.7969782          0.0434192784      -32.681386      0.952193702       162.15905      0.951948948      162.162687     0.0469251932     -34.4124234
32.9712081          0.0434963576     -32.8977235       0.95209712      162.064657      0.951851816      162.068316     0.0470519486     -34.6272501
33.1463637          0.0435750615     -33.1121879       0.95200142      161.969875      0.951754401      161.973574     0.0471783958     -34.8461122
33.3224497          0.0436539543     -33.3267164        0.9519052      161.874604      0.951656457      161.878344     0.0473055965     -35.0648705
33.4994711          0.0437330304     -33.5413085      0.951808457      161.778843      0.951557981      161.782624     0.0474335507     -35.2835233
33.677433           0.0438081382     -33.7616252      0.951703191      161.682512      0.951452838      161.686218     0.0475656246     -35.5043175
33.8563403          0.0438826335     -33.9831256      0.951595824      161.585669       0.95134595      161.589278     0.0476991274     -35.7254059
34.036198           0.0439573016     -34.2047332      0.951487873      161.488327      0.951238482      161.491839     0.0478334205     -35.9463559
34.2170111          0.0440325155     -34.4265469      0.951379731      161.390489      0.951130767      161.393905     0.0479686552     -36.1668228
34.3987848          0.0441166812     -34.6507341      0.951280186      161.292274      0.951030303      161.295658     0.0481081679     -36.3792214
34.5815242          0.0442010614     -34.8749597      0.951180098      161.193551      0.950929291      161.196904     0.0482484508      -36.591459
34.7652343          0.0442856498     -35.0992227      0.951079464      161.094319      0.950827728       161.09764     0.0483895036     -36.8035343
34.9499204          0.0443713651     -35.3212421      0.950976811      160.994651      0.950726157      160.997889     0.0485299635     -37.0198471
35.1355876          0.0444592483     -35.5383856      0.950870434      160.894636      0.950625203      160.897677     0.0486682977     -37.2454449
35.3222411          0.0445473027     -35.7555306      0.950763477      160.794105      0.950523696      160.796947     0.0488074415     -37.4708945
35.5098862          0.0446355213     -35.9726762      0.950655936      160.693053      0.950421633      160.695696     0.0489473946     -37.6961939
35.6985282           0.044720932     -36.1986374      0.950546904      160.591491      0.950312818      160.594112     0.0490906467     -37.9196838
35.8881723          0.0448050481     -36.4290478      0.950436824       160.48941      0.950200301      160.492098     0.0492359616     -38.1421724
36.0788238          0.0448893533     -36.6595055      0.950326142        160.3868      0.950087169      160.389557     0.0493820956     -38.3644827
36.2704882          0.0449739232     -36.8896745      0.950215373      160.283656      0.949973964      160.286479     0.0495291087     -38.5868157
36.4631707          0.0450595541     -37.1162574      0.950109641      160.179935      0.949866066      160.182811     0.0496776032     -38.8111619
36.6568769          0.0451453353     -37.3428763      0.950003328      160.075677      0.949757576      160.078606     0.0498269284     -39.0353209
36.8516121           0.045231259     -37.5695302      0.949896432      159.970879      0.949648491      159.973862     0.0499770837     -39.2592909
37.0473818          0.0453197472     -37.7943284      0.949785422      159.865654      0.949536686      159.868684       0.05012635     -39.4853415
37.2441915           0.045410208      -38.017694      0.949671125      159.759971      0.949422657      159.763046     0.0502751467     -39.7129284
37.4420467          0.0455007962     -38.2410472      0.949556202      159.653741      0.949308004       159.65686     0.0504247748     -39.9403324
37.640953           0.0455912631     -38.4668024      0.949441258      159.546967      0.949192853      159.550116     0.0505762902      -40.166404
37.840916           0.0456801004     -38.7106251      0.949330247      159.439685      0.949078051      159.442764     0.0507365351     -40.3836931
38.0419413          0.0457691399     -38.9544786      0.949218624      159.331847      0.948962618      159.334855     0.0508976143     -40.6007541
38.2440345          0.0458583737     -39.1983612      0.949106387      159.223449       0.94884655      159.226386     0.0510595268     -40.8175856
38.4472012          0.0459513379     -39.4303526      0.948991238      159.114518      0.948730336      159.117609     0.0512190198      -41.049345
38.6514473          0.0460457485     -39.6578851      0.948874599      159.005032      0.948613663      159.008363     0.0513781972     -41.2865127
38.8567784          0.0461402705     -39.8853829      0.948757315      158.894977      0.948496345       158.89855     0.0515382774     -41.5234482
39.0632003          0.0462339597     -40.1174301      0.948640255      158.784488      0.948378889      158.788241     0.0517000547     -41.7563863
39.2707188          0.0463263701     -40.3563544      0.948523864      158.673631      0.948261554      158.677472     0.0518639062      -41.983433
39.4793397           0.046418912     -40.5952718      0.948406829      158.562198      0.948143572      158.566127     0.0520286255     -42.2102415
39.6890689          0.0465115766     -40.8341807      0.948289148      158.450186      0.948024938      158.454204     0.0521942112     -42.4368098
39.8999123          0.0466066292     -41.0794221      0.948170626      158.337556      0.947904888      158.341514     0.0523607543     -42.6683346
40.1118757           0.046703555     -41.3293808      0.948051302      158.224312        0.9477836      158.228099     0.0525282639     -42.9034952
40.3249651          0.0468006609     -41.5793048      0.947931314       158.11048      0.947661639      158.114095     0.0526966789     -43.1383972
40.5391866          0.0468979375     -41.8291922      0.947810659      157.996057      0.947538999      157.999498     0.0528659977     -43.3730383
40.7545461          0.0469965464      -42.077562      0.947688839      157.881083       0.94741625      157.884409     0.0530366553     -43.6068797
40.9710497          0.0471018992      -42.317518      0.947563555      157.765764      0.947296049      157.769307      0.053210672     -43.8374254
41.1887034          0.0472073831     -42.5573586      0.947437576      157.649845      0.947175179      157.653606     0.0533855868     -44.0676918
41.4075134          0.0473129877     -42.7970822      0.947310898      157.533323      0.947053637      157.537303     0.0535613977     -44.2976771
41.6274857          0.0474187024      -43.036687      0.947183516      157.416194      0.946931418      157.420394     0.0537381029     -44.5273791
41.8486267          0.0475192449      -43.281384      0.947058507      157.298396      0.946806685      157.302436     0.0539141652     -44.7615881
42.0709424          0.0476187994     -43.5270736      0.946933431      157.179972      0.946680882      157.183772     0.0540908212     -44.9964899
42.2944392           0.047718429     -43.7726964       0.94680766      157.060932      0.946554379      157.064491     0.0542683833     -45.2311058
42.5191232          0.0478181224     -44.0182507      0.946681187      156.941272      0.946427172      156.944589     0.0544468493     -45.4654337
42.7450009          0.0479197037     -44.2674076        0.9465556      156.821072      0.946299645      156.824428     0.0546288008     -45.7012722
42.9720785           0.048022559     -44.5188552      0.946430339      156.700301      0.946171657      156.703877     0.0548133537     -45.9379612
43.2003625          0.0481255015     -44.7702134      0.946304377        156.5789      0.946042953      156.582699     0.0549988422     -46.1743289
43.4298591          0.0482285196     -45.0214804      0.946177709      156.456867      0.945913528      156.460889     0.0551852639     -46.4103732
43.660575           0.0483321565     -45.2716311      0.946049891      156.334284      0.945784083      156.338315      0.055371707     -46.6492881
43.8925165          0.0484364489     -45.5205526      0.945920872      156.211157      0.945654686       156.21496     0.0555580965     -46.8913891
44.1256901          0.0485407717     -45.7693638      0.945791129      156.087389      0.945524564      156.090962     0.0557454357     -47.1331609
44.3601025          0.0486451123     -46.0180625      0.945660657      155.962976      0.945393712      155.966317     0.0559337217     -47.3746011
44.5957601          0.0487517943      -46.268674      0.945526719      155.837995       0.94526192      155.841292     0.0561235986     -47.6135978
44.8326697          0.0488615623     -46.5217837      0.945388452       155.71247       0.94512912      155.715965     0.0563152508     -47.8495054
45.0708378          0.0489713738     -46.7747327      0.945249412      155.586289      0.944995575      155.589985      0.056507827     -48.0850734
45.3102711          0.0490812152     -47.0275189      0.945109593       155.45945      0.944861281      155.463348     0.0567013241     -48.3202996
45.5509764          0.0491902036     -47.2818711      0.944973346      155.332023      0.944727112      155.335928     0.0568975388     -48.5580554
45.7929604          0.0492982458     -47.5379775      0.944841133       155.20401      0.944593157      155.207708     0.0570966828     -48.7986048
46.0362299          0.0494062872     -47.7939382      0.944708174      155.075329      0.944458446      155.078819     0.0572967854     -49.0387782
46.2807918          0.0495143136      -48.049751      0.944574464      154.945977      0.944322975      154.949257     0.0574978432     -49.2785733
46.5266529           0.049621566     -48.3094918      0.944438543      154.815852      0.944185934      154.819166     0.0576965444     -49.5190271
46.7738201          0.0497283065     -48.5718112       0.94430088      154.684982      0.944047582      154.688494      0.057893973     -49.7598121
47.0223003          0.0498350245     -48.8339883      0.944162442       154.55343      0.943908451       154.55714     0.0580923285     -50.0002376
47.2721005          0.0499417053     -49.0960205      0.944023224       154.42119      0.943768536        154.4251      0.058291607     -50.2403012
47.5232278          0.0500531294     -49.3586369      0.943885177       154.28852      0.943631581      154.292264     0.0584967278     -50.4795354
47.7756892          0.0501657111     -49.6212461      0.943746833      154.155222      0.943494782      154.158708     0.0587040078     -50.7182618
48.0294917          0.0502782509     -49.8836602      0.943607706      154.021228      0.943357207      154.024454     0.0589122257     -50.9565905
48.2846425          0.0503909002     -50.1456859      0.943467724       153.88653      0.943218428      153.889532     0.0591213982     -51.1957156
48.5411488          0.0505054488     -50.4052454      0.943326154      153.751099      0.943073825        153.7543     0.0593317973     -51.4485647
48.7990178          0.0506199053     -50.6645786      0.943183777      153.614959      0.942928399      153.618363     0.0595432086     -51.7009784
49.0582566           0.050734253     -50.9236828       0.94304059      153.478109      0.942782147      153.481715     0.0597556272     -51.9529542
49.3188726          0.0508490985     -51.1869222       0.94289873      153.340759      0.942638193      153.344423     0.0599683725     -52.1998212
49.5808731          0.0509646951      -51.455801       0.94275895      153.202981      0.942497638      153.206508      0.060181159     -52.4399936
49.8442655          0.0510802105     -51.7244479      0.942618375      153.064484      0.942356283      153.067872      0.060394871     -52.6797538
50.1090571          0.0511956273       -51.99286         0.942477      152.925262      0.942214123      152.928512     0.0606095034     -52.9190994
50.3752553          0.0513113458      -52.261286      0.942330732      152.785054      0.942069004      152.788437     0.0608253076     -53.1635178
50.6428678          0.0514270103     -52.5295089      0.942182877      152.644065      0.941922662      152.647632     0.0610421013     -53.4085122
50.9119018          0.0515425259     -52.7974788       0.94203418      152.502338      0.941775487      152.506091     0.0612598347     -53.6530673
51.1823651          0.0516613947     -53.0668546      0.941884677      152.359985      0.941627091      152.363832     0.0614789064      -53.896972
51.4542652          0.0517873175     -53.3393029      0.941734401      152.217123      0.941477068      152.220873     0.0616997347     -54.1400048
51.7276097          0.0519131299     -53.6114033      0.941583266      152.073513      0.941326188      152.077165      0.061921491     -54.3825875
52.0024063          0.0520388124     -53.8831531      0.941431268      151.929152      0.941174446      151.932706     0.0621441694     -54.6247174
52.2786628          0.0521605482     -54.1502141      0.941275638      151.783953      0.941020867      151.787534     0.0623719867     -54.8734765
52.5563868          0.0522815346     -54.4163445      0.941118733      151.637982      0.940866275      151.641608     0.0626013659     -55.1227243
52.8355862          0.0524022756     -54.6821456      0.940960932      151.491246      0.940710798      151.494918     0.0628317181     -55.3714714
53.1162689           0.052521631     -54.9533733      0.940806298      151.343876       0.94055706      151.347483     0.0630611953     -55.6198422
53.3984426          0.0526395804     -55.2303147      0.940655047      151.195873      0.940405196      151.199302     0.0632896924     -55.8678558
53.6821153          0.0527572915     -55.5069537      0.940502928      151.047096      0.940252462      151.050344      0.063519123      -56.115382
53.967295           0.0528752972     -55.7833514      0.940349512      150.897534      0.940098603       150.90065     0.0637491196     -56.3620599
54.2539897          0.0529959572     -56.0597615      0.940192972      150.747155      0.939942547      150.750403     0.0639781222     -56.6063658
54.5422074          0.0531163389      -56.335829      0.940035537      150.595989        0.9397856      150.599368     0.0642080155     -56.8501893
54.8319562          0.0532364203     -56.6115504      0.939877202      150.444032      0.939627755      150.447543     0.0644387923     -57.0935275
55.1232443           0.053357307      -56.885734      0.939718401       150.29134      0.939469734      150.294994     0.0646741465     -57.3397428
55.4160799          0.0534801139     -57.1571558      0.939559571      150.137971       0.93931227      150.141788     0.0649178934      -57.592193
55.710471           0.0536025461      -57.428194      0.939399825      149.983799      0.939153897       149.98778     0.0651626154     -57.8440806
56.0064261          0.0537245801      -57.698845      0.939239158       149.82882      0.938994609      149.832965     0.0654083048     -58.0954034
56.3039535           0.053846192     -57.9691051      0.939077564      149.673029      0.938834401      149.677339     0.0656549533     -58.3461585
56.6030613          0.0539693402     -58.2494284      0.938916447       149.51672      0.938672534      149.520858     0.0658962012     -58.5940307
56.9037582          0.0540923051      -58.530372      0.938754542      149.359621      0.938509663      149.363554     0.0661377235     -58.8411381
57.2060525           0.054214872     -58.8109065      0.938591705        149.2017      0.938345856      149.205425      0.066380132     -59.0877061
57.5099527          0.0543370159      -59.091028      0.938427931      149.042951      0.938181107      149.046468     0.0666234184     -59.3337314
57.8154673          0.0544597765     -59.3700407      0.938263205      148.883356      0.938016061      148.886786     0.0668710589     -59.5851648
58.122605           0.0545828015     -59.6481409      0.938097518      148.722914      0.937850512      148.726343     0.0671220432     -59.8401377
58.4313742          0.0547053268     -59.9258009      0.937930874      148.561632      0.937684006      148.565059     0.0673739646     -60.0945114
58.7417838          0.0548273257     -60.2030165      0.937763266      148.399504      0.937516538      148.402929     0.0676268139     -60.3482831
59.0538424          0.0549500784     -60.4819738      0.937596061      148.236591      0.937349069      148.240086     0.0678804906     -60.5989326
59.3675587          0.0550745464     -60.7642393       0.93743026      148.072935      0.937182302      148.076623     0.0681348936     -60.8446519
59.6829416          0.0551984706     -61.0460294        0.9372635      147.908421      0.937014572      147.912303     0.0683901582     -61.0897804
60                  0.0553218232     -61.3273395      0.937095776      147.743044      0.936845873      147.747121     0.0686462746     -61.3343149
