! TOUCHSTONE file generated by CST DESIGN STUDIO
! Date and time: Tue May 12 12:08:14 2026
! Project name: C:\sim_local\10base-t1m\passive_node_simulations_nostub.cst
! Tree item: Tasks\SPara1\S-Parameters
! Header version: 2024
! Port assignment regex: !\s*Touchstone port\s*([0-9]+)\s*=\s*(CST MWS port|CST DES external port|CST DES block port)\s*(.+)\s* \(\"(.*)\"\)(\s*mode\s*([0-9]+))?.*
! Touchstone port assignment:
! Touchstone port 1 = CST DES external port 1 ("PHY")
! Touchstone port 2 = CST DES external port 2 ("MDI")
# MHz S MA R 100
0.3                  0.198548422      108.591032      0.933983587     -160.609743      0.934039655     -160.607675      0.242626805      95.7143143
0.301593713           0.19750875      108.384851      0.934321251     -160.716333      0.934384655     -160.714588      0.241348824       95.597137
0.303195893          0.196474831      108.179189      0.934654085     -160.822371      0.934724876     -160.820952      0.240078022      95.4802525
0.304806585           0.19544663       107.97404      0.934982121     -160.927863      0.935060348     -160.926769       0.23881436       95.363657
0.306425833          0.194424113      107.769396      0.935305386     -161.032811        0.9353911     -161.032046      0.237557801      95.2473469
0.308053682          0.193407529      107.563772      0.935634947     -161.137027      0.935720396     -161.136443      0.236313604      95.1287969
0.30969018           0.192396826      107.357535      0.935968094     -161.240562      0.936047582     -161.240052      0.235080264      95.0086192
0.311335372          0.191391778      107.151746      0.936296883     -161.343558      0.936370383     -161.343122      0.233853878      94.8886287
0.312989303           0.19039235      106.946398      0.936621343     -161.446021      0.936688827      -161.44566      0.232634408       94.768821
0.31465202            0.18939787      106.741689      0.936939364     -161.547959      0.937003524      -161.54772      0.231417726      94.6491758
0.316323571          0.188407115      106.538014      0.937246975     -161.649379      0.937315607     -161.649402      0.230196094      94.5296701
0.318004001          0.187421886      106.334779      0.937550322     -161.750276      0.937623452     -161.750562      0.228981154      94.4103513
0.319693359          0.186442149      106.131977      0.937849432     -161.850654      0.937927086     -161.851204      0.227772869      94.2912152
0.321391691          0.185468033      105.929584      0.938144653     -161.950527      0.938226777     -161.951329       0.22657173      94.1722795
0.323099045          0.184503811      105.727193      0.938444639     -162.050182      0.938529064     -162.050861      0.225391733      94.0541173
0.32481547           0.183545013      105.525225      0.938740657     -162.149325      0.938827391      -162.14988      0.224218395      93.9361198
0.326541012          0.182591606      105.323671      0.939032736     -162.247961      0.939121783      -162.24839       0.22305168      93.8182826
0.328275722           0.18164356      105.122527      0.939320901     -162.346092      0.939412267     -162.346395      0.221891554      93.7006016
0.330019646          0.180694426      104.923376      0.939610446     -162.443819      0.939696209     -162.443871      0.220732253      93.5849121
0.331772836          0.179749847      104.724811      0.939896726     -162.541056      0.939976011     -162.540844      0.219578855      93.4696046
0.333535338          0.178810465      104.526657      0.940179211     -162.637797      0.940251979      -162.63732      0.218431931      93.3544831
0.335307204           0.17787625      104.328907      0.940457926     -162.734045      0.940524138     -162.733304      0.217291445      93.2395437
0.337088483          0.176952677      104.127647      0.940731508     -162.829104      0.940796306     -162.828434      0.216159968      93.1236028
0.338879225          0.176035225      103.926087      0.941001194      -162.92356       0.94106541     -162.923016      0.215035276      93.0076234
0.340679479          0.175122989      103.724844      0.941267235     -163.017529       0.94133087     -163.017111      0.213916915       92.891789
0.342489297          0.174215938      103.523909      0.941529654     -163.111014       0.94159271     -163.110722      0.212804852      92.7760959
0.34430873           0.173308697      103.323606      0.941799075     -163.204435      0.941855619     -163.204178      0.211686612      92.6622207
0.346137828          0.172405949      103.123638      0.942066125     -163.297421      0.942115486      -163.29719      0.210573224      92.5487013
0.347976643          0.171508225      102.923963      0.942329707     -163.389934      0.942371844     -163.389728      0.209465968      92.4353588
0.349825227           0.17061591      102.724694       0.94258957      -163.48195      0.942624583     -163.481776      0.208365198      92.3220586
0.351683631          0.169743164      102.529993      0.942836368     -163.572549      0.942869299     -163.572686      0.207284176      92.2042618
0.353551907          0.168875443      102.335652      0.943079796     -163.662679      0.943110629     -163.663128      0.206209205      92.0865357
0.355430109          0.168012717      102.141665      0.943319874     -163.752344      0.943348593     -163.753106      0.205140253      91.9688758
0.357318288          0.167152034      101.947563      0.943560285     -163.841659      0.943586887      -163.84256      0.204078633        91.85149
0.359216498          0.166286419      101.752218      0.943809777     -163.930896      0.943834295     -163.931343      0.203027514      91.7348797
0.361124792          0.165425624      101.557154      0.944056144     -164.019675      0.944078572     -164.019667      0.201982369      91.6183331
0.363043223          0.164569622      101.362364      0.944299407        -164.108      0.944319738     -164.107537      0.200943164      91.5018462
0.364971846          0.163725225       101.17094      0.944538539     -164.196361      0.944557734     -164.195453      0.199903317      91.3869691
0.366910715           0.16289222       100.98291      0.944773561     -164.284753      0.944792557     -164.283412      0.198862914      91.2737109
0.368859883          0.162063889      100.795278      0.945005506     -164.372707      0.945024295     -164.370929      0.197828312      91.1605657
0.370819407          0.161240204      100.608037      0.945234394     -164.460225      0.945252967     -164.458007      0.196799478      91.0475303
0.37278934           0.160410095      100.414636      0.945466977      -164.54565      0.945474381     -164.543941      0.195779717      90.9338014
0.374769738          0.159582779      100.220353      0.945697787     -164.630351      0.945692094     -164.629314      0.194766241      90.8200213
0.376760656          0.158760116      100.026282      0.945925705     -164.714612      0.945906843     -164.714251      0.193758454      90.7063209
0.378762151          0.157943233      99.8343812      0.946145392     -164.798669      0.946117748     -164.798887      0.192756827      90.5930939
0.380774279          0.157134011      99.6480246      0.946347859     -164.882919      0.946323333     -164.883451      0.191762182      90.4810156
0.382797096          0.156329314       99.462007      0.946547412     -164.966739      0.946526023     -164.967588      0.190773163      90.3690297
0.384830659          0.155529116      99.2763233       0.94674407     -165.050134      0.946725837     -165.051301      0.189789738      90.2571331
0.386875025          0.154735345       99.088311      0.946946793     -165.133071      0.946931356     -165.134076      0.188812353      90.1417933
0.388930252          0.153946678      98.8997153      0.947149612     -165.215577       0.94713685     -165.216264      0.187840613      90.0253362
0.390996396          0.153162468      98.7113745      0.947349689     -165.297666      0.947339599     -165.298035       0.18687433      89.9088799
0.393073517          0.152382208      98.5233134      0.947546724     -165.379184       0.94753852     -165.379343      0.185910813      89.7939983
0.395161672          0.151605273       98.335565      0.947740333     -165.459928      0.947732251     -165.460128      0.184946655       89.682752
0.39726092            0.15083274      98.1480532      0.947931249     -165.540259      0.947923309     -165.540499      0.183987865      89.5715895
0.399371321          0.150064583      97.9607723      0.948119488     -165.620179      0.948111709      -165.62046      0.183034413      89.4605079
0.401492932          0.149317333      97.7740845      0.948310615     -165.699069      0.948295846      -165.69996      0.182089365      89.3477723
0.403625815          0.148576009      97.5876843       0.94849969     -165.777492       0.94847722     -165.779051       0.18114988      89.2349222
0.405770028          0.147839093      97.4015348      0.948686232     -165.855509      0.948655994     -165.857737      0.180215648      89.1221097
0.407925631          0.147087777      97.2139778      0.948874883      -165.93416      0.948840917     -165.935898      0.179290383      89.0108266
0.410092687          0.146327473      97.0254255      0.949064326     -166.013142      0.949029509     -166.013571      0.178372992      88.9006532
0.412271254          0.145571311       96.837013      0.949251334     -166.091733      0.949215678     -166.090846      0.177460833      88.7905441
0.414461395          0.144819267      96.6487336      0.949435923     -166.169934      0.949399438     -166.167726      0.176553878      88.6804963
0.416663171          0.144086561       96.465315      0.949614625     -166.246814      0.949576335     -166.244541      0.175646756      88.5668205
0.418876643          0.143362804      96.2836339      0.949789856     -166.323008      0.949749434     -166.321072      0.174743017       88.451971
0.421101874          0.142643165      96.1022059      0.949962731     -166.398814      0.949920159     -166.397217      0.173844311      88.3371004
0.423338927          0.141927622       95.921026      0.950133264     -166.474236      0.950088525      -166.47298      0.172950613      88.2222049
0.425587863          0.141215093      95.7391807      0.950300159     -166.549238      0.950254119      -166.54827      0.172061188      88.1067458
0.427848747          0.140504572      95.5557679      0.950462181     -166.623786      0.950416565     -166.623001      0.171175316      87.9901933
0.430121641          0.139798111      95.3725424        0.9506219     -166.697956      0.950576714     -166.697355      0.170294345       87.873581
0.43240661           0.139095687      95.1894989      0.950779328      -166.77175      0.950734578     -166.771333      0.169418248       87.756905
0.434703718           0.13839731      95.0066424      0.950934629     -166.845175      0.950890337     -166.844935      0.168547323      87.6402187
0.437013028          0.137704656      94.8245133      0.951095739     -166.918393      0.951052744     -166.917887      0.167698454      87.5265046
0.439334607          0.137015959      94.6425612      0.951254712     -166.991241      0.951213018     -166.990468      0.166854511      87.4127527
0.441668518          0.136331197      94.4607809      0.951411561     -167.063723       0.95137117     -167.062681      0.166015467      87.2989595
0.444014829          0.135650348      94.2791672      0.951566298      -167.13584      0.951527213     -167.134529      0.165181298      87.1851216
0.446373603          0.134957827      94.0973407      0.951715775     -167.206947       0.95167335     -167.205738      0.164343497      87.0736963
0.448744909           0.13426511      93.9155273      0.951862336     -167.277523      0.951815355     -167.276513      0.163508294      86.9629066
0.451128812           0.13357618      93.7338122      0.952006805     -167.347734      0.951955246     -167.346925      0.162677845      86.8521219
0.453525378          0.132891014      93.5521895      0.952149194     -167.417585      0.952093037     -167.416976      0.161852124      86.7413395
0.455934677          0.132226209      93.3698154      0.952295193     -167.487267       0.95224339     -167.486674      0.161024276      86.6261303
0.458356774          0.131573623      93.1871274      0.952442077      -167.55669      0.952399201     -167.556018      0.160197564      86.5085964
0.460791739          0.130924855      93.0045496      0.952587002      -167.62576      0.952553098     -167.625009      0.159375402       86.390955
0.463239639          0.130279883      92.8220768      0.952729978      -167.69448      0.952705094      -167.69365      0.158557764      86.2732023
0.465700543          0.129636398      92.6368946      0.952865653     -167.763283       0.95284444     -167.762573      0.157744497      86.1613371
0.46817452           0.128995316      92.4500584      0.952996104     -167.832002      0.952975284     -167.831536      0.156935673      86.0531331
0.470661641          0.128358022      92.2632629      0.953124597     -167.900379      0.953104166     -167.900158      0.156131355      85.9449656
0.473161973          0.127724495      92.0765025      0.953251144     -167.968414      0.953231096      -167.96844      0.155331521      85.8368328
0.475675589          0.127095873      91.8942513      0.953386489     -168.035704      0.953364703      -168.03588      0.154538489      85.7223671
0.478202557          0.126471493      91.7143629      0.953525444      -168.10245      0.953500833     -168.102726      0.153751049      85.6045799
0.48074295           0.125850736      91.5345807       0.95366261     -168.168861      0.953635153     -168.169237      0.152967989       85.486662
0.483296839          0.125233584      91.3549001      0.953797995     -168.234939      0.953767673     -168.235415      0.152189283      85.3686098
0.485864294          0.124614733       91.176017       0.95393278      -168.30151      0.953898111     -168.302021      0.151423573      85.2569955
0.488445389          0.123997968      90.9974364      0.954066176     -168.367975      0.954026748     -168.368504      0.150664605       85.147127
0.491040196          0.123384687      90.8189675      0.954197883     -168.434116      0.954153679     -168.434663      0.149910029      85.0372419
0.493648787          0.122774872      90.6406057      0.954327911     -168.499934      0.954278914       -168.5005      0.149159824      84.9273382
0.496271236          0.122175206      90.4621731       0.95444773     -168.564059      0.954398132     -168.564325      0.148416995      84.8134612
0.498907617          0.121579127       90.283824       0.95456575     -168.627846        0.9545156     -168.627804      0.147678522      84.6994529
0.501558003          0.120986544      90.1055557      0.954682072      -168.69131      0.954631372     -168.690958      0.146944349      84.5853532
0.504222469          0.120396475      89.9283598      0.954800189     -168.754543      0.954748542     -168.754097       0.14621227      84.4704942
0.506901089          0.119807148      89.7540212      0.954926304     -168.817705      0.954872599     -168.817764      0.145478384      84.3536829
0.509593939          0.119221165       89.579811      0.955050868     -168.880552      0.954995085     -168.881119      0.144748673      84.2367369
0.512301095          0.118638509      89.4057255       0.95517389     -168.943085       0.95511601     -168.944164      0.144023117      84.1196532
0.515022632          0.118056022      89.2251838      0.955287267     -169.004841      0.955229275      -169.00603       0.14329457      84.0002605
0.517758627          0.117474967      89.0404844      0.955393963     -169.065991       0.95533712     -169.067039      0.142565605      83.8793238
0.520509157          0.116897318      88.8557083      0.955499054     -169.126831      0.955443369     -169.127735      0.141840649      83.7581884
0.523274299          0.116323238      88.6711624       0.95560269      -169.18739       0.95554801     -169.188152      0.141120092       83.637161
0.52605413           0.115757822      88.4959093      0.955708976     -169.248456      0.955650531     -169.249119      0.140415798      83.5252334
0.528848728          0.115195673       88.320743      0.955813742     -169.309218      0.955751513     -169.309782      0.139715554      83.4132426
0.531658173          0.114636773      88.1456595      0.955916996      -169.36968      0.955850965     -169.370143      0.139019339      83.3011865
0.534482542          0.114083031      87.9701996      0.956021149     -169.429639      0.955954283     -169.429909      0.138325833      83.1871812
0.537321915           0.11353432      87.7943785      0.956126091     -169.489109       0.95606118       -169.4891       0.13763508      83.0713073
0.540176373          0.112988832      87.6186141      0.956229597     -169.548282      0.956166654     -169.547993      0.136948268      82.9553052
0.543045994           0.11244629      87.4428447      0.956331293     -169.607171      0.956270814     -169.606608      0.136265495      82.8391045
0.54593086           0.111903275      87.2662962      0.956426132     -169.665943      0.956375036     -169.665208       0.13558831      82.7218019
0.548831051          0.111363421      87.0897782       0.95651954     -169.724424      0.956477884     -169.723515       0.13491501      82.6043465
0.551746649          0.110826712      86.9132868      0.956611525     -169.782615      0.956579363     -169.781532      0.134245577      82.4867352
0.554677736          0.110284444      86.7369078      0.956701788     -169.840612      0.956668303     -169.839627      0.133581906      82.3681426
0.557624394          0.109741095      86.5605758      0.956790514     -169.898368      0.956750486     -169.897613      0.132922987       82.248979
0.560586706          0.109200784      86.3842409       0.95687786     -169.955841      0.956831244     -169.955317      0.132267888      82.1296307
0.563564754            0.1086731      86.2068132      0.956971838     -170.013409      0.956921609     -170.012877      0.131611453      82.0119628
0.566558623          0.108166529      86.0273553      0.957079566     -170.071408      0.957031388     -170.070414      0.130949105      81.8976726
0.569568397          0.107663054      85.8479115      0.957186059     -170.129132      0.957139948     -170.127675      0.130290444      81.7832801
0.57259416            0.10716266      85.6684783      0.957291325     -170.186584      0.957247295     -170.184662      0.129635452      81.6687832
0.575635997          0.106660011      85.4894095      0.957390223     -170.242956      0.957342573     -170.240906        0.1289895      81.5531449
0.578693993          0.106155499      85.3106494      0.957483128     -170.298309      0.957426554     -170.296443      0.128352196      81.4364165
0.581768234          0.105654015      85.1318575      0.957574787     -170.353386      0.957509246     -170.351705      0.127718557      81.3195423
0.584858807          0.105155545      84.9530299      0.957665206     -170.408192      0.957590656     -170.406695      0.127088563        81.20252
0.587965798          0.104659284      84.7746895      0.957753932     -170.462724      0.957671596     -170.461417      0.126462579      81.0850924
0.591089295          0.104158761      84.6011401      0.957837261      -170.51697      0.957758683     -170.515894      0.125843696      80.9651655
0.594229385          0.103661117      84.4276047      0.957919392     -170.570947      0.957844591     -170.570104       0.12522842      80.8450428
0.597386156          0.103166335        84.25408      0.958000332     -170.624657      0.957929327     -170.624048      0.124616732      80.7247214
0.600559698            0.1026744      84.0805625      0.958080085     -170.678101      0.958012896     -170.677729      0.124008614      80.6041986
0.603750098          0.102188219       83.905471      0.958163064     -170.731377      0.958091239     -170.731166       0.12339777       80.484615
0.606957447          0.101705722      83.7299167      0.958246162     -170.784417       0.95816725     -170.784349      0.122788634       80.365172
0.610181834          0.101226067      83.5543435      0.958328135     -170.837198      0.958242085     -170.837273      0.122182969      80.2455447
0.613423351          0.100749239      83.3787481      0.958408988      -170.88972       0.95831575      -170.88994      0.121580759      80.1257306
0.616682088          0.100273704      83.2005563      0.958484019     -170.941764      0.958390277     -170.942164      0.120986108      80.0023404
0.619958136         0.0997997817      83.0202155       0.95855415     -170.993373      0.958465322     -170.993981      0.120398209      79.8759702
0.623251589         0.0993286826      82.8397652      0.958623154     -171.044725      0.958539283     -171.045543      0.119813749        79.74931
0.626562537         0.0988603929      82.6592016      0.958691035     -171.095824      0.958612164     -171.096851      0.119232712      79.6223564
0.629891074         0.0983985025      82.4794189      0.958762451     -171.146749      0.958685874     -171.147753      0.118655887      79.4995319
0.633237294         0.0979442952      82.3007697      0.958839125      -171.19753      0.958761114     -171.198196      0.118083557      79.3825296
0.63660129           0.097492868      82.1220454       0.95891477     -171.248062      0.958835307     -171.248388      0.117514614      79.2653863
0.639983157          0.097044207      81.9432428       0.95898939     -171.298345       0.95890846      -171.29833      0.116949042      79.1481004
0.643382989          0.096595707      81.7675285      0.959063641     -171.348563      0.958983571     -171.348308      0.116379624      79.0283126
0.646800883         0.0961456644      81.5969419      0.959137939     -171.398832      0.959062534     -171.398505      0.115801809      78.9044955
0.650236934         0.0956982235       81.426382       0.95921124     -171.448859      0.959140521      -171.44846      0.115227202      78.7804358
0.653691238         0.0952533701      81.2558463      0.959283549     -171.498646      0.959217538     -171.498175      0.114655788      78.6561307
0.657163894         0.0948113948      81.0805723      0.959355368     -171.548024      0.959289764     -171.547558      0.114092907      78.5334171
0.660654997         0.0943724739      80.8987364      0.959426906      -171.59693      0.959355824     -171.596575      0.113540511      78.4129992
0.664164646         0.0939362128      80.7167538      0.959497503     -171.645597      0.959420913     -171.645355       0.11299133      78.2923962
0.66769294          0.0935025983      80.5346208      0.959567164     -171.694028      0.959485035     -171.693899      0.112445345      78.1716061
0.671239977         0.0930726756      80.3556587      0.959632289     -171.742395      0.959544318     -171.742423      0.111906752      78.0474339
0.674805858         0.0926462219      80.1793681      0.959693495     -171.790672      0.959599429     -171.790891      0.111374835      77.9203656
0.678390682         0.0922223422      80.0030245      0.959753763     -171.838718      0.959653571      -171.83913       0.11084611       77.793016
0.68199455          0.0918010233      79.8266256      0.959813094     -171.886537      0.959706746     -171.887142      0.110320563      77.6653825
0.685617563         0.0913865071      79.6511455      0.959881941     -171.934342      0.959779374     -171.934452      0.109788489      77.5426462
0.689259823         0.0909759377      79.4759523      0.959953421     -171.981991      0.959858002     -171.981376      0.109256255      77.4214464
0.692921432         0.0905678766      79.3007199      0.960024054     -172.029417      0.959935822     -172.028073      0.108727075      77.3000601
0.696602492         0.0901624907      79.1252855      0.960093554     -172.076606      0.960012189      -172.07456      0.108201155      77.1784097
0.700303108         0.0897664167      78.9437231      0.960151327     -172.123063       0.96006323     -172.121475      0.107686524        77.05369
0.704023383         0.0893729323      78.7620653      0.960208233     -172.169298      0.960113357     -172.168169      0.107174949      76.9287356
0.707763422          0.088982025      78.5803102      0.960264274     -172.215312      0.960162573     -172.214644      0.106666416      76.8035445
0.711523329         0.0885883742      78.3984772      0.960321006     -172.261019      0.960216682     -172.260575      0.106158174      76.6789173
0.71530321          0.0881883531      78.2165355      0.960379491     -172.306362      0.960279645     -172.305744      0.105648344      76.5554118
0.719103171         0.0877907914      78.0344268       0.96043715     -172.351485      0.960341814     -172.350693      0.105141468      76.4316958
0.722923319          0.087395677      77.8521483      0.960493986     -172.396391      0.960403193     -172.395423      0.104637529      76.3077678
0.726763761         0.0869991172      77.6719207      0.960554104     -172.441593      0.960456663     -172.440821      0.104141812      76.1818903
0.730624605         0.0866039114      77.4921383      0.960614532     -172.486719      0.960507452     -172.486239      0.103650426      76.0553147
0.73450596          0.0862110583      77.3122201      0.960674208     -172.531634      0.960557426     -172.531449      0.103161972      75.9284908
0.738407933         0.0858222143      77.1345058      0.960732286     -172.576078      0.960608481     -172.576166      0.102678416      75.8018586
0.742330636          0.085440041      76.9628431       0.96078739     -172.619629      0.960663697     -172.619929      0.102202955      75.6761446
0.746274177         0.0850601628       76.791161      0.960841732     -172.662968       0.96071816     -172.663482      0.101730418      75.5502044
0.750238667         0.0846825675      76.6194583      0.960895316     -172.706098      0.960771875     -172.706826      0.101260793      75.4240366
0.754224219         0.0843191345       76.442223      0.960948511     -172.749337      0.960834003     -172.749715      0.100779361      75.2866166
0.758230943         0.0839605768       76.263763      0.961001038     -172.792436      0.960897381     -172.792345      0.100297642      75.1464519
0.762258953         0.0836043866      76.0852349      0.961052823     -172.835333      0.960960085      -172.83477     0.0998187131      75.0058442
0.766308361         0.0832429173      75.9059895      0.961104832     -172.878209      0.961013664     -172.877408     0.0993485192      74.8732269
0.770379281         0.0828738914       75.725791      0.961157384     -172.921118      0.961055607     -172.920385     0.0988888041       74.751252
0.774471827         0.0825071198      75.5454547       0.96120925     -172.963828      0.961096794     -172.963163     0.0984318859       74.629123
0.778586114         0.0821417033      75.3644995      0.961259657     -173.006252      0.961137368     -173.005659     0.0979762804      74.5051493
0.782722258         0.0817711493       75.179363      0.961302897     -173.047743      0.961178365      -173.04726     0.0975112032      74.3668463
0.786880375         0.0814028249      74.9939739      0.961345407     -173.089037      0.961218623     -173.088663      0.097048829       74.228144
0.791060581         0.0810367191       74.808329      0.961387192     -173.130133      0.961258144     -173.129869     0.0965891445      74.0890393
0.795262994         0.0806769137       74.624951      0.961432199     -173.171264      0.961297435     -173.170978     0.0961348323      73.9523028
0.799487732         0.0803298212      74.4479289      0.961486699     -173.212795      0.961337312     -173.212145     0.0956901361      73.8223883
0.803734913         0.0799849026      74.2708357      0.961540587     -173.254136      0.961376495     -173.253119     0.0952481242      73.6922184
0.808004657         0.0796421465      74.0936706      0.961593865     -173.295287      0.961414986     -173.293902      0.094808783      73.5617918
0.812297083         0.0793015419      73.9164325      0.961646536      -173.33625      0.961452787     -173.334495     0.0943720994      73.4311075
0.816612313          0.078957325      73.7409822       0.96168658     -173.376724       0.96149897     -173.375172     0.0939339974       73.301856
0.820950466         0.0786142458      73.5657703      0.961723983      -173.41696      0.961546031     -173.415707     0.0934978302       73.172648
0.825311666         0.0782732373      73.3904897      0.961760723     -173.457009      0.961592482     -173.456057     0.0930642516      73.0432058
0.829696034         0.0779342884      73.2151392      0.961796802     -173.496872      0.961638328     -173.496223     0.0926332484      72.9135285
0.834103693         0.0775984896      73.0358655      0.961835211     -173.536577      0.961684691     -173.536039      0.092208195      72.7787228
0.838534767         0.0772657194      72.8531457       0.96187556     -173.576122      0.961731434     -173.575528     0.0917886336      72.6393896
0.842989381         0.0769350374       72.670257        0.9619153     -173.615486      0.961777604     -173.614836     0.0913716616      72.4996891
0.847467659          0.076606433      72.4871979      0.961954436      -173.65467      0.961823205     -173.653963     0.0909572668      72.3596196
0.851969728         0.0762855292      72.3049492      0.961996379     -173.693562      0.961866808     -173.692857     0.0905428213      72.2200063
0.856495714         0.0759789685      72.1247349      0.962045178     -173.732029      0.961906725     -173.731454     0.0901252122      72.0818374
0.861045743         0.0756745278      71.9444597      0.962093446     -173.770318      0.961946064     -173.769872     0.0897100914      71.9433242
0.865619944         0.0753721969      71.7641241      0.962141186     -173.808429      0.961984825     -173.808113     0.0892974465      71.8044652
0.870218444         0.0750675096      71.5819929      0.962186105     -173.846494      0.962024164     -173.846229     0.0888894006      71.6661966
0.874841374         0.0747451575      71.3919903      0.962220309     -173.884963      0.962068062     -173.884391      0.088493287      71.5317819
0.879488862         0.0744248234      71.2017038      0.962253942     -173.923262      0.962111445      -173.92238      0.088099665      71.3971033
0.88416104          0.0741064975       71.011131      0.962287004     -173.961391      0.962154313     -173.960198     0.0877085228      71.2621605
0.888858037         0.0737927882      70.8213299       0.96232105     -173.999281      0.962195846     -173.997798     0.0873183007      71.1269525
0.893579988         0.0734969257      70.6377518      0.962363954     -174.036585      0.962231862     -174.034938     0.0869211423      70.9914705
0.898327022         0.0732030889      70.4540604      0.962406361     -174.073719      0.962267341     -174.071907     0.0865263671      70.8557113
0.903099275         0.0729112681      70.2702559      0.962448273     -174.110684      0.962302285     -174.108706      0.086133963      70.7196739
0.90789688          0.0726194168      70.0896605       0.96248842     -174.147565      0.962336027     -174.145579     0.0857440182      70.5820733
0.912719972         0.0723204226       69.923808       0.96252242     -174.184653      0.962366261     -174.183365      0.085356878      70.4384385
0.917568686         0.0720232279       69.758059      0.962555906     -174.221578      0.962395958     -174.220993     0.0849720938      70.2944221
0.922443158          0.071727822      69.5924148      0.962588879     -174.258342       0.96242512     -174.258463     0.0845896543      70.1500224
0.927343525         0.0714359462      69.4172368      0.962620293     -174.294993      0.962454315     -174.295469     0.0842096361       70.010403
0.932269924         0.0711499467      69.2202136      0.962648837     -174.331594      0.962484265     -174.331626     0.0838321119      69.8821785
0.937222495         0.0708659609      69.0228965      0.962676865     -174.368037      0.962513702     -174.367621     0.0834568582      69.7538113
0.942201375         0.0705839801      68.8252847       0.96270438     -174.404321      0.962542629     -174.403457     0.0830838627      69.6253022
0.947206705         0.0703036109      68.6387805       0.96273308     -174.440032      0.962574705     -174.438758        0.0827121      69.4869658
0.952238626         0.0700247394      68.4631749      0.962762922     -174.475183      0.962609838     -174.473537     0.0823416238      69.3389489
0.957297277         0.0697476881      68.2875515      0.962792278     -174.510176      0.962644518     -174.508156     0.0819734088      69.1905132
0.962382803         0.0694724471      68.1119112      0.962821152     -174.545014      0.962678747     -174.542615     0.0816074441      69.0416569
0.967495344         0.0691859466      67.9314187      0.962852879     -174.579905      0.962708303     -174.577701     0.0812550927      68.9014228
0.972635045         0.0688976307      67.7494615      0.962885076       -174.6147      0.962736251     -174.612848     0.0809081094      68.7633936
0.977802051         0.0686110417      67.5673403      0.962916841     -174.649342      0.962763742     -174.647845     0.0805633903      68.6251258
0.982996505         0.0683292819      67.3843638      0.962948765     -174.683769      0.962791625     -174.682601     0.0802201282      68.4854444
0.988218554         0.0680693379       67.196801      0.962984069     -174.717637      0.962824531     -174.716624     0.0798739816      68.3378889
0.993468345         0.0678112526      67.0091057      0.963018971     -174.751352      0.962857024     -174.750495     0.0795300581      68.1899644
0.998746025         0.0675550171      66.8212787      0.963053473     -174.784916      0.962889105     -174.784216     0.0791883473        68.04167
1.00405174          0.0672897318      66.6309425      0.963080982     -174.818991      0.962917913     -174.818084     0.0788396349      67.8958841
1.00938564          0.0670173916      66.4384425      0.963102701     -174.853458      0.962943971     -174.852045     0.0784855708      67.7520974
1.01474788          0.0667467997      66.2456751      0.963123963     -174.887783      0.962969597      -174.88586     0.0781335817      67.6079854
1.02013861          0.0664786061      66.0529237      0.963145309     -174.921915      0.962994898     -174.919514     0.0777844405       67.463595
1.02555797           0.066229344      65.8674074      0.963180284     -174.954549      0.963022523     -174.952588     0.0774578497      67.3201457
1.03100612          0.0659818483      65.6817938      0.963214896     -174.987035      0.963049743     -174.985519     0.0771334129      67.1764223
1.03648322          0.0657361103      65.4960842      0.963249145     -175.019376       0.96307656     -175.018306     0.0768111197      67.0324255
1.04198941          0.0654939319      65.3064772      0.963275966     -175.051471      0.963102395     -175.050758     0.0764781879      66.8811441
1.04752485          0.0652548314      65.1140374      0.963297382     -175.083349      0.963127418     -175.082933      0.076138289       66.724468
1.0530897           0.0650175356      64.9214409      0.963318376     -175.115085      0.963152039     -175.114964     0.0758004252      66.5673085
1.05868411          0.0647766485      64.7326217      0.963339765     -175.146851      0.963178213     -175.146954     0.0754686622      66.4114082
1.06430824          0.0645153809      64.5597785      0.963364089     -175.179185      0.963212004     -175.179207     0.0751556003      66.2622428
1.06996225          0.0642555993      64.3869089      0.963388046     -175.211383       0.96324547     -175.211324     0.0748446249      66.1127563
1.07564629          0.0639972946      64.2140131      0.963411635     -175.243445      0.963278612     -175.243304     0.0745357263      65.9629488
1.08136053          0.0637571145      64.0222523      0.963435725      -175.27581      0.963305056     -175.275216     0.0742205335      65.8193104
1.08710513          0.0635211642       63.827422      0.963459579     -175.308111      0.963330174     -175.307004     0.0739060496      65.6764234
1.09288024          0.0632869063      63.6323902      0.963483066     -175.340281      0.963354941     -175.338659      0.073593537      65.5333026
1.09868603           0.063054336      63.4377798      0.963506496     -175.372298      0.963379381     -175.370179     0.0732828618      65.3896959
1.10452267          0.0628234679      63.2580567      0.963537046     -175.403627      0.963404002     -175.401507     0.0729711621      65.2397182
1.11039031          0.0625941664      63.0783277      0.963567281     -175.434824      0.963428279     -175.432704     0.0726614054      65.0894138
1.11628912          0.0623664229      62.8985945      0.963597202     -175.465892      0.963452214     -175.463771     0.0723535817      64.9387826
1.12221927          0.0621402288       62.718859      0.963626811      -175.49683      0.963475807     -175.494709     0.0720476814      64.7878245
1.12818093          0.0619154319      62.5332376       0.96365085      -175.52784      0.963498946     -175.525606     0.0717505065      64.6492269
1.13417425          0.0616921279      62.3438972      0.963671323     -175.558847       0.96352169     -175.556431     0.0714594325      64.5183676
1.14019941          0.0614704085      62.1544451      0.963691467     -175.589729      0.963544115     -175.587129     0.0711702499       64.387486
1.14625659          0.0612502655      61.9648828      0.963711283     -175.620487      0.963566221     -175.617702     0.0708829483      64.2565852
1.15234593          0.0610297265      61.7766095      0.963729886     -175.651212       0.96358691     -175.648355     0.0705932418      64.1164298
1.15846763          0.0608060867      61.5915358       0.96374606     -175.682031      0.963604676     -175.679368     0.0702953616      63.9542541
1.16462185          0.0605839313      61.4063898      0.963761885      -175.71273      0.963622101     -175.710263     0.0699993552      63.7916121
1.17080876          0.0603632521      61.2211726      0.963777362      -175.74331      0.963639187     -175.741041     0.0697052138      63.6285023
1.17702854          0.0601446841      61.0360432      0.963793465     -175.773678       0.96365718      -175.77165     0.0694140093      63.4652093
1.18328136          0.0599355124      60.8528093      0.963821231      -175.80275      0.963690227      -175.80149     0.0691379879       63.305009
1.1895674           0.0597278236      60.6695584      0.963848738     -175.831699      0.963723042     -175.831212     0.0688638684      63.1444291
1.19588683          0.0595216096      60.4862926      0.963875988     -175.860526      0.963755626     -175.860816     0.0685916419        62.98347
1.20223983          0.0593168624      60.3030141      0.963902982     -175.889231      0.963787981     -175.890303        0.0683213      62.8221325
1.20862659          0.0591097359      60.1145989      0.963927221     -175.918287      0.963808281     -175.919265     0.0680450386      62.6681505
1.21504727          0.0589038516      59.9257919      0.963951045     -175.947254      0.963827595     -175.948083     0.0677701109      62.5143334
1.22150206          0.0586994287       59.736895      0.963974601     -175.976104       0.96384662     -175.976785      0.067496966      62.3602279
1.22799114          0.0584964596      59.5479099      0.963997891     -176.004839      0.963865357      -176.00537     0.0672255947      62.2058348
1.23451469          0.0582869915      59.3584415      0.964023936     -176.033951      0.963885281     -176.034228     0.0669640867      62.0499719
1.2410729           0.0580780475      59.1687953      0.964050079     -176.063006        0.9639051     -176.063017     0.0667052669      61.8937013
1.24766595          0.0578704822      58.9790129      0.964075995     -176.091951      0.963924655     -176.091693     0.0664482476      61.7371537
1.25429403          0.0576642878      58.7890951      0.964101684     -176.120786      0.963943948      -176.12026     0.0661930202      61.5803307
1.26095731          0.0574821953      58.5954541      0.964112854     -176.149601      0.963963182     -176.148835     0.0659234874      61.4282968
1.26765599          0.0573029589      58.4015745      0.964122868     -176.178314      0.963982169     -176.177309     0.0656546667      61.2763152
1.27439026          0.0571252273      58.2076755      0.964132572      -176.20692      0.964000897     -176.205676     0.0653874995      61.1240876
1.2811603           0.0569477072      58.0142389      0.964142648     -176.235364       0.96401916      -176.23389     0.0651228566       60.971214
1.28796631          0.0567538872      57.8273521      0.964161828     -176.262919      0.964034285     -176.261375     0.0648720196      60.8125499
1.29480848          0.0565614135      57.6404089      0.964180772     -176.290365      0.964049149     -176.288752     0.0646229007      60.6536006
1.30168699          0.0563702785      57.4534113      0.964199481     -176.317704      0.964063755     -176.316021     0.0643754914      60.4943674
1.30860204           0.056181841      57.2667531      0.964217507     -176.345064      0.964079738      -176.34343     0.0641301231      60.3344143
1.31555383          0.0559984383      57.0811441      0.964234074     -176.372665      0.964099914     -176.371406     0.0638873776      60.1729829
1.32254255          0.0558163584      56.8955439      0.964250394     -176.400163      0.964119862     -176.399282     0.0636463288      60.0112559
1.3295684           0.0556355937      56.7099553      0.964266469     -176.427559      0.964139583     -176.427057     0.0634069686      59.8492349
1.33663157          0.0554545282      56.5269594      0.964283488     -176.454597      0.964157913     -176.454145     0.0631677146      59.6905685
1.34373226          0.0552733993       56.346147      0.964301273      -176.48132       0.96417505      -176.48064     0.0629287909      59.5347063
1.35087067           0.055093531      56.1653808       0.96431884     -176.507941      0.964191963     -176.507033     0.0626914902       59.378633
1.35804701          0.0549149156      55.9846631      0.964336192     -176.534461      0.964208652     -176.533323     0.0624558037      59.2223506
1.36526147          0.0547387504      55.7916505       0.96435104     -176.561838      0.964232162     -176.560536     0.0622105716      59.0680441
1.37251425          0.0545640329      55.5971019      0.964365383     -176.589232      0.964256323     -176.587774     0.0619655489      58.9137852
1.37980557          0.0543906178      55.4024697      0.964379489     -176.616533      0.964280307     -176.614917     0.0617220394      58.7593175
1.38713562          0.0542189731      55.2112931      0.964394731      -176.64333      0.964303925     -176.641787     0.0614831849      58.5970306
1.39450461           0.054049632      55.0279094       0.96441278     -176.669128       0.96432695     -176.668167     0.0612528626      58.4175933
1.40191274          0.0538815259      54.8445779       0.96443063     -176.694829      0.964349803     -176.694452     0.0610241809      58.2376673
1.40936023          0.0537146472      54.6613014      0.964448284     -176.720433      0.964372484     -176.720644     0.0607971327       58.057253
1.41684729          0.0535438617      54.4623744      0.964470966     -176.746906      0.964383619     -176.746995     0.0605671271      57.9052482
1.42437412          0.0533730497       54.259274      0.964494819     -176.773534      0.964391622      -176.77332       0.06033742      57.7605194
1.43194093          0.0532035185      54.0559771      0.964518517     -176.800072      0.964399383     -176.799553      0.060109153      57.6157541
1.43954794           0.053040339      53.8620913        0.9645379     -176.826142      0.964413391     -176.825412     0.0598874017      57.4630602
1.44719537          0.0528879863      53.6864547       0.96454922     -176.851403      0.964439504     -176.850644     0.0596768008      57.2952364
1.45488342           0.052736824       53.511026      0.964560331     -176.876571      0.964465486     -176.875784      0.059467775      57.1271437
1.46261231          0.0525868447      53.3358092      0.964571234     -176.901647      0.964491337     -176.900832     0.0592603168      56.9587847
1.47038226          0.0524238875      53.1505087      0.964584856     -176.927117      0.964501748     -176.926316     0.0590501493      56.8002528
1.47819348          0.0522614348      52.9647638      0.964598424     -176.952521      0.964511263     -176.951736     0.0588412783      56.6420294
1.48604621            0.05210012       52.779039      0.964611807     -176.977838      0.964520572     -176.977069     0.0586338878      56.4836633
1.49394065          0.0519408543       52.586542      0.964626775     -177.003053        0.9645364     -177.001965     0.0584247029      56.3274858
1.50187702          0.0517833133      52.3899341      0.964642623     -177.028173      0.964556062     -177.026563     0.0582150084      56.1725769
1.50985556          0.0516269578      52.1932304      0.964658305     -177.053208      0.964575576     -177.051074     0.0580067287      56.0175618
1.51787649          0.0514717813      51.9964328       0.96467382     -177.078158      0.964594943     -177.075497     0.0577998558      55.8624436
1.52594002          0.0513156736      51.8076064      0.964684633     -177.103249       0.96460731     -177.100493     0.0575977464      55.6895559
1.53404639          0.0511601409      51.6208055      0.964694117     -177.128314      0.964617775     -177.125573     0.0573979675      55.5119184
1.54219583          0.0510056954      51.4340255      0.964703406       -177.1533       0.96462805     -177.150572     0.0571996808      55.3339287
1.55038855          0.0508523306      51.2472687        0.9647125     -177.178206      0.964638136     -177.175492     0.0570028795      55.1555888
1.5586248           0.0507078164      51.0557428      0.964719275     -177.202605      0.964644768     -177.200103     0.0568024352      54.9779229
1.56690481           0.050577271      50.8563754      0.964722347     -177.226217      0.964645825     -177.224256     0.0565949963      54.8015712
1.5752288           0.0504479803      50.6570432      0.964725201     -177.249745      0.964646653     -177.248329     0.0563889383      54.6248484
1.58359701          0.0503199382      50.4577506      0.964727835      -177.27319      0.964647255     -177.272321     0.0561842541      54.4477553
1.59200968          0.0501920102      50.2591796      0.964730861     -177.296605      0.964648654     -177.296246     0.0559811737      54.2706924
1.60046703          0.0500470791       50.071545      0.964743479     -177.320771      0.964666359     -177.320291     0.0557832604       54.099746
1.60896932          0.0499031972      49.8839443      0.964755936     -177.344861      0.964683931      -177.34426     0.0555866922      53.9285357
1.61751677          0.0497603581      49.6963799      0.964768234     -177.368874      0.964701371     -177.368151     0.0553914618      53.7570634
1.62610964          0.0496185553      49.5088542      0.964780372     -177.392812      0.964718681     -177.391967      0.055197562       53.585331
1.63474815          0.0494814356      49.3208936      0.964792881     -177.416417      0.964731531     -177.415529     0.0550199076      53.4202868
1.64343255          0.0493460886      49.1329045      0.964805357     -177.439894      0.964743387     -177.438978     0.0548465733      53.2565188
1.65216308          0.0492117892      48.9449858        0.9648177     -177.463297      0.964755103     -177.462353     0.0546746106      53.0926738
1.66094             0.0490785309      48.7571403      0.964829911     -177.486625      0.964766679     -177.485654     0.0545040119      52.9287557
1.66976354          0.0489477041      48.5687851      0.964841444     -177.510195      0.964780813     -177.509051     0.0543308291      52.7652003
1.67863395          0.0488185014        48.38027      0.964852608     -177.533828      0.964795958     -177.532447     0.0541573135       52.601748
1.68755149          0.0486903313      48.1918456      0.964863632      -177.55739      0.964810985     -177.555773     0.0539851086      52.4382192
1.6965164           0.0485631877       48.003515      0.964874516     -177.580884      0.964825897     -177.579028     0.0538142071      52.2746174
1.70552894          0.0484396463      47.8199111      0.964888467      -177.60391      0.964832461     -177.602155     0.0536342896      52.1042469
1.71458936          0.0483184308      47.6388583       0.96490394     -177.626661      0.964834645     -177.625183     0.0534503521      51.9302278
1.7236979            0.048198213      47.4580101      0.964919301     -177.649341      0.964836647     -177.648141     0.0532676523      51.7559555
1.73285484          0.0480789865      47.2773701      0.964934552     -177.671951      0.964838468     -177.671031     0.0530861832      51.5814316
1.74206042          0.0479541314      47.1045361      0.964940348     -177.694932      0.964847133     -177.694124      0.052914883      51.4084003
1.7513149           0.0478273862      46.9351563      0.964942049     -177.718033       0.96485862     -177.717265     0.0527486091      51.2359302
1.76061855          0.0477015086      46.7660498      0.964943576     -177.741071      0.964869987     -177.740341     0.0525836032      51.0633054
1.76997162           0.047576492      46.5972201      0.964944928     -177.764044      0.964881233     -177.763355     0.0524198585      50.8905292
1.77937438          0.0474515892      46.4057125      0.964958387     -177.787139      0.964891148     -177.786228     0.0522538373      50.7163365
1.78882709          0.0473274958       46.209429      0.964974301     -177.810211      0.964900682     -177.809023     0.0520883124      50.5416996
1.79833002          0.0472043715      46.0131279       0.96499012     -177.833221      0.964910086     -177.831755      0.051924011      50.3668823
1.80788343          0.0470823785      45.8167115      0.965005776     -177.856171      0.964919539     -177.854429     0.0517609562      50.1924388
1.81748759          0.0469669345      45.6169783       0.96501906     -177.879063      0.964934788     -177.877151     0.0516000619      50.0362204
1.82714277          0.0468524901      45.4172438      0.965032247     -177.901896      0.964949949     -177.899813     0.0514403066      49.8800551
1.83684924          0.0467390397      45.2175108      0.965045336     -177.924671      0.964965024     -177.922416     0.0512816831      49.7239469
1.84660728          0.0466269249      45.0278228        0.9650536     -177.947102      0.964976773     -177.944758     0.0511222944      49.5632543
1.85641716          0.0465164897      44.8611617      0.965050977     -177.968824      0.964981047     -177.966582     0.0509597474      49.3919453
1.86627915          0.0464068921      44.6948537      0.965048175     -177.990485       0.96498518     -177.988346     0.0507983323       49.220499
1.87619353          0.0462981256      44.5289025      0.965045194     -178.012085       0.96498917     -178.010049     0.0506380426       49.048918
1.88616058          0.0461960338      44.3508999      0.965054336     -178.033808      0.964995942      -178.03196     0.0504835343       48.879907
1.89618057          0.0460979532      44.1666015      0.965069884     -178.055571      0.965004138     -178.053954     0.0503326183      48.7122624
1.9062538           0.0460008103      43.9825437      0.965085361     -178.077275      0.965012222     -178.075892     0.0501828295      48.5445753
1.91638054          0.0459023963      43.7985622      0.965100021     -178.098967      0.965020305     -178.097807     0.0500349226      48.3758268
1.92656108          0.0457765402      43.6125384      0.965105011     -178.121167      0.965029729     -178.120096     0.0498979682      48.1938624
1.9367957           0.0456514514      43.4265179      0.965109879     -178.143314      0.965039059     -178.142333     0.0497622331      48.0117652
1.9470847           0.0455271243      43.2405013      0.965114628     -178.165411      0.965048294     -178.164519     0.0496277113      47.8295393
1.95742835           0.045424843      43.0614499      0.965115709     -178.186774      0.965050066       -178.1861     0.0494812701       47.654071
1.96782695          0.0453403733      42.8882565      0.965113818     -178.207539      0.965045819     -178.207185     0.0493254504      47.4839669
1.97828079          0.0452568068      42.7154769      0.965111766     -178.228247        0.9650414     -178.228216     0.0491706504      47.3137571
1.98879016          0.0451706416      42.5403443       0.96511067     -178.249104      0.965038702     -178.249278     0.0490179161      47.1429187
1.99935537          0.0450557719      42.3419242      0.965118879     -178.271652      0.965051887     -178.271014     0.0488751289      46.9675381
2.0099767           0.0449417205      42.1434226      0.965126989     -178.294155      0.965065002     -178.292701     0.0487334131      46.7920555
2.02065446          0.0448284824      41.9448403      0.965135001     -178.316615      0.965078048     -178.314341     0.0485927625       46.616474
2.03138894          0.0447466561      41.7522991      0.965153507     -178.338124      0.965087282     -178.335873      0.048455131      46.4343464
2.04218044          0.0446778928      41.5624607      0.965176172     -178.359227      0.965094946     -178.357335     0.0483193716      46.2495039
2.05302928          0.0446101158      41.3729697      0.965198822     -178.380282      0.965102514     -178.378751     0.0481847108      46.0644875
2.06393575          0.0445248412      41.1888618      0.965207671      -178.40114      0.965106373     -178.399773     0.0480541455      45.8852663
2.07490016          0.0444111005      41.0129063      0.965194568     -178.421713      0.965104386     -178.420194     0.0479294034      45.7154624
2.08592281          0.0442980317      40.8370734      0.965181269     -178.442238      0.965102262     -178.440567     0.0478057217      45.5457057
2.09700402          0.0441856292      40.6613641      0.965167775     -178.462715      0.965100002      -178.46089     0.0476830941      45.3760006
2.1081441           0.0440859747      40.4762453      0.965163588     -178.483325      0.965100537     -178.481228      0.047555213      45.2012902
2.11934336           0.043996628      40.2837516      0.965166748     -178.504032      0.965103262     -178.501569     0.0474233986      45.0225344
2.13060211          0.0439081191      40.0913828      0.965169799     -178.524695      0.965105877     -178.521863     0.0472925952      44.8436814
2.14192068          0.0438204429      39.8991418      0.965172742     -178.545313      0.965108382     -178.542111      0.047162797      44.6647344
2.15329937          0.0437328624       39.709671      0.965175548     -178.565942      0.965112132     -178.562495     0.0470349812      44.4852436
2.16473851           0.043641482      39.5368235      0.965178062      -178.58686      0.965124223     -178.583967     0.0469142991      44.3028552
2.17623842          0.0435507936       39.364253       0.96518047     -178.607738      0.965136258     -178.605401     0.0467946549      44.1203912
2.18779942          0.0434607919      39.1919618      0.965182773     -178.628577      0.965148238     -178.626799     0.0466760431      43.9378553
2.19942184          0.0433714715      39.0199522      0.965184971     -178.649377      0.965160163     -178.648161     0.0465584578      43.7552514
2.211106            0.0432831643      38.8379634       0.96518739     -178.669878      0.965153814     -178.668863     0.0464272261       43.581837
2.22285223          0.0431956628       38.653884      0.965189776     -178.690281      0.965143261     -178.689388     0.0462936303      43.4104268
2.23466086          0.0431088934      38.4699821      0.965192057     -178.710645      0.965132535     -178.709874     0.0461609043      43.2389724
2.24653223          0.0430228508      38.2862599      0.965194235     -178.730971      0.965121635     -178.730321     0.0460290419      43.0674759
2.25846666          0.0429483451      38.1070764      0.965200087     -178.751158      0.965126729     -178.750504       0.04591576      42.8949391
2.27046449          0.0428819635       37.931197      0.965208444     -178.771238      0.965142774     -178.770494     0.0458155196      42.7218083
2.28252605          0.0428163544      37.7556999      0.965216746      -178.79128      0.965158802     -178.790447      0.045716289      42.5488004
2.29465169          0.0427515129      37.5805883      0.965224992     -178.811286      0.965174813     -178.810362     0.0456180623      42.3759204
2.30684175          0.0426832675      37.4000645       0.96522845     -178.831738      0.965186589     -178.830468     0.0455141042      42.2096466
2.31909657          0.0426109741       37.213116      0.965226349     -178.852715      0.965193446       -178.8508     0.0454032789      42.0510239
2.33141649          0.0425394381      37.0263973      0.965224135     -178.873662      0.965200241     -178.871099     0.0452933143      41.8926002
2.34380185          0.0424686547      36.8399113      0.965221809      -178.89458      0.965206974     -178.891365     0.0451842041      41.7343795
2.35625301          0.0423924014      36.6635543      0.965220457     -178.914849      0.965205548     -178.911669     0.0450718637      41.5672957
2.36877032          0.0423082449      36.5010707      0.965220488     -178.934234      0.965192879     -178.932036     0.0449547907       41.387788
2.38135413          0.0422246571      36.3389238      0.965220417     -178.953583       0.96518004     -178.952374     0.0448385792      41.2082155
2.39400478          0.0421416329      36.1771155      0.965220243     -178.972897      0.965167033     -178.972682     0.0447232239      41.0285806
2.40672264          0.0420661591      36.0098186      0.965221204     -178.992737      0.965163584     -178.992789     0.0446188732      40.8481249
2.41950806          0.0419994054      35.8361283      0.965223506     -179.013193      0.965171286     -179.012666     0.0445271869      40.6668242
2.4323614           0.0419333234      35.6627787      0.965225726     -179.033623      0.965178936     -179.032514     0.0444364636      40.4855947
2.44528302          0.0418679086      35.4897724      0.965227865     -179.054027      0.965186534     -179.052333     0.0443466981      40.3044409
2.45827329          0.0417978247      35.3110591      0.965231866     -179.074065      0.965194155     -179.072086     0.0442472352      40.1179118
2.47133257          0.0417246552      35.1283145      0.965237162     -179.093837      0.965201776     -179.091785     0.0441411976      39.9274695
2.48446122          0.0416521371      34.9457545      0.965242394     -179.113582      0.965209343     -179.111456     0.0440360431       39.736902
2.49765962          0.0415802662      34.7633808      0.965247562       -179.1333      0.965216856       -179.1311     0.0439317666      39.5462118
2.51092813          0.0415086064      34.6008374      0.965253332     -179.152926      0.965213271     -179.150934     0.0438385854      39.3724341
2.52426713          0.0414373781      34.4439241      0.965259224     -179.172507      0.965206627     -179.170801     0.0437489893      39.2033513
2.537677            0.0413666808       34.287421      0.965265062     -179.192064      0.965199864     -179.190644      0.043660242      39.0344507
2.5511581           0.0412966185      34.1301774      0.965270047     -179.211611      0.965193215     -179.210467     0.0435711455      38.8653495
2.56471081          0.0412286644       33.956911      0.965263593     -179.231362      0.965189755     -179.230331     0.0434659117      38.6908544
2.57833553          0.0411613041      33.7839251      0.965257018     -179.251091      0.965186193     -179.250173     0.0433614351      38.5163812
2.59203262           0.041094533      33.6112213      0.965250324     -179.270797      0.965182527     -179.269993     0.0432577103      38.3419323
2.60580248          0.0410282054      33.4331515      0.965247814      -179.29068       0.96518256     -179.289848     0.0431643842      38.1717859
2.61964549          0.0409622941      33.2472937      0.965251311     -179.310824        0.9651879     -179.309763      0.043085503      38.0078837
2.63356204          0.0408970095      33.0615978      0.965254749     -179.330951      0.965193188     -179.329659     0.0430074441      37.8442576
2.64755251          0.0408323475      32.8760653      0.965258128      -179.35106      0.965198427     -179.349537     0.0429302022      37.6809117
2.66161731          0.0407693233      32.7172036       0.96526223     -179.370272      0.965199643     -179.369077     0.0428369399      37.4978563
2.67575683          0.0407070156      32.5641033      0.965266433     -179.389285      0.965199982     -179.388533     0.0427410735      37.3107318
2.68997146          0.0406452051      32.4114455      0.965270578     -179.408276      0.965200244      -179.40797     0.0426459902      37.1235409
2.70426161          0.0405876323      32.2517739      0.965272816     -179.427377      0.965199821     -179.427371     0.0425538477      36.9413389
2.71862767          0.0405387209      32.0764097      0.965270987     -179.446739       0.96519801     -179.446714     0.0424671249      36.7700985
2.73307005          0.0404904454      31.9013988      0.965269076     -179.466083      0.965196115      -179.46604     0.0423811464      36.5989985
2.74758915          0.0404428016      31.7267433      0.965267082     -179.485411      0.965194137     -179.485349     0.0422959072      36.4280417
2.76218538          0.0403730847      31.5629378      0.965268268     -179.505109      0.965194599     -179.504806     0.0422115511      36.2501379
2.77685916          0.0403002942      31.4010182      0.965269892     -179.524853      0.965195379     -179.524273     0.0421279757      36.0712131
2.79161088          0.0402279327      31.2393507      0.965271449     -179.544584      0.965196088     -179.543726      0.042045155      35.8923648
2.80644098          0.0401726305      31.0749614      0.965276931     -179.564248      0.965196563     -179.563166     0.0419600976      35.7217068
2.82134985          0.0401361699      30.9077205      0.965286766     -179.583837      0.965196795     -179.582591     0.0418724368      35.5601265
2.83633793          0.0401003342      30.7409531      0.965296587     -179.603414      0.965196963     -179.602004      0.041785423      35.3987508
2.85140563          0.0400607021      30.5758894      0.965304262     -179.622995      0.965196827     -179.621461     0.0417007555       35.239702
2.86655338          0.0399960073      30.4183201      0.965299556     -179.642653      0.965195229     -179.641239     0.0416266027      35.0932472
2.88178159          0.0399317346      30.2610707      0.965294761     -179.662301      0.965193559     -179.661008     0.0415530988      34.9472036
2.89709071            0.03986788      30.1041415      0.965289879     -179.681939      0.965191818     -179.680768     0.0414802387      34.8015747
2.91248115          0.0398098469      29.9434305      0.965287835     -179.701515       0.96519218     -179.700377     0.0414071357      34.6448001
2.92795335          0.0397638188      29.7743278      0.965291958     -179.720966      0.965197122     -179.719673     0.0413328593      34.4636244
2.94350774          0.0397183348      29.6055688      0.965296037     -179.740408      0.965202026      -179.73896     0.0412593154      34.2825357
2.95914477          0.0396733913       29.437155      0.965300074     -179.759843      0.965206892     -179.758238     0.0411864995      34.1015367
2.97486487          0.0396289843      29.2690876      0.965304069      -179.77927      0.965211721     -179.777509     0.0411144071      33.9206301
2.99066848          0.0395733509      29.1215736      0.965298679     -179.798631      0.965208616     -179.796776     0.0410373058      33.7383844
3.00655604          0.0395167794      28.9767711       0.96529214      -179.81798      0.965204537     -179.816037      0.040960246      33.5560163
3.022528            0.0394605865      28.8324026      0.965285503     -179.837322      0.965200372     -179.835292     0.0408838686      33.3736869
3.03858481          0.0394047683      28.6884687      0.965278768     -179.856659      0.965196121      -179.85454     0.0408081696      33.1913982
3.05472692          0.0393552235      28.5353644      0.965278377     -179.876078       0.96519927     -179.873892     0.0407376371      33.0203662
3.07095479          0.0393104305      28.3756461      0.965282631     -179.895557      0.965207846      -179.89332     0.0406710275      32.8577292
3.08726886          0.0392661061      28.2163012       0.96528685     -179.915032       0.96521641     -179.912744     0.0406050565       32.695365
3.1036696           0.0392222467      28.0573302      0.965291036     -179.934505      0.965224963     -179.932165     0.0405397194      32.5332764
3.12015747          0.0391754369      27.8979897      0.965291878     -179.953518       0.96522835     -179.951262     0.0404741329      32.3663384
3.13673293          0.0391228665      27.7376127      0.965286642     -179.971692      0.965222311      -179.96977     0.0404075996      32.1902724
3.15339644          0.0390707181      27.5775232      0.965281321     -179.989858      0.965216184     -179.988273     0.0403417226      32.0143482
3.17014847           0.039018988      27.4177213      0.965275915      179.991984      0.965209968      179.993231     0.0402764975      31.8385682
3.1869895           0.0389711568      27.2555626        0.9652727      179.973517       0.96520626      179.974489     0.0402119945      31.6627197
3.20391999          0.0389358663      27.0845595      0.965277312      179.953964      0.965211491      179.954884     0.0401483951      31.4862728
3.22094043          0.0389010979      26.9138808      0.965281894      179.934409      0.965216694      179.935276     0.0400854393      31.3099709
3.23805128          0.0388668482      26.7435273      0.965286446      179.914852      0.965221872      179.915666     0.0400231229      31.1338161
3.25525304          0.0388304816      26.5750848      0.965289515      179.895357      0.965225058      179.896149     0.0399608663       30.961049
3.27254617          0.0387827092       26.414079      0.965285988       179.87615      0.965219335      179.877067     0.0398966037      30.8030978
3.28993118          0.0387353418       26.253352      0.965282391      179.856941      0.965213531      179.857983     0.0398328918      30.6454312
3.30740853          0.0386883759      26.0929036      0.965278724       179.83773      0.965207644      179.838898      0.039769726      30.4880512
3.32497874          0.0386413055      25.9344379      0.965274113      179.818555       0.96520167      179.819847     0.0397088607      30.3307675
3.34264228          0.0385928659      25.7821801      0.965266389      179.799513      0.965195592       179.80092      0.039654653      30.1731333
3.36039967          0.0385447807      25.6302427      0.965258576      179.780468      0.965189433      179.781989     0.0396010227      30.0158331
3.37825138          0.0384970466      25.4786253      0.965250675      179.761419      0.965183194      179.763056     0.0395479655      29.8588693
3.39619793          0.0384541258      25.3288569      0.965244927      179.742237      0.965178927      179.743959     0.0394899211      29.6960801
3.41423982           0.038419965      25.1823627      0.965243315       179.72281       0.96517845      179.724559     0.0394219948      29.5218897
3.43237755          0.0383861952       25.036313      0.965241641      179.703375      0.965177921      179.705151     0.0393546019       29.347784
3.45061164          0.0383528133      24.8907081      0.965239906      179.683931      0.965177341      179.685735     0.0392877384      29.1737638
3.46894259          0.0383180198      24.7357595      0.965239107       179.66443      0.965172966      179.666394     0.0392283284      29.0076981
3.48737093          0.0382821664      24.5731053       0.96523908      179.644877      0.965165442      179.647113     0.0391751418       28.848338
3.50589716          0.0382467339      24.4107464       0.96523901      179.625315      0.965157834      179.627824     0.0391224928      28.6892736
3.52452181          0.0382117192      24.2486827      0.965238897      179.605742      0.965150142      179.608525     0.0390703774      28.5305066
3.54324541          0.0381776613      24.0907923      0.965237914      179.586388      0.965145114      179.589211     0.0390134988      28.3659129
3.56206847          0.0381441195      23.9340491      0.965236706      179.567073      0.965140596      179.569886     0.0389560188      28.2002334
3.58099152          0.0381109753       23.777638      0.965235448      179.547748      0.965136009       179.55055     0.0388990493      28.0347527
3.6000151           0.0380754003      23.6264565       0.96523299      179.528329      0.965130841      179.531043     0.0388421502      27.8709085
3.61913974          0.0380267327      23.4988582      0.965225016      179.508511      0.965123179      179.510759      0.038783665      27.7140986
3.63836598          0.0379782751      23.3716917      0.965216957      179.488678      0.965115436      179.490457     0.0387256395      27.5575433
3.65769436          0.0379300239      23.2449565      0.965208812       179.46883      0.965107611      179.470138     0.0386680697      27.4012436
3.67712542          0.0378950617      23.1057977      0.965206461      179.449535      0.965101846      179.450683      0.038615731      27.2543859
3.6966597           0.0378694591      22.9582047      0.965208114       179.43062      0.965097486      179.431824     0.0385671301       27.114247
3.71629775          0.0378442423      22.8110234      0.965209737      179.411692      0.965093062      179.412952     0.0385189726       26.974539
3.73604013          0.0378187433      22.6663766      0.965209671      179.392767      0.965087781      179.394113      0.038471815        26.83481
3.75588739          0.0377855685      22.5477135      0.965189585      179.374003      0.965072891      179.375795     0.0384318537        26.69007
3.77584008          0.0377526465      22.4296046      0.965169356      179.355226      0.965057887      179.357468     0.0383923759      26.5457693
3.79589878          0.0377199742      22.3120497      0.965148983      179.336436      0.965042767      179.339129     0.0383533779      26.4019097
3.81606403          0.0377190222      22.1812945      0.965166356      179.318287      0.965064266      179.320556     0.0383299424      26.2403736
3.8363364            0.037737401       22.043015      0.965206503      179.300519      0.965107871      179.301834     0.0383161796      26.0684224
3.85671647          0.0377563455      21.9054715      0.965246826      179.282742       0.96515167      179.283098     0.0383031043      25.8968898
3.87720481          0.0377611204      21.7579173      0.965278743      179.264032      0.965185228      179.263657      0.038278231      25.7119364
3.89780199          0.0377188063      21.5759684      0.965283021      179.242322      0.965185157      179.241968     0.0382137377      25.4821887
3.91850859           0.037676858      21.3940103      0.965287265      179.220581      0.965185029      179.220248     0.0381498741       25.251958
3.93932519          0.0376352734      21.2120415      0.965291476      179.198808      0.965184844      179.198497     0.0380866388      25.0212432
3.96025237          0.0375926259      21.0446429      0.965278767      179.178055      0.965170222       179.17813     0.0380242335      24.8690213
3.98129073          0.0375501417      20.8788171      0.965264219      179.157382       0.96515401      179.157882     0.0379621703      24.7251032
4.00244085          0.0375079616       20.713076      0.965249556      179.136682      0.965137672      179.137609     0.0379004096      24.5814472
4.02370333          0.0374668343      20.5500446      0.965235676       179.11606      0.965122948      179.117377     0.0378402234      24.4382642
4.04507877          0.0374346471      20.4175762      0.965232085      179.096644      0.965128242       179.09789     0.0377951028      24.2978414
4.06656775           0.037402704      20.2854821      0.965228441      179.077206      0.965133531      179.078381     0.0377503535      24.1577986
4.0881709           0.0373710022      20.1537613      0.965224744      179.057745      0.965138815      179.058849     0.0377059719      24.0181361
4.10988881           0.037339539      20.0224129      0.965220994      179.038261      0.965144095      179.039293     0.0376619544      23.8788546
4.13172209          0.0373075913       19.889123      0.965217343      179.018478      0.965141471       179.01972     0.0376286529       23.714823
4.15367137          0.0372755062      19.7549849      0.965213718      178.998526      0.965134691      179.000125      0.037601243      23.5380034
4.17573724           0.037243655       19.621193       0.96521004      178.978546      0.965127842      178.980505     0.0375743849      23.3614027
4.19792033          0.0372120353      19.4877461      0.965206307      178.958538      0.965120924      178.960859     0.0375480759      23.1850223
4.22022128          0.0371831015      19.3499604      0.965200989      178.938602       0.96511243      178.941003     0.0375157443      23.0223783
4.24264069          0.0371592515      19.2033357      0.965192609      178.918832      0.965100909      178.920761      0.037470967      22.8864808
4.2651792           0.0371357055       19.057012      0.965184153      178.899035      0.965089294      178.900489     0.0374265099      22.7509605
4.28783744          0.0371124613      18.9109881       0.96517562       178.87921      0.965077586      178.880186     0.0373823694      22.6158176
4.31061606          0.0370882316      18.7680701      0.965167457      178.859301      0.965066314      178.859854     0.0373401355       22.478037
4.33351568          0.0370543443      18.6470906      0.965162659       178.83894      0.965059036      178.839517     0.0373105466      22.3173856
4.35653696          0.0370206218      18.5264992      0.965157804      178.818547      0.965051688      178.819148     0.0372814084      22.1570102
4.37968053          0.0369870613      18.4062946      0.965152893       178.79812      0.965044268      178.798745     0.0372527181      21.9969113
4.40294705          0.0369536603      18.2864756      0.965147925       178.77766      0.965036777      178.778308     0.0372244726      21.8370894
4.42633717          0.0369389178      18.1491007      0.965150427      178.757692       0.96503595      178.759023     0.0371922445      21.6822767
4.44985155          0.0369247797      18.0118133      0.965153034      178.737701      0.965035198      178.739728     0.0371603477        21.52782
4.47349084          0.0369109461      17.8749023      0.965155624      178.717677      0.965034412      178.720403     0.0371288505       21.373643
4.49725572          0.0368974149      17.7383666      0.965158198      178.697619      0.965033593       178.70105       0.03709775      21.2197459
4.52114684          0.0368759593      17.5966436      0.965148118      178.677336      0.965022868      178.680183     0.0370602797      21.0711527
4.54516488          0.0368542602      17.4548621      0.965137171      178.657005      0.965011444      178.659186     0.0370227285      20.9231413
4.56931052          0.0368328242      17.3133627      0.965126137      178.636639      0.964999929      178.638149      0.036985511      20.7753997
4.59358442           0.036811649      17.1721441      0.965115015      178.616236      0.964988324      178.617072      0.036948624      20.6279278
4.61798728          0.0367902352      17.0227669      0.965103173      178.596382      0.964978826        178.5977     0.0369146929      20.4814479
4.64251978          0.0367691011       16.873468      0.965091228      178.576503      0.964969285      178.578324     0.0368811418      20.3352705
4.6671826           0.0367482532      16.7243832      0.965079193      178.556589      0.964959666      178.558916     0.0368479252      20.1893835
4.69197644          0.0367276449      16.5779258      0.965068899      178.536567      0.964951415      178.539327     0.0368164717      20.0435324
4.71690199          0.0367069079      16.4517878      0.965073779       178.51591      0.964955142      178.518472     0.0367972659      19.8959003
4.74195996          0.0366863757      16.3259974      0.965078659      178.495213      0.964958863      178.497576     0.0367784629      19.7486294
4.76715104           0.036666046      16.2005533      0.965083539      178.474475      0.964962577      178.476638     0.0367600602      19.6017198
4.79247595          0.0366458511      16.0738011      0.965083441      178.453763      0.964960698      178.455746     0.0367352247      19.4545601
4.8179354           0.0366257181      15.9436806      0.965072161      178.433162      0.964946261      178.435013     0.0366954482      19.3062915
4.84353009          0.0366057973      15.8138742      0.965060794      178.412519       0.96493172      178.414238     0.0366559518      19.1582245
4.86926076          0.0365860864      15.6843803      0.965049339      178.391834      0.964917074       178.39342     0.0366167326       19.010358
4.89512811          0.0365671959      15.5590913      0.965039225      178.370977      0.964907531      178.372686     0.0365789791      18.8576904
4.92113289          0.0365489353      15.4369031      0.965030042      178.349985      0.964901605      178.351999     0.0365423675      18.7016466
4.9472758           0.0365308669      15.3150704      0.965020783      178.328948       0.96489562       178.33127       0.03650606      18.5457526
4.97355761          0.0365129885      15.1935915      0.965011448      178.307865      0.964889576      178.310496     0.0364700542      18.3900072
4.99997902           0.036491415      15.0589896      0.965002884      178.286502      0.964878163      178.288728     0.0364438942       18.239543
5.0265408           0.0364697671      14.9236749      0.964994306      178.265074      0.964866289      178.266843     0.0364187392      18.0896917
5.05324369          0.0364483163       14.788589      0.964985656      178.243598      0.964854326      178.244907     0.0363939167      17.9400954
5.08008843          0.0364328866      14.6509269      0.964981629      178.222344      0.964848392       178.22325     0.0363761135      17.7884863
5.10707578          0.0364284435      14.5083769      0.964986215      178.201544      0.964853683      178.202151     0.0363710229      17.6330219
5.1342065           0.0364243048      14.3661146        0.9649908      178.180697      0.964858975      178.181004     0.0363663765      17.4779013
5.16148135          0.0364204692      14.2241387      0.964995383      178.159803       0.96486427      178.159809     0.0363621721      17.3231247
5.18890109           0.036405285      14.0904826      0.964992001      178.138352       0.96485357       178.13857     0.0363348306      17.1863724
5.2164665           0.0363880363      13.9586455      0.964987021      178.116751      0.964839664      178.117282     0.0363031428      17.0533687
5.24417834          0.0363709851      13.8270562      0.964981993      178.095098      0.964825662      178.095944     0.0362716875       16.920661
5.2720374           0.0363561343      13.6982347      0.964973946      178.073532      0.964816091      178.074318      0.036242429      16.7818632
5.30004446          0.0363446771      13.5737241      0.964961092      178.052136      0.964813677      178.052261     0.0362165765      16.6331325
5.3282003           0.0363334214      13.4495278      0.964948144      178.030689      0.964811225      178.030149     0.0361910151      16.4846128
5.35650571          0.0363223656      13.3256442      0.964935104      178.009188      0.964808735      178.007981     0.0361657427      16.3363029
5.3849615           0.0363086141      13.2004669      0.964941448      177.986451      0.964804085      177.986241     0.0361489038      16.1978602
5.41356845          0.0362950344       13.075564      0.964947869      177.963649       0.96479938      177.964448     0.0361323962      16.0597749
5.44232737          0.0362816345      12.9509394      0.964954302      177.940787      0.964794626      177.942599     0.0361161896      15.9220135
5.47123907          0.0362592127      12.8354552      0.964950092       177.91865      0.964788093       177.92053     0.0360991466      15.7792804
5.50030437          0.0362322938      12.7246724      0.964940509       177.89685      0.964780637      177.898322     0.0360818441      15.6341786
5.52952406          0.0362054481      12.6141686      0.964930854      177.874993       0.96477312      177.876056     0.0360648485      15.4893383
5.55889899          0.0361786734       12.503942      0.964921125      177.853079      0.964765541       177.85373     0.0360481578      15.3447585
5.58842996          0.0361664989      12.3947654      0.964916142      177.830708       0.96475704      177.831381     0.0360330662      15.1917441
5.61811781          0.0361572461      12.2861018      0.964912032        177.8082      0.964748306      177.808979     0.0360185557      15.0372777
5.64796338          0.0361481465      12.1778095      0.964907876       177.78563      0.964739503      177.786516       0.03600438      14.8830139
5.6779675           0.0361391984      12.0698869      0.964903676      177.762998      0.964730629      177.763992     0.0359905372      14.7289516
5.70813101          0.0361281839      11.9475118      0.964896749      177.740448      0.964720006      177.741494     0.0359751311      14.5832819
5.73845476          0.0361142838      11.8047362      0.964886027      177.718036      0.964706963      177.719059     0.0359573684      14.4492608
5.7689396           0.0361005951      11.6620837      0.964875226      177.695563       0.96469383      177.696562     0.0359398581      14.3155299
5.79958639          0.0360871163      11.5195521      0.964864347      177.673026      0.964680605      177.674003     0.0359225982       14.182088
5.83039599           0.036074292      11.3805372      0.964854232      177.650494      0.964668314      177.651418     0.0359060076      14.0491618
5.86136926          0.0360657256      11.2728947      0.964851801      177.628523      0.964665349      177.629122     0.0358935304      13.9186323
5.89250707          0.0360573042      11.1655953      0.964849337      177.606491      0.964662349      177.606764      0.035881316      13.7884299
5.9238103           0.0360490265      11.0586373      0.964846841      177.584397      0.964659314      177.584342     0.0358693624      13.6585538
5.95527982          0.0360408908      10.9520191      0.964844311      177.562241      0.964656242      177.561857     0.0358576678      13.5290028
5.98691652          0.0360318508      10.8345275      0.964830384      177.538982      0.964643484      177.538736     0.0358295051      13.3898217
6.01872128          0.0360228161      10.7157001      0.964814734      177.515505      0.964629254      177.515466     0.0357991372      13.2493613
6.05069501          0.0360139357      10.5971316       0.96479898      177.491958      0.964614927      177.492127     0.0357689464      13.1090296
6.08283859          0.0360052079      10.4788203      0.964783119       177.46834      0.964600502      177.468718     0.0357389307      12.9688245
6.11515293          0.0359938343      10.3589925      0.964776115      177.444784       0.96459096      177.445293     0.0357291043      12.8274677
6.14763893          0.0359816371       10.238774      0.964772144      177.421203      0.964583065      177.421815     0.0357264619      12.6859371
6.18029752          0.0359695753      10.1187671       0.96476813      177.397549      0.964575109      177.398266     0.0357241368      12.5446913
6.21312959          0.0359576473       9.9989698      0.964764076      177.373823      0.964567091      177.374644     0.0357221275      12.4037294
6.24613609          0.0359458934      9.90760028      0.964770295      177.348347      0.964569654      177.349182     0.0357272555      12.2829393
6.27931793          0.0359342109      9.82864607       0.96478093      177.322072      0.964576751      177.322883     0.0357355872      12.1710594
6.31267604           0.035922567      9.75014067      0.964791606      177.295711      0.964583868      177.296496     0.0357442176      12.0596596
6.34621136          0.0359109601      9.67208287      0.964802321      177.269261      0.964591007       177.27002     0.0357531454      11.9487387
6.37992484          0.0358943247      9.56328115      0.964795512      177.244906      0.964587579      177.245621      0.035745835      11.8279609
6.41381741          0.0358760308      9.44393106      0.964782585      177.221228      0.964580461       177.22189     0.0357330513      11.7039353
6.44789003          0.0358578272      9.32472794      0.964769571      177.197475      0.964573287      177.198085      0.035720472      11.5801928
6.48214367          0.0358397124       9.2056694       0.96475647      177.173647      0.964566056      177.174204     0.0357080956       11.456732
6.51657926          0.0358318725      9.07546072        0.9647466      177.149458       0.96455304      177.149974     0.0356998205      11.3231775
6.5511978           0.0358257621      8.94366772      0.964737167      177.125148      0.964539057      177.125624     0.0356923876      11.1882807
6.58600024          0.0358198306      8.81201274      0.964727664      177.100758      0.964524979      177.101195     0.0356852031      11.0536218
6.62098756          0.0358137308      8.68157607      0.964718128      177.076303      0.964511196      177.076707      0.035677541      10.9193411
6.65616075          0.0358031142      8.56587776      0.964709013      177.051959      0.964502586      177.052436     0.0356603351      10.7871771
6.6915208           0.0357926091      8.45036683      0.964699831      177.027536       0.96449391      177.028086      0.035643313      10.6551945
6.72706869           0.035782214      8.33504114      0.964690581      177.003032      0.964485169      177.003655     0.0356264733      10.5233914
6.76280542           0.035774389      8.22155914      0.964683303      176.978365        0.9644777      176.978961     0.0356131151      10.3851756
6.798732            0.0357713461      8.11144532      0.964679837      176.953461      0.964472709      176.953836     0.0356062494      10.2346258
6.83484944          0.0357684332      8.00157609      0.964676332      176.928473      0.964467671      176.928626     0.0355996593      10.0841966
6.87115874          0.0357656491       7.8919495      0.964672787        176.9034      0.964462586       176.90333     0.0355933436      9.93388652
6.90766094          0.0357590817      7.77626817      0.964664269      176.878276       0.96444856      176.878387      0.035589647      9.79940319
6.94435705          0.0357509133      7.65798817       0.96465351       176.85308      0.964430514      176.853553     0.0355872245      9.67207976
6.9812481           0.0357428642      7.53986787      0.964642676      176.827798      0.964412356      176.828634     0.0355850362      9.54501974
7.01833513          0.0357350671      7.42245396      0.964630504       176.80247      0.964394517      176.803592     0.0355814809      9.41660059
7.05561918          0.0357284438       7.3095585      0.964608213      176.777385      0.964380004      176.778159     0.0355654706      9.27551691
7.0931013           0.0357219308      7.19685183      0.964585784      176.752214      0.964365393      176.752639     0.0355496491      9.13452033
7.13078254          0.0357155269      7.08433187      0.964563214      176.726956      0.964350682      176.727029     0.0355340151      8.99360873
7.16866395          0.0357114272      6.97240668      0.964551185      176.701496      0.964338792      176.701567     0.0355205661      8.86004475
7.2067466           0.0357089324       6.8609568       0.96454631      176.675871      0.964328799      176.676177      0.035508643      8.73154413
7.24503157          0.0357065609      6.74970701       0.96454139      176.650155      0.964318735      176.650699     0.0354968913      8.60321505
7.28351992          0.0357028679      6.63754164      0.964535817      176.624404      0.964308698        176.6251     0.0354865998      8.47523669
7.32221273           0.035690808      6.51898204      0.964526615      176.598892      0.964299158      176.599237      0.035484068      8.34852225
7.36111109          0.0356788337      6.40051463      0.964517346      176.573289       0.96428955      176.573282     0.0354817484      8.22203301
7.4002161           0.0356669438      6.28213698      0.964508011      176.547596      0.964279872      176.547233     0.0354796397      8.09576729
7.43952885           0.035657035      6.16630521      0.964492433      176.521528      0.964268738      176.521249     0.0354724009      7.97564921
7.47905044          0.0356478229      6.05138233      0.964474763      176.495276      0.964257081      176.495223     0.0354636057      7.85766376
7.51878198          0.0356386963      5.93657938      0.964456983      176.468928      0.964245347      176.469103     0.0354549649      7.73990293
7.5587246           0.0356395555      5.82596258      0.964445548      176.442278      0.964233385      176.442675      0.035451241      7.60662216
7.5988794           0.0356538461       5.7210423      0.964442714      176.415252      0.964221141      176.415866     0.0354541605       7.4523586
7.63924752          0.0356683189      5.61641147      0.964439844      176.388126      0.964208811      176.388958     0.0354573763      7.29818295
7.6798301           0.0356829729      5.51206833       0.96443694      176.360899      0.964196397       176.36195     0.0354608878      7.14409377
7.72062826          0.0356865778       5.3961302      0.964428027      176.333839      0.964185516      176.335065     0.0354558334      7.00950092
7.76164316          0.0356828244      5.27238104      0.964415052      176.306859      0.964175644       176.30823     0.0354450333      6.88801632
7.80287594          0.0356791971      5.14870831      0.964401991      176.279778      0.964165703      176.281296     0.0354343702       6.7666973
7.84432777          0.0356756951      5.02510975      0.964388844      176.252596      0.964155693       176.25426     0.0354238428      6.64554181
7.88599981          0.0356713202      4.90250857      0.964375045      176.225346      0.964145453      176.227067     0.0354152075      6.52198978
7.92789322          0.0356624527      4.78423533      0.964358545       176.19815      0.964134406      176.199513     0.0354148485      6.38680537
7.97000919          0.0356536655      4.66602459      0.964341938      176.170851      0.964123282      176.171854     0.0354147058      6.25175539
8.01234889          0.0356449576      4.54787391      0.964325225      176.143449       0.96411208      176.144089     0.0354147788      6.11683802
8.05491352          0.0356363279      4.42978083      0.964308404      176.115943        0.9641008      176.116219     0.0354150666      5.98205141
8.09770427          0.0356363001      4.31348098      0.964298788      176.088261      0.964085944      176.088258     0.0354117728      5.84962757
8.14072234          0.0356377992      4.19758546      0.964290313      176.060462      0.964070413      176.060193      0.035408039      5.71768596
8.18396893          0.0356394214      4.08181033      0.964281776      176.032555      0.964054782      176.032019     0.0354044884      5.58585496
8.22744527          0.0356411657      3.96615353      0.964273175      176.004541      0.964039051      176.003736     0.0354011201      5.45413253
8.27115257          0.0356441969      3.85246096      0.964261958      175.976219       0.96402537      175.975321     0.0353987041      5.32105747
8.31509206          0.0356480211      3.73996397      0.964249193      175.947673      0.964012839      175.946783     0.0353969197      5.18724526
8.35926498          0.0356519679      3.62760255      0.964236341      175.919015      0.964000224      175.918134     0.0353953246      5.05353198
8.40367256          0.0356560364      3.51537467      0.964223404      175.890244      0.963987524      175.889371     0.0353939182      4.91991561
8.44831604          0.0356621263      3.41174231      0.964212635      175.861057      0.963978342      175.860409      0.035393732      4.78979205
8.49319669          0.0356701939      3.31664481      0.964204018      175.831455      0.963972649      175.831247     0.0353947464      4.66313961
8.53831577          0.0356783644      3.22177764       0.96419534      175.801735      0.963966909      175.801968      0.035395944       4.5366246
8.58367453           0.035686637      3.12713872        0.9641866      175.771896      0.963961122      175.772573     0.0353973241      4.41024542
8.62927426          0.0356903596      3.01258114      0.964172069      175.742446      0.963952886      175.743323     0.0353984625      4.28134255
8.67511622          0.0356887923      2.87454519      0.964150744      175.713473      0.963941777      175.714264     0.0353992953       4.1494483
8.72120172          0.0356873715       2.7364536       0.96412929      175.684385       0.96393059      175.685088     0.0354003196      4.01764888
8.76753205          0.0356860991      2.59830727      0.964107702       175.65518      0.963919324      175.655796     0.0354015319      3.88593963
8.81410849          0.0356808818      2.47488759      0.964094417       175.62556      0.963905533      175.626262     0.0354043502      3.75850421
8.86093237          0.0356716948      2.36604418      0.964089376      175.595527      0.963889236      175.596487     0.0354087504      3.63531967
8.908005            0.0356625391      2.25724335      0.964084291      175.565372      0.963872838      175.566592     0.0354133331      3.51228076
8.95532769          0.0356534133      2.14848272      0.964079164      175.535094      0.963856337      175.536575      0.035418098      3.38938541
9.00290178          0.0356574111      2.03750703      0.964063354       175.50493      0.963838355      175.506411     0.0354220633       3.2590532
9.0507286           0.0356693066      1.92531357      0.964041111      175.474785      0.963819442       175.47611      0.035425642       3.1243059
9.09880949          0.0356813474      1.81325719      0.964018734      175.444516      0.963800411      175.445684     0.0354294191      2.98962766
9.14714581           0.035693533      1.70133604      0.963996222      175.414123      0.963781263      175.415134     0.0354333943      2.85501643
9.19573891          0.0356939474      1.58271101      0.963993127      175.383278      0.963772516      175.384239     0.0354449765      2.72320096
9.24459015          0.0356919939      1.46268649      0.963994038      175.352237      0.963765879      175.353171     0.0354583179      2.59207215
9.29370091          0.0356901228      1.34265805      0.963994938      175.321067       0.96375919      175.321974      0.035471894      2.46107102
9.34307257          0.0356951955      1.19655598      0.963983264      175.292156      0.963738208      175.293042      0.035486173      2.30352551
9.3927065           0.0357594187     0.829831562      0.963864874      175.283401      0.963596208      175.284319     0.0355054143       1.9197835
9.44260411           0.035825501     0.463206421      0.963745805      175.274635      0.963453403      175.275586     0.0355262802      1.53517945
9.4927668            0.035893451    0.0967131285      0.963626053      175.265857      0.963309789      175.266841     0.0355487839      1.14974033
9.54319596          0.0359372399    -0.151293211      0.963554588      175.246709      0.963225294      175.247811     0.0355630097     0.878954948
9.59389303          0.0359503448    -0.256990908      0.963541716      175.215017      0.963212524       175.21634     0.0355658804     0.746707598
9.64485942          0.0359635678    -0.362558237       0.96352876      175.183192      0.963199671      175.184736     0.0355689184     0.614498168
9.69609656          0.0359769084    -0.467997108      0.963515719      175.151232      0.963186733      175.152999     0.0355721234     0.482324479
9.74760589          0.0359902328     -0.58441543      0.963503544      175.119215      0.963170311      175.120932     0.0355798233     0.348817837
9.79938886          0.0360036788    -0.702393204      0.963491428      175.087073      0.963153286        175.0887      0.035588352     0.215162857
9.85144692          0.0360172669    -0.820307796      0.963479232      175.054794      0.963136153      175.056331     0.0355970764    0.0815593163
9.90378154          0.0360261597    -0.937449696      0.963464773      175.022379       0.96311863       175.02387     0.0356061498   -0.0513117879
9.95639417          0.0360264207     -1.05329579      0.963446278      174.989827      0.963100485      174.991353     0.0356156937    -0.182896555
10.0092863          0.0360267466     -1.16915327      0.963427669      174.957135      0.963082228      174.958697     0.0356254308    -0.314425063
10.0624594          0.0360271367     -1.28502456      0.963408946      174.924303      0.963063858        174.9259     0.0356353607    -0.445899308
10.115915           0.0360322695     -1.40100863      0.963390959      174.891468      0.963045841       174.89295     0.0356510419    -0.576180258
10.1696546          0.0360379788     -1.51699369      0.963372949      174.858507       0.96302776      174.859857     0.0356675225    -0.706251751
10.2236796          0.0360437776     -1.63297053      0.963354828      174.825403      0.963009568      174.826621     0.0356842248    -0.836232505
10.2779917          0.0360518303     -1.74696469      0.963335652      174.792021      0.962991625      174.793225     0.0356936604    -0.968626348
10.3325923          0.0360620074     -1.85907281      0.963315471      174.758366      0.962973911      174.759669     0.0356962582     -1.10335697
10.3874829          0.0360722847     -1.97113707      0.963295169      174.724565      0.962956087      174.725967     0.0356990115     -1.23811061
10.4426651          0.0360819063     -2.08483816      0.963275054       174.69066      0.962937735      174.692137     0.0357027153      -1.3722587
10.4981405          0.0360883459     -2.20582882      0.963256173      174.656789      0.962917448      174.658234     0.0357100362     -1.50367063
10.5539106          0.0360948838     -2.32684764      0.963237175      174.622771      0.962897038      174.624184     0.0357175266     -1.63507194
10.609977           0.0361015192     -2.44789686      0.963218062      174.588603      0.962876505      174.589985     0.0357251863     -1.76646475
10.6663412          0.0361086447     -2.56629643      0.963199044      174.554159      0.962855478       174.55559     0.0357354914      -1.9003764
10.7230048          0.0361165578     -2.67992579      0.963180289      174.519334      0.962833667      174.520963     0.0357504101     -2.03877411
10.7799695          0.0361245542     -2.79354893      0.963161419      174.484357      0.962811724      174.486183     0.0357655503     -2.17716118
10.8372368          0.0361326332       -2.907168      0.963142433      174.449224       0.96278965       174.45125      0.035780912     -2.31553951
10.8948083          0.0361407942     -3.02078515       0.96312333      174.413936      0.962767442      174.416162     0.0357964953     -2.45391096
10.9526856          0.0361473473     -3.14082711      0.963104135      174.378922       0.96274817      174.381187     0.0358122398     -2.57901203
11.0108704           0.036153877      -3.2613363      0.963084825      174.343781      0.962728982      174.346074     0.0358281709     -2.70317779
11.0693643          0.0361604936     -3.38189458      0.963065399      174.308484      0.962709678      174.310805     0.0358442914     -2.82727909
11.128169           0.0361671966     -3.50250423      0.963045856       174.27303      0.962690258       174.27538     0.0358606013     -2.95131783
11.187286           0.0361724797     -3.62137931      0.963022492      174.237169      0.962667859      174.239567     0.0358736348     -3.08347666
11.2467171          0.0361769017     -3.73920594      0.962996696      174.200994      0.962643554      174.203452     0.0358847184     -3.22070093
11.3064639          0.0361813875     -3.85709009      0.962970749      174.164657      0.962619106      174.167176     0.0358959914      -3.3579607
11.3665281          0.0361859363     -3.97503415      0.962944649      174.128157      0.962594512      174.130737     0.0359074538     -3.49525802
11.4269114          0.0361941893     -4.09312035      0.962919726      174.091849      0.962568174       174.09436     0.0359195935     -3.63414936
11.4876155          0.0362081198     -4.21135645      0.962896698      174.055926      0.962539224      174.058168     0.0359326811     -3.77546961
11.5486421          0.0362221644     -4.32960611      0.962873533      174.019842      0.962510106      174.021813     0.0359459747     -3.91684217
11.6099928          0.0362363225      -4.4478713      0.962850229      173.983596      0.962480817      173.985295     0.0359594745     -4.05826898
11.6716695          0.0362495015     -4.56506435       0.96282733      173.946976      0.962454012      173.948523     0.0359746426     -4.19886957
11.7336738          0.0362597264     -4.67924331      0.962805812      173.909604      0.962434468      173.911335     0.0359941057      -4.3370395
11.7960075          0.0362700284      -4.7934502      0.962784166      173.872062      0.962414807      173.873979     0.0360137961     -4.47522365
11.8586724          0.0362804067     -4.90768714      0.962762391       173.83435      0.962395026      173.836453     0.0360337138     -4.61342384
11.9216702          0.0362903448     -5.02489798      0.962739594      173.796507      0.962373815      173.798754     0.0360538479     -4.74913835
11.9850026          0.0362985569     -5.15252524      0.962713522      173.758632      0.962347857      173.760878     0.0360741541     -4.87604625
12.0486714          0.0363068626     -5.28026468      0.962687299      173.720584      0.962321748      173.722828     0.0360946626     -5.00292663
12.1126785          0.0363152613     -5.40811864      0.962660922      173.682362      0.962295487      173.684605     0.0361153734     -5.12978133
12.1770257           0.036325638      -5.5321152      0.962635036      173.643985      0.962269934      173.646205     0.0361362943     -5.25876822
12.2417146          0.0363413689     -5.64507291      0.962610799      173.605485      0.962246644      173.607623     0.0361574505      -5.3937701
12.3067473          0.0363571946     -5.75804055      0.962586421      173.566809      0.962223216      173.568864     0.0361788277     -5.52878641
12.3721254          0.0363731142     -5.87102008      0.962561899      173.527955      0.962199651      173.529928     0.0362004262     -5.66381895
12.4378508          0.0363848653     -5.98466084       0.96253705      173.488753       0.96217739      173.490675      0.036221999     -5.79479913
12.5039253          0.0363899322     -6.09938848      0.962511765      173.449102      0.962157287      173.451023     0.0362433844     -5.91933738
12.5703509          0.0363950344     -6.21420288      0.962486334      173.409268      0.962137065      173.411189     0.0362649654     -6.04385834
12.6371294          0.0364001709      -6.3291064      0.962460756      173.369249      0.962116725       173.37117     0.0362867422     -6.16836386
12.7042626          0.0364130197      -6.4459217      0.962433836      173.329119       0.96209299      173.331147     0.0363053579     -6.29787565
12.7717524          0.0364313187     -6.56405293      0.962405926      173.288853      0.962066827      173.291064     0.0363218187     -6.43092857
12.8396008          0.0364497264     -6.68221995      0.962377856      173.248401      0.962040512      173.250795     0.0363384643     -6.56403602
12.9078096          0.0364682422     -6.80042467      0.962349624      173.207761      0.962014046       173.21034     0.0363552949     -6.69719993
12.9763808          0.0364844018     -6.91762307      0.962323785      173.167231      0.961986196      173.169853     0.0363798305     -6.83590446
13.0453162          0.0365002704      -7.0347114      0.962298194      173.126559      0.961957993      173.129202     0.0364057752     -6.97549752
13.1146179          0.0365162287     -7.15185481      0.962272453      173.085698      0.961929627      173.088362     0.0364319662     -7.11512802
13.1842877          0.0365318634     -7.27035755      0.962246016      173.044597      0.961901112      173.047287     0.0364576064     -7.25382949
13.2543276          0.0365460749     -7.39371883      0.962217419      173.003126      0.961872482      173.005858     0.0364805499     -7.38902424
13.3247396          0.0365603773     -7.51717851      0.962188657      172.961461      0.961843689      172.964236     0.0365037106     -7.52426727
13.3955257          0.0365747702      -7.6407387      0.962159731      172.919601       0.96181473      172.922418      0.036527089     -7.65956035
13.4666878          0.0365912519     -7.76300145      0.962130558      172.877806      0.961783248      172.880476     0.0365515277     -7.79679437
13.5382279          0.0366089963     -7.88453025       0.96210117      172.835968       0.96175021      172.838379     0.0365766868     -7.93518348
13.6101481          0.0366268415     -8.00613657      0.962071615      172.793932      0.961716986      172.796084      0.036602079     -8.07363029
13.6824504           0.036644155     -8.12832349      0.962042166      172.751697      0.961684107      172.753623     0.0366277236     -8.21098999
13.7551367          0.0366567763     -8.25441354      0.962014638      172.709243        0.9616551      172.711208     0.0366537317     -8.33971343
13.8282092          0.0366694781     -8.38063912      0.961986953      172.666589      0.961625928      172.668593     0.0366799531     -8.46846247
13.9016699          0.0366822599     -8.50700242      0.961959111      172.623733      0.961596589      172.625778     0.0367063883     -8.59723881
13.9755208          0.0367000506     -8.63367965      0.961925741      172.580753      0.961564054      172.582874      0.036732352     -8.74550849
14.0497641          0.0367204318      -8.7605501      0.961889476      172.537608      0.961529806      172.539826     0.0367582423     -8.90368546
14.1244017          0.0367409335     -8.88752097      0.961853006      172.494259      0.961495363      172.496574     0.0367844158     -9.06201182
14.1994359          0.0367608035     -9.01452858      0.961818385      172.450652       0.96145984      172.453051     0.0368094214     -9.21447404
14.2748687          0.0367788154     -9.14147885      0.961788966      172.406697        0.9614218      172.409149     0.0368308579     -9.35131299
14.3507022          0.0367969296     -9.26855102      0.961759381      172.362533      0.961383548      172.365038     0.0368524951     -9.48825142
14.4269385          0.0368151456     -9.39574709      0.961729628      172.318159      0.961345082      172.320716     0.0368743333     -9.62529111
14.5035799          0.0368310093     -9.51436533      0.961697037      172.273532      0.961313553      172.276184     0.0369054516     -9.76485358
14.5806284          0.0368468008     -9.63260005      0.961664114      172.228688      0.961282246      172.231438     0.0369373347     -9.90461389
14.6580862          0.0368626551     -9.75093853      0.961631005      172.183631      0.961250763      172.186479     0.0369694779     -10.0444373
14.7359555          0.0368787523     -9.87111568      0.961596962      172.138361      0.961218455      172.141293     0.0370012831     -10.1842811
14.8142385          0.0368962662     -10.0041833      0.961557205      172.092896      0.961181188      172.095801     0.0370289268     -10.3238805
14.8929373           0.036913884     -10.1374127      0.961517226      172.047214      0.961143713      172.050091     0.0370568051      -10.463574
14.9720542          0.0369316053      -10.270806      0.961477025      172.001313      0.961106029      172.004161     0.0370849184     -10.6033633
15.0515914          0.0369494294     -10.4043651      0.961436601      171.955191      0.961068135      171.958012     0.0371132675     -10.7432498
15.1315512          0.0369691034      -10.530816      0.961400381      171.908992        0.9610341      171.911745     0.0371456912     -10.8865348
15.2119357          0.0369898033     -10.6534958      0.961366335      171.862649      0.961002056      171.865313     0.0371804407     -11.0316716
15.2927473          0.0370105911     -10.7762883      0.961332098      171.816083      0.960969832      171.818657     0.0372154707     -11.1768934
15.3739881          0.0370314661     -10.8991955       0.96129767      171.769293      0.960937428      171.771777     0.0372507822     -11.3222017
15.4556606          0.0370521631      -11.022191      0.961262529      171.722066      0.960904754      171.724509     0.0372843117     -11.4654988
15.5377669           0.037072283     -11.1452367      0.961225893      171.674084      0.960871677      171.676614     0.0373129523     -11.6036737
15.6203094          0.0370924798     -11.2684057      0.961189056       171.62587      0.960838418      171.628487     0.0373418205     -11.7419557
15.7032904          0.0371127526     -11.3917001      0.961152014      171.577422      0.960804974      171.580127     0.0373709169     -11.8803465
15.7867122          0.0371332089     -11.5151212      0.961114791      171.528752      0.960771214      171.531543     0.0374003847     -12.0189556
15.8705772          0.0371589218     -11.6386303      0.961078433      171.480439      0.960731063      171.483213     0.0374368921     -12.1628065
15.9548877          0.0371847377      -11.762238      0.961041875      171.431892       0.96069069      171.434648     0.0374736795     -12.3067494
16.0396461          0.0372106556     -11.8859462      0.961005114      171.383109      0.960650095      171.385847     0.0375107476     -12.4507855
16.1248548          0.0372366747     -12.0097566       0.96096815      171.334089      0.960609276      171.336809     0.0375480974     -12.5949162
16.2105161          0.0372597369     -12.1416938      0.960926398      171.284742      0.960568362      171.287477     0.0375785721     -12.7394304
16.2966325          0.0372823584     -12.2752217      0.960883598      171.235139      0.960527247      171.237894     0.0376080139      -12.884138
16.3832064          0.0373050837     -12.4089167      0.960840563      171.185294      0.960485905      171.188069     0.0376376959     -13.0289926
16.4702401          0.0373279121     -12.5427809      0.960797292      171.135206      0.960444337      171.138002     0.0376676188      -13.173996
16.5577363          0.0373529795     -12.6801566      0.960752549      171.085191      0.960404902      171.087843     0.0377034061       -13.31905
16.6456972          0.0373788209     -12.8187198      0.960707185      171.035029       0.96036597      171.037486     0.0377411769     -13.4641878
16.7341255          0.0374047902     -12.9574582      0.960661572      170.984621      0.960326824      170.986883     0.0377792299     -13.6094361
16.8230235          0.0374308868     -13.0963736      0.960615709      170.933968      0.960287462      170.936033     0.0378175657     -13.7547959
16.9123938          0.0374601692      -13.236536      0.960573358      170.883414      0.960244726      170.885579     0.0378567435     -13.9046654
17.0022388          0.0374905064     -13.3771758      0.960531887      170.832716      0.960200819       170.83507     0.0378963877     -14.0559607
17.0925611          0.0375209969     -13.5179764      0.960490189      170.781769      0.960156671      170.784313     0.0379363364     -14.2073855
17.1833633          0.0375516402     -13.6589395      0.960448261      170.730573      0.960112281      170.733308     0.0379765908     -14.3589407
17.2746478          0.0375768949     -13.7925309      0.960407252      170.678639      0.960071272      170.681344       0.03801287      -14.517243
17.3664173          0.0376013392      -13.925065      0.960366206       170.62637      0.960030631       170.62901     0.0380487511     -14.6768115
17.4586742          0.0376258731     -14.0577759      0.960324935      170.573844      0.959989767      170.576418     0.0380849344     -14.8365703
17.5514213          0.0376505828     -14.1907907      0.960283262      170.521056      0.959948629      170.523572     0.0381216735     -14.9960653
17.6446611           0.037678586     -14.3285653      0.960234926      170.467883      0.959905483       170.47064     0.0381679602     -15.1390499
17.7383962          0.0377067058      -14.466517      0.960186327      170.414448      0.959862103      170.417447     0.0382145567     -15.2821164
17.8326293          0.0377349412     -14.6046476      0.960137466       170.36075      0.959818486      170.363992     0.0382614641     -15.4252656
17.927363           0.0377632491     -14.7428777      0.960088962      170.306834       0.95977449      170.310242     0.0383075821     -15.5719715
18.0225999          0.0377915558     -14.8810703      0.960041883      170.252779      0.959729869      170.256142     0.0383510442     -15.7281939
18.1183428          0.0378199734     -15.0194457      0.959994548      170.198457      0.959685004      170.201774     0.0383948335     -15.8845663
18.2145943           0.037848501     -15.1580055      0.959946955      170.143867      0.959639894      170.147138     0.0384389511     -16.0410896
18.3113571          0.0378779895     -15.2979086      0.959901258      170.089085      0.959593625      170.092287     0.0384841008     -16.1978732
18.4086339          0.0379081969     -15.4388146      0.959856832      170.034086      0.959546458      170.037203     0.0385300808     -16.3548796
18.5064275          0.0379385244     -15.5799098      0.959812166      169.978815      0.959499034      169.981847     0.0385763985     -16.5120313
18.6047407          0.0379689709     -15.7211959      0.959767256      169.923269      0.959451353      169.926216     0.0386230548     -16.6693293
18.7035761          0.0379941131     -15.8512284      0.959717141      169.866664      0.959407861      169.869815     0.0386762102     -16.8053831
18.8029366          0.0380191632      -15.981135      0.959666625      169.809755      0.959364256      169.813121     0.0387298499     -16.9409169
18.9028249          0.0380442645     -16.1112248      0.959615838      169.752564      0.959320418      169.756145     0.0387838091      -17.076505
19.0032439          0.0380717644     -16.2495966      0.959566335      169.695282      0.959274441      169.698908     0.0388375537     -17.2224344
19.1041963           0.038102499      -16.398965      0.959518639      169.637974      0.959225672      169.641416     0.0388909458     -17.3821652
19.205685           0.0381333634     -16.5485605      0.959470684      169.580382      0.959176639      169.583637     0.0389447138     -17.5420204
19.3077129          0.0381643564     -16.6983847      0.959422469      169.522502      0.959127339      169.525571     0.0389988588     -17.7020006
19.4102827          0.0382009412     -16.8440953       0.95937068      169.464906      0.959074777      169.467816     0.0390463662     -17.8527575
19.5133975          0.0382379646     -16.9897522      0.959318434      169.407053      0.959021772      169.409806      0.039093817     -18.0031567
19.61706             0.038275134     -17.1355875      0.959265909      169.348912      0.958968482      169.351506     0.0391415854     -18.1536989
19.7212733          0.0383121326     -17.2839644      0.959213605      169.290818      0.958914628      169.293457     0.0391962838     -18.3171152
19.8260401            0.03834901       -17.43461      0.959161459      169.232731      0.958860236      169.235594     0.0392572049     -18.4918318
19.9313636          0.0383860458     -17.5854582       0.95910903      169.174353      0.958805548      169.177443     0.0393185814     -18.6666763
20.0372465          0.0384229297     -17.7356003      0.959055964      169.115527      0.958750814      169.118781     0.0393784391     -18.8401817
20.1436919          0.0384585125     -17.8817058      0.959000973       169.05567      0.958696956      169.058799     0.0394295065     -19.0070167
20.2507029           0.038494219      -18.028011      0.958945686      168.995513      0.958642809      168.998517     0.0394809482      -19.174032
20.3582823          0.0385300479     -18.1745171      0.958890102      168.935055       0.95858837      168.937932     0.0395327655     -19.3412282
20.4664332          0.0385681653     -18.3245402      0.958836887      168.874338      0.958534371      168.877329     0.0395916153     -19.5001375
20.5751586          0.0386067234     -18.4752178      0.958783752      168.813321      0.958480182      168.816461     0.0396517653     -19.6580037
20.6844616          0.0386454256     -18.6260974      0.958730332      168.751999      0.958425703      168.755288     0.0397123064     -19.8159824
20.7943453          0.0386842401     -18.7770802       0.95867655      168.690372      0.958370769      168.693801     0.0397731078     -19.9742253
20.9048127           0.038722633     -18.9264454      0.958621106       168.62851       0.95831256      168.631898     0.0398319033     -20.1353465
21.015867           0.0387611549     -19.0760114      0.958565365      168.566337      0.958254039      168.569683     0.0398910889     -20.2966036
21.1275112          0.0387998043     -19.2257797      0.958509326      168.503851      0.958195206      168.507156     0.0399506658     -20.4579971
21.2397486          0.0388385797     -19.3757515      0.958452987      168.441051      0.958136057      168.444314     0.0400106352     -20.6195273
21.3525821          0.0388752023     -19.5283266      0.958396129      168.378144      0.958077857      168.381252     0.0400725887     -20.7819003
21.4660151           0.038910611     -19.6825433      0.958338839      168.315043      0.958020088      168.317928      0.040135881     -20.9448135
21.5800507          0.0389461358     -19.8370067      0.958281242      168.251624       0.95796201      168.254286     0.0401995854      -21.107852
21.6946921          0.0389817751      -19.991718      0.958223338      168.187886      0.957903621      168.190323     0.0402637031      -21.271016
21.8099425          0.0390185745     -20.1464835      0.958164013      168.123521      0.957846294      168.125903     0.0403277201     -21.4308843
21.9258052           0.039057816     -20.3010503      0.958101903      168.058156      0.957791717      168.060859     0.0403909838     -21.5832812
22.0422834          0.0390971797     -20.4558446      0.958039463      167.992461       0.95773685      167.995486     0.0404546241     -21.7357894
22.1593803           0.039136664     -20.6108677      0.957976692      167.926434      0.957681692      167.929783     0.0405186418     -21.8884093
22.2770993          0.0391762608     -20.7660735      0.957913685      167.860139      0.957625383      167.863785     0.0405829355     -22.0428301
22.3954437          0.0392159089      -20.921015       0.95785135      167.794211      0.957559781      167.797846     0.0406465688     -22.2150249
22.5144168          0.0392556726     -21.0761834      0.957788682      167.727949      0.957493828      167.731573     0.0407106348     -22.3873815
22.6340219          0.0392955499     -21.2315797      0.957725679      167.661352      0.957427524      167.664965     0.0407751348     -22.5598998
22.7542624          0.0393355388     -21.3872054       0.95766234      167.594417      0.957360865      167.598019     0.0408400701     -22.7325798
22.8751416          0.0393795179     -21.5463705      0.957597045       167.52729      0.957296914      167.530904     0.0409146392     -22.9072507
22.996663            0.039423815      -21.705904      0.957531326      167.459828      0.957232761      167.463457     0.0409901185     -23.0821094
23.11883            0.0394682523     -21.8656558      0.957465255      167.392025      0.957168263      167.395668     0.0410660919      -23.257071
23.241646           0.0395128278     -22.0256269       0.95739883      167.323877      0.957103421      167.327535     0.0411425607     -23.4321353
23.3651144          0.0395559965      -22.189914      0.957330484       167.25572      0.957037529      167.259201     0.0412160918     -23.6038025
23.4892387          0.0395991617     -22.3548317      0.957261626      167.187249      0.956971219      167.190535     0.0412897705     -23.7752595
23.6140224           0.039642467     -22.5199966        0.9571924      167.118429      0.956904555      167.121519     0.0413639202     -23.9468362
23.739469           0.0396859105     -22.6854098      0.957122805      167.049261      0.956837536      167.052153     0.0414385422     -24.1185323
23.8655821          0.0397365076      -22.846929      0.957059441      166.979413       0.95677365      166.982249     0.0415148736     -24.2915495
23.9923651          0.0397875796     -23.0084476      0.956996041      166.909194      0.956709582      166.911981      0.041591744     -24.4647361
24.1198216          0.0398388041     -23.1701545      0.956932302      166.838618      0.956645173      166.841355     0.0416690985     -24.6380366
24.2479552          0.0398907433     -23.3327225      0.956867715      166.767682      0.956580267       166.77038     0.0417463347     -24.8112264
24.3767695          0.0399493695      -23.503206      0.956796907       166.69637      0.956513248      166.699161      0.041817082     -24.9819643
24.5062681          0.0400082093     -23.6738506      0.956725722      166.624694      0.956445871       166.62758     0.0418882687     -25.1528525
24.6364547          0.0400672606     -23.8446566      0.956654158      166.552653      0.956378135      166.555634     0.0419598958     -25.3238909
24.7673329          0.0401230441     -24.0166953      0.956582976       166.48029      0.956308435      166.483395     0.0420350202     -25.4978267
24.8989063          0.0401701282     -24.1916934      0.956513368      166.407673      0.956234256      166.410978     0.0421184438      -25.678893
25.0311787          0.0402173674     -24.3669539      0.956443386      166.334685      0.956159681      166.338192     0.0422024005     -25.8600588
25.1641538          0.0402647594     -24.5424777       0.95637303      166.261325      0.956084706      166.265034     0.0422868916     -26.0413235
25.2978353          0.0403191395     -24.7070302      0.956303115      166.187643      0.956012833      166.191497     0.0423720128     -26.2259964
25.432227           0.0403790788     -24.8628432      0.956233474      166.113626      0.955943355       166.11758      0.042457762     -26.4133933
25.5673326           0.040439159     -25.0187847      0.956163461      166.039231      0.955873506      166.043285     0.0425440706     -26.6008934
25.7031559          0.0404993769     -25.1748554      0.956093072      165.964455      0.955803284       165.96861     0.0426309401     -26.7884957
25.8397008          0.0405469475     -25.3544736      0.956019628      165.889345      0.955728062      165.893398     0.0427214946     -26.9664097
25.9769711          0.0405933487     -25.5367911      0.955945514      165.813855      0.955651962      165.817785     0.0428129181     -27.1433867
26.1149706          0.0406398948     -25.7194049      0.955871005      165.737979      0.955575455      165.741784     0.0429048894     -27.3204326
26.2537032          0.0406892847     -25.9031898      0.955794905      165.661768      0.955499477      165.665484     0.0429966263     -27.4950385
26.3931728          0.0407444758     -26.0890556      0.955715912      165.585279      0.955425048       165.58898     0.0430872578     -27.6644931
26.5333833          0.0407998624     -26.2751652      0.955636498      165.508397      0.955350223      165.512083     0.0431784033     -27.8340175
26.6743387          0.0408554419     -26.4615186      0.955556661      165.431122         0.955275      165.434792     0.0432700637     -28.0036112
26.8160429          0.0409116103     -26.6425409      0.955478549       165.35333      0.955191505       165.35701     0.0433663787     -28.1910448
26.9584998          0.0409680372     -26.8224682      0.955400526      165.275111      0.955105702      165.278807      0.043464278     -28.3827304
27.1017136          0.0410246235     -27.0026133      0.955322084       165.19649      0.955019438      165.200202     0.0435627966     -28.5744745
27.2456881          0.0410820734     -27.1832031      0.955243239      165.117578      0.954934734      165.121262     0.0436591333     -28.7646986
27.3904275          0.0411409545     -27.3644116      0.955164005      165.038461      0.954853211       165.04204     0.0437510281     -28.9521801
27.5359358          0.0411999995     -27.5458298      0.955084347      164.958938      0.954771252      164.962411     0.0438434882     -29.1397598
27.6822171          0.0412592054      -27.727458      0.955004263      164.879006      0.954688855      164.882373     0.0439365146     -29.3274365
27.8292756           0.041321975     -27.9057448      0.954924292      164.798494      0.954612545      164.801772     0.0440295065     -29.5214636
27.9771152          0.0413850105     -28.0840952       0.95484391      164.717562      0.954536035      164.720751     0.0441230671     -29.7157978
28.1257402          0.0414481991     -28.2626228      0.954763097      164.636214      0.954459115      164.639313     0.0442172173     -29.9102372
28.2751548          0.0415114271     -28.4472945      0.954683137      164.554457      0.954384762       164.55768     0.0443141532     -30.1033048
28.4253631          0.0415747694     -28.6355275      0.954603474      164.472286      0.954311692      164.475752     0.0444129249     -30.2956252
28.5763694          0.0416382916     -28.8239636      0.954523384      164.389691      0.954238229      164.393403     0.0445122979     -30.4880247
28.7281779          0.0417019901     -29.0126026      0.954442864      164.306671      0.954164371       164.31063     0.0446122731      -30.680502
28.8807928          0.0417661837     -29.2020603      0.954361325      164.223455      0.954089644      164.227405     0.0447071588     -30.8736328
29.0342185           0.041830627      -29.391863      0.954279212      164.139863      0.954014407      164.143746     0.0448013018     -31.0670113
29.1884593          0.0418952423     -29.5818681       0.95419666      164.055841      0.953938767      164.059655     0.0448960174     -31.2605068
29.3435194          0.0419600259     -29.7720754      0.954113667      163.971387      0.953862722      163.975131     0.0449913066     -31.4541176
29.4994033          0.0420253399     -29.9618402      0.954030253      163.886588      0.953782769      163.890228     0.0450927197     -31.6474059
29.6561153          0.0420913841     -30.1507905      0.953946429      163.801495      0.953696915      163.804974     0.0452034095     -31.8400668
29.8136598          0.0421575835      -30.339926      0.953862154      163.715963        0.9536106      163.719279     0.0453147477     -32.0327532
29.9720412           0.042223934     -30.5292467      0.953777427      163.629989      0.953523822      163.633143      0.045426735     -32.2254637
30.131264           0.0422906859     -30.7194957      0.953691771      163.543568      0.953436463      163.546567     0.0455393384     -32.4187095
30.2913327          0.0423609606     -30.9196909      0.953599421      163.456661      0.953347113      163.459609     0.0456521583     -32.6187112
30.4522517          0.0424314401     -31.1200641      0.953506572      163.369306      0.953257282      163.372201     0.0457656548     -32.8187347
30.6140256          0.0425021202     -31.3206147      0.953413223      163.281499      0.953166965      163.284342     0.0458798289     -33.0187782
30.7766589           0.042572997     -31.5213423       0.95331937      163.193238      0.953076162      163.196029     0.0459946813     -33.2188401
30.9401561          0.0426443735     -31.7171912      0.953227722      163.104372      0.952983096      163.107216     0.0461108389     -33.4141932
31.1045219          0.0427159696     -31.9122904       0.95313607       163.01502       0.95288921      163.017934     0.0462277726     -33.6087056
31.2697609          0.0427877234     -32.1075487      0.953043925      162.925205       0.95279482      162.928191      0.046345369     -33.8032267
31.4358777          0.0428596301     -32.3029657      0.952951285      162.834926      0.952699922      162.837984     0.0464636285     -33.9977549
31.602877           0.0429328412     -32.4972839      0.952856186      162.744328      0.952603943      162.747519     0.0465820713     -34.2023558
31.7707634           0.043006658     -32.6912505      0.952759796      162.653319      0.952507219      162.656669     0.0467010341     -34.4109514
31.9395418          0.0430806184     -32.8853605      0.952662884       162.56184      0.952409972      162.565348     0.0468207156     -34.6195554
32.1092167          0.0431547173     -33.0796134       0.95256545      162.469886        0.9523122      162.473555     0.0469411166     -34.8281659
32.279793           0.0432283646     -33.2856204      0.952467429      162.377488      0.952215637      162.381193     0.0470659093     -35.0264621
32.4512755          0.0433019164     -33.4974189       0.95236885      162.284625      0.952119393      162.288308     0.0471931731     -35.2197426
32.6236689          0.0433756623      -33.709397      0.952269739      162.191281      0.952022631      162.194941     0.0473211272     -35.4129927
32.7969782          0.0434495974     -33.9215538      0.952170093      162.097453      0.951925346       162.10109      0.047449772     -35.6062107
32.9712081           0.043527253     -34.1288851      0.952073443      162.003384      0.951828145      162.007043     0.0475766023     -35.8097896
33.1463637          0.0436064853     -34.3343695      0.951977672      161.908923      0.951730659      161.912623     0.0477031633      -36.017467
33.3224497          0.0436858875     -34.5399813      0.951881382      161.813973      0.951632645      161.817713     0.0478304532      -36.225126
33.4994711          0.0437654539     -34.7457195       0.95178457       161.71853        0.9515341      161.722311     0.0479584725     -36.4327647
33.677433           0.0438411196     -34.9573351      0.951679233      161.622516      0.951428885      161.626222       0.04809062     -36.6425334
33.8563403          0.0439161701     -35.1702118      0.951571794      161.525988      0.951321927      161.529597      0.048224178     -36.8526643
34.036198           0.0439913745     -35.3832553      0.951463773       161.42896      0.951214388      161.432471     0.0483585018     -37.0627429
34.2170111          0.0440671077     -35.5965552      0.951355561      161.331433      0.951106604      161.334849     0.0484937381     -37.2724251
34.3987848          0.0441518135     -35.8120749      0.951255951      161.233528      0.951006074      161.236912     0.0486331144     -37.4741415
34.5815242          0.0442367138     -36.0276949      0.951155798      161.135113      0.950904997      161.138466     0.0487732386     -37.6757841
34.7652343          0.0443218026     -36.2434139        0.9510551      161.036187      0.950803371      161.039509     0.0489141109     -37.8773511
34.9499204          0.0444079653     -36.4569281      0.950952381      160.936825      0.950701734      160.940062     0.0490544306     -38.0832204
35.1355876          0.0444962048     -36.6655805      0.950845936      160.837114       0.95060071      160.840154     0.0491927341     -38.2984131
35.3222411          0.0445845971     -36.8742971       0.95073891      160.736885      0.950499135      160.739726     0.0493318235      -38.513541
35.5098862          0.0446731352     -37.0830771      0.950631301      160.636134      0.950397005      160.638776     0.0494716986     -38.7286019
35.6985282           0.044758983     -37.3007905      0.950522202      160.534871      0.950288122      160.537492     0.0496148264     -38.9419085
35.8881723          0.0448435848     -37.5230402      0.950412056      160.433086      0.950175538      160.435775     0.0497599827     -39.1542836
36.0788238          0.0449283563     -37.7453958      0.950301308      160.330773      0.950062341      160.333529     0.0499059355     -39.3665644
36.2704882          0.0450133685     -37.9675209      0.950190474      160.227922      0.949949071      160.230746     0.0500527478     -39.5789482
36.4631707          0.0450993684      -38.186114      0.950084675      160.124494      0.949841106      160.127371     0.0502010482     -39.7933935
36.6568769          0.0451855002     -38.4048021      0.949978297      160.020527      0.949732551      160.023457      0.050350157     -40.0077349
36.8516121          0.0452717567     -38.6235837      0.949871336      159.916019      0.949623402      159.919002     0.0505000738       -40.22197
37.0473818          0.0453605349     -38.8405075      0.949760261      159.811082      0.949511532      159.814113     0.0506491093     -40.4383729
37.2441915          0.0454512494     -39.0560126        0.9496459      159.705687      0.949397439      159.708761     0.0507976754     -40.6563968
37.4420467          0.0455420734     -39.2715648      0.949530914      159.599742      0.949282722      159.602861      0.050947051     -40.8743182
37.640953            0.045632793     -39.4895823      0.949415908      159.493252      0.949167509      159.496401     0.0510982775     -41.0909823
37.840916           0.0457221212     -39.7257515      0.949304836      159.386252      0.949052647       159.38933     0.0512581037     -41.2989083
38.0419413          0.0458116319     -39.9620072      0.949193154      159.278694      0.948937155      159.281702     0.0514187444     -41.5066889
38.2440345          0.0459013172     -40.1983476      0.949080858      159.170575      0.948821028      159.173512     0.0515801987     -41.7143224
38.4472012          0.0459945514     -40.4227864      0.948965644      159.061922      0.948704748      159.065013     0.0517393998     -41.9368602
38.6514473          0.0460891538     -40.6428001      0.948848937      158.952712      0.948588007      158.956043     0.0518983318     -42.1648476
38.8567784          0.0461838502     -40.8628373      0.948731586      158.842933      0.948470623      158.846506     0.0520581438     -42.3926823
39.0632003          0.0462777625      -41.087498      0.948614462      158.732717      0.948353103      158.736471     0.0522195854     -42.6166258
39.2707188          0.0463704766     -41.3191158       0.94849801      158.622132      0.948235707      158.625973     0.0523830127     -42.8347969
39.4793397          0.0464633042     -41.5507822      0.948380915       158.51097      0.948117665      158.514899     0.0525472876      -43.052809
39.6890689          0.0465562363     -41.7824956      0.948263175      158.399228      0.947998972      158.403245      0.052712409     -43.2706598
39.8999123            0.04665162     -42.0205431      0.948144591      158.286865       0.94787886      158.290823      0.052878528     -43.4934926
40.1118757          0.0467489186     -42.2633226      0.948025204      158.173888       0.94775751      158.177675     0.0530456375     -43.7199999
40.3249651          0.0468463779      -42.506122      0.947905154      158.060321      0.947635486      158.063936     0.0532136314     -43.9463265
40.5391866          0.0469439886     -42.7489393      0.947784437      157.946162      0.947512785      157.949603     0.0533825084     -44.1724699
40.7545461          0.0470428951      -42.990272      0.947662557      157.831451      0.947389976      157.834776     0.0535526976     -44.3978903
40.9710497           0.047148428     -43.2231275      0.947537214      157.716393      0.947269715      157.719935     0.0537261918     -44.6200901
41.1887034          0.0472540737     -43.4559246      0.947411177      157.600733      0.947148787      157.604494     0.0539005647     -44.8420878
41.4075134          0.0473598221     -43.6886615      0.947284441      157.484469      0.947027187      157.488449     0.0540758145     -45.0638812
41.6274857          0.0474656626     -43.9213361      0.947157002      157.367597      0.946904911      157.371798     0.0542519396     -45.2854679
41.8486267          0.0475663737     -44.1592525      0.947031935      157.250055       0.94678012      157.254095     0.0544274546     -45.5116102
42.0709424          0.0476660915     -44.3982343      0.946906802      157.131886      0.946654259      157.135686     0.0546035546     -45.7385148
42.2944392          0.0477658668     -44.6372029      0.946780973      157.013099        0.9465277      157.016658     0.0547805415     -45.9652083
42.5191232          0.0478656886      -44.876156      0.946654445       156.89369      0.946400437      156.897007     0.0549584132      -46.191688
42.7450009          0.0479674322     -45.1187296        0.9465288      156.773741      0.946272852      156.777097     0.0551397703     -46.4197062
42.9720785           0.048070465     -45.3636237      0.946403481      156.653219      0.946144806      156.656795     0.0553237214     -46.6486198
43.2003625          0.0481735671     -45.6084812      0.946277461      156.532066      0.946016044      156.535865     0.0555085893     -46.8772866
43.4298591          0.0482767269     -45.8532997      0.946150736      156.410279      0.945886563      156.414301     0.0556943717     -47.1057041
43.660575            0.048380475     -46.0970461      0.946022862      156.287942      0.945757061      156.291973     0.0558801892     -47.3370461
43.8925165          0.0484848471     -46.3396068      0.945893785      156.165059      0.945627607      156.168862     0.0560659694     -47.5716255
44.1256901          0.0485892324     -46.5821094      0.945763984      156.041534      0.945497428      156.045107     0.0562526803     -47.8059482
44.3601025          0.0486936186     -46.8245516      0.945633457      155.917362      0.945366519      155.920704     0.0564403191     -48.0400115
44.5957601          0.0488003573      -47.068915      0.945499464      155.792622      0.945234673      155.795918     0.0566295098     -48.2717155
44.8326697          0.0489102011     -47.3157721      0.945361146      155.667336      0.945101821      155.670831     0.0568204312     -48.5004182
45.0708378          0.0490200706     -47.5625207      0.945222053      155.541393      0.944968224      155.545089     0.0570122595     -48.7288523
45.3102711          0.0491299527     -47.8091585      0.945082184      155.414791      0.944833879      155.418688     0.0572049916     -48.9570151
45.5509764          0.0492389845     -48.0574301      0.944945884      155.287598      0.944699657      155.291503     0.0574004514     -49.1877352
45.7929604          0.0493470748     -48.3075244      0.944813617       155.15982      0.944565648      155.163518     0.0575988524      -49.421273
46.0362299          0.0494551472     -48.5575235      0.944680604      155.031372      0.944430883      155.034862     0.0577981946     -49.6545053
46.2807918          0.0495631878     -48.8074248      0.944546842      154.902251       0.94429536      154.905532     0.0579984748     -49.8874295
46.5266529          0.0496704844     -49.0613092       0.94441087      154.772357      0.944158268      154.775671     0.0581963911     -50.1211023
46.7738201          0.0497772832     -49.3178245      0.944273158      154.641717      0.944019867      154.645228     0.0583930245      -50.355188
47.0223003          0.0498840425     -49.5742462      0.944134672      154.510392      0.943880688      154.514102     0.0585905684     -50.5889815
47.2721005          0.0499907476     -49.8305714      0.943995406      154.378379      0.943740725      154.382289      0.058789019       -50.82248
47.5232278           0.050102189     -50.0874627       0.94385731      154.245936      0.943603722      154.249679     0.0589932913     -51.0551786
47.7756892          0.0502147733     -50.3443795      0.943718917      154.112862      0.943466874      154.116348     0.0591997058     -51.2874277
48.0294917          0.0503272987       -50.60115      0.943579743      153.979091      0.943329251      153.982317     0.0594070425     -51.5193462
48.2846425          0.0504399149     -50.8575783      0.943439713      153.844616      0.943190424      153.847617     0.0596153287     -51.7521177
48.5411488          0.0505543927     -51.1115589      0.943298089      153.709406      0.943045768      153.712608     0.0598249451     -51.9985594
48.7990178          0.0506687619     -51.3653621       0.94315566      153.573487       0.94290029       153.57689     0.0600355561     -52.2446325
49.0582566           0.050783006      -51.618985      0.943012421      153.436856      0.942753986      153.440461     0.0602471572     -52.4903339
49.3188726          0.0508977817     -51.8767821      0.942870512      153.299723      0.942609983      153.303388     0.0604590297     -52.7310356
49.5808731          0.0510133589     -52.1402537      0.942730689      153.162163      0.942469384       153.16569     0.0606708767     -52.9651657
49.8442655          0.0511288378     -52.4035406       0.94259007      153.023881      0.942327986      153.027269     0.0608836346     -53.1989473
50.1090571          0.0512442013       -52.66664      0.942448653      152.884874      0.942185784      152.888123     0.0610972986     -53.4323777
50.3752553          0.0513598496     -52.9297901       0.94230234      152.744879       0.94204062      152.748262     0.0613121636      -53.670898
50.6428678          0.0514754272      -53.192782      0.942154441      152.604102      0.941894234       152.60767     0.0615280113     -53.9100487
50.9119018          0.0515908395     -53.4555674      0.942005701      152.462587      0.941747015       152.46634     0.0617447839     -54.1488227
51.1823651           0.051709607     -53.7197587      0.941856156      152.320444      0.941598578      152.324291     0.0619628788     -54.3870072
51.4542652          0.0518354486     -53.9869748      0.941705838      152.177791      0.941448513      152.181541     0.0621827128     -54.6243794
51.7276097          0.0519611624     -54.2538907      0.941554662      152.034389      0.941297592      152.038041     0.0624034609     -54.8613629
52.0024063          0.0520867291     -54.5205032      0.941402624      151.890235       0.94114581      151.893789     0.0626251174     -55.0979545
52.2786628          0.0522082883     -54.7825217       0.94124695      151.745241      0.940992187      151.748822     0.0628519515     -55.3411547
52.5563868          0.0523290759     -55.0436626      0.941090002      151.599475      0.940837551      151.603101     0.0630803403     -55.5848938
52.8355862          0.0524496023     -55.3045202      0.940932157      151.452944      0.940682031      151.456615     0.0633096876     -55.8281932
53.1162689          0.0525687864     -55.5708623      0.940777482      151.305776      0.940528252      151.309383      0.063538147     -56.0711867
53.3984426          0.0526866099      -55.842975      0.940626191      151.157975      0.940376348      151.161403     0.0637656135      -56.313893
53.6821153          0.0528041788     -56.1148295      0.940474033      151.009398      0.940223575      151.012647     0.0639940002     -56.5561707
53.967295           0.0529220273     -56.3864795      0.940320579      150.860036      0.940069678      150.863153      0.064222937     -56.7976632
54.2539897          0.0530425187     -56.6581497      0.940164004      150.709856      0.939913587      150.713104      0.064450854      -57.036866
54.5422074          0.0531627158     -56.9295213      0.940006535      150.558888      0.939756606      150.562267     0.0646796493     -57.2756434
54.8319562          0.0532825967     -57.2005906      0.939848167      150.407127      0.939598727      150.410638     0.0649093159     -57.5139918
55.1232443          0.0534032571     -57.4701548      0.939689331       150.25463      0.939440672      150.258284     0.0651435705     -57.7552294
55.4160799          0.0535258021     -57.7369795       0.93953046      150.101456      0.939283166      150.105273     0.0653862498     -58.0026707
55.710471           0.0536479572     -58.0034644      0.939370674      149.947478      0.939124753      149.951458      0.065629891     -58.2496073
56.0064261          0.0537696989     -58.2696056      0.939209967      149.792691      0.938965426      149.796836     0.0658744865     -58.4960363
56.3039535          0.0538910035     -58.5353991      0.939048335      149.637091      0.938805181      149.641401     0.0661200285     -58.7419546
56.6030613          0.0540139287     -58.8112693      0.938887185      149.480973       0.93864328      149.485111      0.066360143     -58.9850932
56.9037582          0.0541366644     -59.0877991      0.938725248      149.324065      0.938480377      149.327997     0.0666005187     -59.2275262
57.2060525          0.0542589864      -59.363962       0.93856238      149.166332      0.938316539      149.170057     0.0668417693     -59.4694737
57.5099527          0.0543808698     -59.6397539      0.938398576      149.007771       0.93815176      149.011288     0.0670838863     -59.7109321
57.8154673          0.0545033491     -59.9144688      0.938233816      148.848362       0.93798668      148.851793      0.067330383     -59.9577949
58.122605           0.0546260739     -60.1883062      0.938068095      148.688106      0.937821096      148.691535     0.0675802367     -60.2082119
58.4313742          0.0547482839     -60.4617449      0.937901416      148.527009      0.937654556      148.530436     0.0678310155     -60.4580837
58.7417838          0.0548699526     -60.7347804      0.937733775      148.365065      0.937487055      148.368491     0.0680827103     -60.7074068
59.0538424          0.0549923817     -61.0095856      0.937566539      148.202335      0.937319555       148.20583     0.0683352059     -60.9536779
59.3675587          0.0551165472     -61.2877171      0.937400709      148.038861       0.93715276      148.042549     0.0685883915     -61.1951008
59.6829416          0.0552401539     -61.5654139      0.937233922      147.874528      0.936985002       147.87841     0.0688424285     -61.4359843
60                   0.055363174     -61.8426713      0.937066171      147.709331      0.936816277      147.713408     0.0690973074     -61.6763247
