! TOUCHSTONE file generated by CST DESIGN STUDIO
! Date and time: Tue May 12 11:37:19 2026
! Project name: C:\sim_local\10base-t1m\passive_node_simulations_adl32.cst
! Tree item: Tasks\SPara1\S-Parameters
! Header version: 2024
! Port assignment regex: !\s*Touchstone port\s*([0-9]+)\s*=\s*(CST MWS port|CST DES external port|CST DES block port)\s*(.+)\s* \(\"(.*)\"\)(\s*mode\s*([0-9]+))?.*
! Touchstone port assignment:
! Touchstone port 1 = CST DES external port 1 ("PHY")
! Touchstone port 2 = CST DES external port 2 ("MDI")
# MHz S MA R 100
0.3                  0.129546715       101.11798      0.946822154     -165.261124      0.946878739     -165.259031      0.164014947      87.9871267
0.301471453          0.128956422      100.926613      0.946979723     -165.334375      0.947043186     -165.332582      0.163250117      87.8917788
0.302950122          0.128364496      100.733969      0.947137751     -165.407643      0.947208133     -165.406151      0.162483957      87.7949977
0.304436045           0.12777095      100.540015      0.947296232     -165.480929      0.947373574     -165.479739      0.161716477      87.6967607
0.305929255          0.127175798      100.344719       0.94745516     -165.554234      0.947539504     -165.553348      0.160947685      87.5970447
0.30742979           0.126579093      100.147153      0.947618432      -165.62751      0.947707147      -165.62688      0.160179346      87.4945208
0.308937684          0.125980988      99.9448144      0.947796798     -165.700622      0.947879957     -165.700061      0.159416221      87.3855571
0.310452975          0.125404277      99.7479479      0.947963927     -165.772119       0.94804147     -165.771625      0.158677588      87.2815861
0.311975698          0.124832528      99.5516811      0.948128281     -165.843169      0.948200177     -165.842743      0.157944954      87.1779464
0.313505889          0.124259159      99.3539942      0.948293283     -165.914243      0.948359509     -165.913884      0.157210902      87.0727152
0.315043586          0.123682999      99.1554772      0.948454222     -165.985348       0.94852001     -165.985149      0.156467441      86.9658827
0.316588825          0.123104212      98.9560342      0.948611692     -166.056482      0.948681631     -166.056524      0.155715543      86.8574336
0.318141643          0.122523843      98.7550925      0.948769788     -166.127642      0.948843899     -166.127926      0.154962169       86.747331
0.319702077          0.121955494      98.5585092      0.948917888     -166.197814      0.948996216     -166.198343      0.154222555      86.6410743
0.321270166          0.121397042      98.3654856      0.949057553     -166.267157      0.949140138     -166.267931      0.153494334      86.5379083
0.322845945          0.120840027      98.1705851      0.949207087     -166.336796      0.949291913      -166.33747      0.152778237      86.4338739
0.324429453          0.120281473      97.9741844      0.949357751     -166.406478       0.94944474     -166.407038      0.152061201       86.328228
0.326020728          0.119721266      97.7762658      0.949509166     -166.476193      0.949598323     -166.476638      0.151342678      86.2209133
0.327619808          0.119159423      97.5767937       0.94966133     -166.545942       0.94975266     -166.546272      0.150622677      86.1119026
0.329226732          0.118603195       97.379749      0.949812314     -166.614996      0.949901826     -166.615146      0.149910602      86.0054303
0.330841537            0.1180663      97.1891957      0.949956551     -166.682366      0.950040016     -166.682273      0.149222108      85.9053863
0.332464262          0.117527626      96.9971707      0.950101518     -166.749775      0.950178905     -166.749437       0.14853203      85.8037522
0.334094947          0.116987188      96.8036394      0.950247211     -166.817223      0.950318489     -166.816641      0.147840378      85.7005025
0.33573363           0.116445858      96.6078499      0.950393481     -166.884632      0.950459233     -166.883844      0.147147472      85.5954019
0.33738035           0.115909822      96.4046411        0.9505393      -166.95143       0.95060449     -166.950758      0.146455507      85.4869226
0.339035147          0.115374023      96.2006229      0.950684411     -167.018127      0.950749042     -167.017571      0.145764067      85.3775361
0.340698061          0.114862157      96.0073226      0.950809666     -167.082921      0.950873746     -167.082482      0.145099879      85.2779459
0.342369131          0.114348584      95.8124568      0.950935611     -167.147757      0.950999142     -167.147436      0.144434045      85.1767401
0.344048398          0.113827755      95.6162582      0.951070574     -167.212963      0.951128513     -167.212683      0.143755933      85.0760486
0.3457359            0.113304018      95.4184752      0.951208065     -167.278281      0.951259309     -167.278027      0.143073878      84.9741943
0.34743168           0.112778568      95.2190131      0.951346318     -167.343644       0.95139083     -167.343414       0.14239015      84.8706966
0.349135778          0.112251421      95.0178335      0.951485331     -167.409053      0.951523076     -167.408847      0.141704759      84.7655283
0.350848234          0.111755198      94.8271053       0.95160871     -167.472242      0.951642713     -167.472225      0.141053469      84.6620762
0.352569089          0.111267201      94.6389188      0.951727389     -167.534809      0.951759452      -167.53508         0.140411       84.555997
0.354298384          0.110777472       94.449187      0.951846798     -167.597424      0.951876907     -167.597984      0.139766817      84.4481816
0.356036162          0.110286026       94.257875      0.951966935     -167.660087      0.951995075     -167.660937       0.13912093      84.3386017
0.357782463          0.109786321      94.0629284       0.95209563     -167.723028      0.952121817     -167.723805      0.138476192       84.227883
0.359537329          0.109278685      93.8643502      0.952232561     -167.786235      0.952256815     -167.786593      0.137832489      84.1159725
0.361300803          0.108785937      93.6702851      0.952361877     -167.848274      0.952384179     -167.848212       0.13720609      84.0080485
0.363072926          0.108302792      93.4788557      0.952486198     -167.909532      0.952506535     -167.909047      0.136590986      83.9023653
0.364853741          0.107822497      93.2907246      0.952610057     -167.971249      0.952629281     -167.970354      0.135968336      83.7969746
0.366643291          0.107345376      93.1063743       0.95273334     -168.033461      0.952752368     -168.032166      0.135337668      83.6920578
0.368441619           0.10686644      92.9204591      0.952857403     -168.095732      0.952876228     -168.094034       0.13470529      83.5854076
0.370248767          0.106385705      92.7329438      0.952982245     -168.158063       0.95300086      -168.15596      0.134071214      83.4769953
0.372064778          0.105908763      92.5409424      0.953106822     -168.218783      0.953118941     -168.216813      0.133448746      83.3697084
0.373889697          0.105444092       92.348233      0.953226707     -168.277396      0.953226676     -168.276046      0.132846761      83.2665648
0.375723567          0.104977661      92.1537808       0.95334739     -168.336061       0.95333515     -168.335333      0.132243021      83.1617029
0.377566432          0.104509488      91.9575475      0.953468872      -168.39478      0.953444362     -168.394676      0.131637536      83.0550947
0.379418335          0.104040887      91.7667743      0.953579349     -168.454058      0.953552402     -168.454361      0.131031421      82.9480212
0.381279322          0.103571212      91.5782373      0.953684179     -168.513665      0.953660154     -168.514259      0.130424195      82.8398769
0.383149437          0.103102949      91.3895088      0.953787745     -168.573087      0.953766656     -168.573973      0.129818928      82.7313198
0.385028724          0.102656279      91.2102988      0.953877349     -168.630789      0.953859195      -168.63197      0.129238742      82.6312381
0.386917229          0.102210044      91.0250846      0.953976828     -168.688555      0.953961235     -168.689536       0.12865743      82.5240718
0.388814997          0.101762469      90.8373599      0.954078766     -168.746381      0.954065658      -168.74707      0.128074493      82.4140936
0.390722073           0.10131315      90.6479106      0.954181442     -168.804267      0.954170816     -168.804662       0.12748983      82.3022774
0.392638503          0.100862003      90.4566721      0.954284715     -168.862158      0.954276319     -168.862293      0.126902579      82.1893303
0.394564333          0.100408282      90.2634016      0.954387535      -168.91963      0.954379248     -168.919804       0.12630617      82.0808385
0.396499608         0.0999780448      90.0763417      0.954483538     -168.975363      0.954475385     -168.975574       0.12573694      81.9778661
0.398444376         0.0995493635      89.8886193      0.954579233     -169.030919      0.954571233     -169.031168      0.125169725      81.8741391
0.400398683         0.0991260496      89.6998086      0.954678116     -169.086274      0.954667128      -169.08681      0.124602118      81.7675539
0.402362575         0.0987102959      89.5101195      0.954780986     -169.141347       0.95476288     -169.142497      0.124034557      81.6577222
0.4043361           0.0982928899      89.3186692      0.954884621     -169.196479      0.954859341     -169.198247      0.123465227      81.5460473
0.406319304         0.0978738487      89.1254203       0.95498902     -169.251673       0.95495651      -169.25406      0.122894142      81.4324983
0.408312236          0.097442042      88.9331618      0.955090901     -169.307188      0.955056495      -169.30868      0.122341906      81.3270414
0.410314943         0.0970108058      88.7422669       0.95518956     -169.362458      0.955154366      -169.36274      0.121797514      81.2242865
0.412327473         0.0965777574      88.5494787      0.955288963     -169.417796      0.955252991     -169.416863      0.121251363      81.1197747
0.414349874         0.0961429137      88.3547561       0.95538911     -169.473205      0.955352369     -169.471051      0.120703465      81.0134769
0.416382195         0.0957179285      88.1648796      0.955486783     -169.527934      0.955448457     -169.525607      0.120149513      80.9007822
0.418424484         0.0952965502      87.9762879      0.955583734     -169.582385      0.955543431     -169.580369      0.119591809      80.7840551
0.420476789         0.0948852156      87.7912939      0.955675712     -169.636013      0.955633416      -169.63431      0.119045927      80.6702893
0.422539162         0.0944890634       87.612432      0.955760122     -169.688428      0.955715817     -169.687038      0.118517815      80.5617709
0.424611649          0.094091144      87.4318798      0.955845186     -169.740908      0.955798857     -169.739834      0.117987906      80.4514282
0.426694302          0.093690044      87.2459567      0.955927564     -169.793374      0.955881377     -169.792484      0.117454547      80.3372684
0.42878717           0.093287077       87.057799      0.956010213     -169.845896      0.955964421     -169.845177       0.11691921      80.2209693
0.430890304         0.0928824247      86.8677822      0.956093512     -169.898485      0.956048121     -169.897936      0.116382098      80.1027216
0.433003752         0.0924807132      86.6779904      0.956175405     -169.950796      0.956130421     -169.950417      0.115848558      79.9843996
0.435127567         0.0920994682      86.4966577      0.956249959     -170.001546       0.95620557     -170.001246      0.115342243      79.8742395
0.437261799         0.0917170586      86.3140594      0.956331788     -170.052467      0.956288616     -170.051921      0.114846799      79.7656897
0.439406499         0.0913329583       86.129666      0.956414309     -170.103456      0.956372354     -170.102662      0.114349684      79.6552983
0.441561719         0.0909471833      85.9434399      0.956497519     -170.154512      0.956456786     -170.153469      0.113850911      79.5430353
0.443727509         0.0905597499      85.7553428      0.956581421     -170.205636      0.956541911     -170.204343      0.113350493      79.4288699
0.445903922         0.0901598698      85.5635911      0.956663351     -170.256325      0.956621561     -170.255061      0.112841864      79.3153897
0.44809101          0.0897754823      85.3777099      0.956737955      -170.30512      0.956691936      -170.30404      0.112354693      79.2093242
0.450288826         0.0893909286      85.1905246      0.956812727     -170.353866      0.956762459     -170.352972      0.111867603       79.102007
0.452497421         0.0890046582      85.0014009      0.956888107     -170.402679      0.956833574      -170.40197      0.111378791       78.992879
0.45471685          0.0886204647      84.8103475      0.956965361     -170.451611      0.956908705     -170.451045      0.110886713      78.8803281
0.456947164         0.0882527445      84.6175592      0.957049326     -170.500868      0.957000926      -170.50023      0.110385444      78.7582457
0.459188417          0.087883447      84.4227921      0.957133972     -170.550194      0.957093866     -170.549484       0.10988243      78.6341297
0.461440664         0.0875263561      84.2346993      0.957210532     -170.598482      0.957178769     -170.597699      0.109393785      78.5157407
0.463703957         0.0871735697       84.048457      0.957283947     -170.646363       0.95726057     -170.645507      0.108910286      78.3987519
0.465978352         0.0868180669      83.8559896      0.957351735     -170.694765      0.957330378     -170.694073      0.108424186      78.2902213
0.468263902         0.0864607388      83.6604334      0.957418493     -170.743354      0.957397506     -170.742888      0.107936132      78.1825604
0.470560662          0.086101897      83.4628617      0.957485823     -170.792014      0.957465202     -170.791774      0.107446354      78.0730772
0.472868688         0.0857415599      83.2632338      0.957553724     -170.840745      0.957533466     -170.840734      0.106954864       77.961741
0.475188034         0.0853897223      83.0722059      0.957623915     -170.888449      0.957602511     -170.888597      0.106476235      77.8476947
0.477518756         0.0850479916      82.8908373        0.9576952     -170.935001       0.95767119     -170.935241       0.10601234      77.7320683
0.47986091          0.0847046517      82.7076138      0.957767088     -170.981622      0.957740454     -170.981955      0.105546718      77.6145075
0.482214552         0.0843597183      82.5224978      0.957839578     -171.028315      0.957810304      -171.02874       0.10507938      77.4949796
0.484579738         0.0840110063      82.3358778      0.957913288     -171.075364       0.95788082     -171.075857      0.104613263      77.3770245
0.486956525         0.0836558376      82.1482373         0.957989     -171.123115      0.957952136     -171.123625      0.104151949      77.2650275
0.48934497           0.083304387      81.9610334      0.958063772     -171.170543      0.958022497     -171.171069      0.103695232       77.153268
0.491745129          0.082969495      81.7802348      0.958133706     -171.216685      0.958087995     -171.217228      0.103258129      77.0469931
0.494157062         0.0826344953      81.5974309      0.958202648     -171.262652       0.95815327     -171.263154      0.102820041      76.9378789
0.496580824         0.0823040453      81.4121586      0.958265792     -171.307688      0.958215897     -171.307907      0.102382954      76.8226689
0.499016474         0.0819720758      81.2249464       0.95832948     -171.352792      0.958279071     -171.352728       0.10194427       76.705536
0.501464071         0.0816386032       81.035756      0.958393713     -171.397967      0.958342791     -171.397616         0.101504      76.5864489
0.503923673         0.0813026773      80.8453844      0.958460452     -171.443266      0.958408787     -171.442754      0.101060928       76.464781
0.506395339         0.0809797348      80.6683918      0.958529108     -171.487388      0.958475538     -171.487342      0.100632846      76.3480266
0.508879128         0.0806553959      80.4896749      0.958598256     -171.531564      0.958542765     -171.531987      0.100203374      76.2294488
0.5113751           0.0803294748      80.3090822      0.958667983     -171.575811      0.958610553     -171.576706     0.0997722896      76.1089146
0.513883313         0.0800019988      80.1232706      0.958735577     -171.619983      0.958676834     -171.621224     0.0993373994      75.9853212
0.51640383          0.0796731084      79.9231657      0.958793682     -171.663686      0.958736001     -171.664796     0.0988927419      75.8557074
0.518936709         0.0793428351      79.7208557      0.958852293     -171.707458      0.958795681     -171.708436     0.0984464571      75.7239631
0.521482011          0.079027197       79.525902      0.958904582     -171.750036      0.958849049     -171.750882     0.0980174346      75.5985254
0.524039798          0.078715891      79.3367571      0.958956646      -171.79251      0.958900673     -171.793237     0.0975965261      75.4782469
0.52661013          0.0784040881      79.1551074      0.959012311     -171.835538      0.958952848     -171.836174     0.0971811185      75.3648385
0.52919307          0.0780908036      78.9715337      0.959068461     -171.878636      0.959005493      -171.87918     0.0967641546      75.2495548
0.531788678         0.0777760526      78.7859986      0.959125095     -171.921804      0.959058606     -171.922256     0.0963456456      75.1323649
0.534397017         0.0774616614      78.5977474      0.959184398     -171.964863      0.959117192     -171.965134     0.0959246055      75.0106289
0.53701815          0.0771599249      78.4149387      0.959240442     -172.006826      0.959175051      -172.00684     0.0955158749      74.8917081
0.539652139          0.076868413      78.2378627      0.959291587     -172.047918      0.959228021     -172.047672     0.0951194033      74.7776164
0.542299048         0.0765754724      78.0589346      0.959343185     -172.089076      0.959281454      -172.08857     0.0947214013      74.6616612
0.544958939         0.0762784964      77.8770387      0.959391017     -172.130443      0.959336536     -172.129756     0.0943233059      74.5427693
0.547631876         0.0759794192      77.6929117      0.959438168     -172.171916      0.959392415     -172.171069     0.0939240898      74.4216606
0.550317924         0.0756789512      77.5068008      0.959485757     -172.213458      0.959448779      -172.21245     0.0935233875      74.2985785
0.553017146         0.0753798189      77.3204955       0.95953298     -172.254782      0.959503038     -172.253656     0.0931263392      74.1749623
0.555729608         0.0750797614      77.1364508      0.959578341     -172.295512      0.959542371     -172.294599     0.0927425903      74.0522995
0.558455374          0.074778255      76.9504095      0.959624098     -172.336314       0.95958206     -172.335613     0.0923573543      73.9276723
0.561194509         0.0744753148      76.7623332      0.959670248     -172.377186      0.959622104     -172.376699     0.0919706432       73.801049
0.563947079         0.0741832834      76.5716618      0.959727563     -172.418628      0.959677419     -172.418027     0.0915750489      73.6758147
0.56671315           0.073901527      76.3784536        0.9597955     -172.460615      0.959747262     -172.459588     0.0911709527      73.5518034
0.569492789         0.0736193396      76.1838829       0.95986344     -172.502603      0.959817119     -172.501148     0.0907663778      73.4264034
0.572286061         0.0733551707      76.0029159      0.959920723     -172.543019      0.959876325     -172.541134      0.090383436      73.3128734
0.575093033         0.0730867799      75.8197505      0.959975162     -172.582979      0.959928932     -172.580887     0.0900026392      73.1966847
0.577913774         0.0728121422      75.6340808      0.960024441     -172.622113      0.959969952      -172.62019     0.0896265932      73.0772057
0.580748349         0.0725362213      75.4464276      0.960074111     -172.661313      0.960011329     -172.659561     0.0892491106      72.9558131
0.583596828         0.0722590327      75.2567544      0.960124174      -172.70058      0.960053062     -172.698999     0.0888702027       72.832476
0.586459278         0.0719805926      75.0650242      0.960174627     -172.739914       0.96009515     -172.738504     0.0884898815      72.7071627
0.589335768         0.0717123417      74.8821423      0.960221502     -172.778101      0.960140553     -172.776886      0.088130006      72.5842146
0.592226367          0.071443047      74.7016293      0.960266631      -172.81606      0.960189175     -172.815059     0.0877750906      72.4594768
0.595131144         0.0711724363      74.5191755      0.960312135     -172.854084      0.960238188     -172.853299     0.0874188116      72.3327833
0.598050168          0.070900524      74.3347455      0.960358013     -172.892173      0.960287592     -172.891605     0.0870611811      72.2041032
0.600983509         0.0706273248      74.1483029      0.960404265     -172.930328      0.960337386     -172.929978     0.0867022113      72.0734047
0.603931238         0.0703564243      73.9578761      0.960455417     -172.968642      0.960382983     -172.968431     0.0863349756      71.9420927
0.606893426         0.0700950457       73.774936      0.960500738     -173.006106      0.960421749     -173.006026     0.0859782323      71.8175568
0.609870142         0.0698402389       73.597477      0.960541331     -173.042933      0.960455745     -173.042986     0.0856296144      71.6976877
0.612861458         0.0695841719       73.418135      0.960582252     -173.079824      0.960490027      -173.08001     0.0852796197      71.5759444
0.615867447         0.0693265735      73.2346714      0.960620948     -173.116667      0.960525753     -173.117007     0.0849308208      71.4497516
0.618888179         0.0690671979      73.0447421      0.960654796     -173.153345      0.960564144     -173.153878       0.08458588      71.3164134
0.621923728         0.0688066522      72.8527406      0.960688947     -173.190087      0.960602875     -173.190813     0.0842396477      71.1810125
0.624974165         0.0685497351      72.6608481      0.960723149     -173.226543      0.960641692     -173.227464     0.0838977713      71.0453733
0.628039565         0.0683012455      72.4713459      0.960757129     -173.262364      0.960680324     -173.263478     0.0835659095      70.9114062
0.631119999         0.0680574097      72.2829326      0.960800304     -173.298363      0.960723037     -173.299237     0.0832329756      70.7872861
0.634215543         0.0678134092       72.093026      0.960845296     -173.334445      0.960766702     -173.335004     0.0828988029      70.6632364
0.63732627          0.0675682973      71.9010768      0.960890627     -173.370589      0.960810694     -173.370834     0.0825633695      70.5372684
0.640452255         0.0673220896      71.7070496      0.960936298     -173.406798      0.960855012     -173.406726     0.0822266869       70.409352
0.643593572         0.0670724839      71.5173418      0.960982068     -173.443122      0.960902142     -173.442853     0.0818832782      70.2763999
0.646750296           0.06683605      71.3451468      0.961022307     -173.478181      0.960946699     -173.477846     0.0815529018      70.1490328
0.649922504         0.0665984252      71.1711564      0.961062824       -173.5133      0.960991552     -173.512899     0.0812212506      70.0197536
0.653110271         0.0663596219      70.9953399      0.961103619      -173.54848        0.9610367     -173.548013      0.080888336      69.8885324
0.656313674         0.0661204462      70.8148147      0.961144987     -173.583647      0.961080607     -173.583147     0.0805563114      69.7565758
0.659532789         0.0658834738      70.6205062      0.961187878     -173.618567       0.96111844     -173.618169     0.0802319377      69.6277919
0.662767693          0.065645486      70.4241155      0.961231075     -173.653545      0.961156553     -173.653252       0.07990638      69.4970705
0.666018463         0.0654135874      70.2323208       0.96127096     -173.687955      0.961191324     -173.687766     0.0795882929       69.370309
0.669285178         0.0651817934      70.0395945      0.961310504     -173.722322      0.961225727     -173.722239     0.0792703949      69.2426321
0.672567916         0.0649491962      69.8534528      0.961344348     -173.757063      0.961253944     -173.757156     0.0789592637      69.1058766
0.675866756         0.0647155184      69.6653673        0.9613784     -173.791869      0.961282344     -173.792139     0.0786470059      68.9670806
0.679181775         0.0644807733      69.4752792      0.961412677     -173.826739      0.961310944     -173.827187     0.0783336099      68.8262348
0.682513054         0.0642449753      69.2831545      0.961447179     -173.861673      0.961339743     -173.862299     0.0780190887      68.6833075
0.685860673          0.064026048      69.1005557      0.961490194     -173.895726       0.96138791     -173.895782     0.0777092985      68.5541454
0.689224711         0.0638153017      68.9223558      0.961533204     -173.929169      0.961437535     -173.928555     0.0774073462      68.4292797
0.692605249         0.0636035391      68.7423196      0.961576489     -173.962671       0.96148747     -173.961383     0.0771042517      68.3025742
0.696002368         0.0633907731      68.5604178      0.961620048     -173.996232      0.961537713     -173.994268     0.0768000258      68.1740014
0.69941615          0.0631845494      68.3711732      0.961655238     -174.029451      0.961568597     -174.027748     0.0765017404      68.0407212
0.702846675         0.0629787497      68.1790423       0.96168917      -174.06266      0.961596274      -174.06138     0.0762036188      67.9049975
0.706294027         0.0627749014      67.9891998      0.961720528     -174.095623      0.961621339     -174.094768       0.07590803      67.7711402
0.709758288         0.0625746374      67.8042516      0.961747595      -174.12816      0.961642078     -174.127732     0.0756170655      67.6415143
0.71323954          0.0623617586       67.614884      0.961778121     -174.160551       0.96167567     -174.160022     0.0753186679      67.5120972
0.716737867         0.0621466226      67.4232427      0.961809205     -174.192974      0.961710917     -174.192284     0.0750184499       67.381046
0.720253353         0.0619305746       67.229583      0.961840471     -174.225452      0.961746375       -174.2246     0.0747171442       67.248098
0.723786081         0.0617135246      67.0339388      0.961872012     -174.257997      0.961781887     -174.256992     0.0744148851      67.1131797
0.727336138         0.0614924405      66.8414548      0.961908065     -174.291005      0.961809076     -174.290269     0.0741207553      66.9755315
0.730903606         0.0612835465       66.657273      0.961941424     -174.322992      0.961833511     -174.322527     0.0738414983      66.8448595
0.734488573         0.0610736979      66.4711825      0.961974969     -174.355034      0.961858079     -174.354842     0.0735612125       66.712344
0.738091123         0.0608636902      66.2854959      0.962008141     -174.386949      0.961884163     -174.387013     0.0732812517      66.5785024
0.741711343          0.060655635      66.1066163       0.96203942     -174.418229      0.961915541     -174.418491     0.0730052829      66.4448082
0.74534932           0.060446627      65.9258743      0.962070863     -174.449564       0.96194709     -174.450022     0.0727283429      66.3092317
0.749005141         0.0602366786      65.7432405      0.962102468     -174.480953      0.961978811     -174.481608     0.0724504431       66.171746
0.752678892         0.0600456305      65.5634212      0.962134093     -174.511605      0.962015239     -174.512159     0.0721802852      66.0299695
0.756370663         0.0598625792       65.379282      0.962165739     -174.542417      0.962056895     -174.542538     0.0719032012       65.877101
0.760080542         0.0596787246      65.1933301      0.962197537     -174.573282       0.96209876     -174.572968     0.0716251817      65.7221227
0.763808617         0.0594940799      65.0055394      0.962229486     -174.604201      0.962140835      -174.60345     0.0713462403      65.5650032
0.767554977         0.0592962127      64.8125144      0.962263738     -174.635449      0.962169203     -174.634662     0.0710739284       65.426593
0.771319713         0.0590945246      64.6166719      0.962298695     -174.666817      0.962194339     -174.666093     0.0708025222      65.2913477
0.775102914         0.0589005094      64.4298492      0.962328499     -174.697396      0.962214262     -174.696734     0.0705408654      65.1641561
0.778904671         0.0587085616      64.2449526      0.962354438     -174.727475      0.962231839     -174.726885     0.0702813992       65.035755
0.782725075         0.0585111563      64.0521001      0.962374678     -174.757023      0.962250009     -174.756534     0.0700130362      64.8884653
0.786564218         0.0583129697      63.8572375      0.962395007      -174.78662      0.962268258     -174.786231     0.0697437748      64.7391664
0.790422191         0.0581140161      63.6603346      0.962415423     -174.816265      0.962286586     -174.815979     0.0694736278      64.5878292
0.794299087         0.0579148828      63.4621419      0.962436666     -174.846001      0.962305103     -174.845792     0.0692030065      64.4351682
0.798194998         0.0577322852      63.2807244      0.962470282     -174.875897      0.962325221     -174.875353     0.0689474036      64.2978128
0.802110018         0.0575585079      63.1044836      0.962503534     -174.905088      0.962344901     -174.904206     0.0687025334       64.164535
0.806044241         0.0573839577      62.9265367      0.962536933     -174.934326      0.962364658     -174.933106     0.0684568279      64.0294948
0.809997761         0.0572086464      62.7468601      0.962570478     -174.963613       0.96238449     -174.962053     0.0682102976      63.8926686
0.813970672         0.0570308429      62.5658437      0.962600688     -174.992861      0.962406981     -174.991123     0.0679617036      63.7545929
0.817963069         0.0568475051      62.3841724      0.962621478     -175.021914       0.96243666     -175.020452     0.0677088662      63.6162284
0.821975048         0.0566644781      62.2024957      0.962641419     -175.050893       0.96246554     -175.049708     0.0674565982      63.4776774
0.826006706         0.0564848958      62.0261931      0.962657735     -175.079444      0.962490854     -175.078536     0.0672089624      63.3438493
0.830058138         0.0563045287      61.8481647      0.962674081      -175.10804      0.962516244     -175.107412     0.0669604909      63.2082748
0.834129442         0.0561254681      61.6632185      0.962693487     -175.136722      0.962542852     -175.136179     0.0667155071      63.0644612
0.838220715         0.0559471461      61.4728343      0.962715061     -175.165479      0.962570345     -175.164885     0.0664727651      62.9142526
0.842332055         0.0557681409      61.2805682      0.962736696     -175.194284      0.962597929     -175.193638     0.0662292876      62.7621039
0.846463561         0.0555884656      61.0863944       0.96275839     -175.223136      0.962625602     -175.222438     0.0659850872       62.607989
0.85061533          0.0554215912       60.900423      0.962780063     -175.250989      0.962653044     -175.250241     0.0657560217      62.4604398
0.854787464         0.0552697242      60.7199651      0.962811503     -175.278513      0.962676291     -175.277885     0.0655188685      62.3138331
0.858980061         0.0551172567      60.5378578       0.96284306     -175.306081      0.962699613     -175.305572     0.0652809874      62.1653517
0.863193223         0.0549642007      60.3540807      0.962874732     -175.333693      0.962723008     -175.333304     0.0650423902      62.0149707
0.867427049         0.0548105682      60.1686136      0.962906518     -175.361348      0.962746474     -175.361079     0.0648030891       61.862665
0.871681641         0.0546456615      59.9727375      0.962932333       -175.3894      0.962773323     -175.389032      0.064568404      61.7125239
0.875957102         0.0544784766      59.7767082      0.962950247     -175.417094      0.962800212     -175.416442     0.0643466797       61.572143
0.880253533         0.0543134135      59.5821825      0.962967133     -175.444572      0.962826123     -175.443635      0.064127685       61.433075
0.884571037         0.0541477738       59.385777      0.962984044     -175.472095      0.962852108     -175.470871     0.0639080327      61.2922896
0.888909718         0.0539840558      59.1895456      0.963002616     -175.499586      0.962877238     -175.498098     0.0636860765       61.149583
0.89326968          0.0538323162      59.0019937      0.963029488     -175.526741      0.962897749     -175.525101     0.0634551042      61.0041722
0.897651026         0.0536800453      58.8127199      0.963056438     -175.553937      0.962918305     -175.552146     0.0632234601      60.8569418
0.902053863           0.05353274      58.6274384      0.963082462     -175.580692      0.962937898     -175.578747     0.0629979426      60.7129128
0.906478294         0.0533905522      58.4464297      0.963107511     -175.606988      0.962956479      -175.60489     0.0627787516       60.572342
0.910924427         0.0532350027      58.2820773      0.963126915     -175.633706      0.962972044     -175.632155     0.0625604107      60.4223776
0.915392367         0.0530770156      58.1187406      0.963145567     -175.660517      0.962987202     -175.659613     0.0623416652      60.2695363
0.919882222         0.0529183449      57.9539136      0.963164244      -175.68737      0.963002365     -175.687117     0.0621223235      60.1148401
0.924394098             0.052759      57.7875781      0.963182943     -175.714265      0.963017531     -175.714666     0.0619023977      59.9582661
0.928928105         0.0526099523      57.5965247      0.963199271     -175.741082      0.963033619     -175.741412     0.0616828884      59.8163118
0.933484351         0.0524710683      57.3988587      0.963213534     -175.767395       0.96304919     -175.767313     0.0614700143      59.6856683
0.938062944         0.0523317892      57.1994387        0.9632278     -175.793747      0.963064767     -175.793253     0.0612565081       59.553461
0.942663994         0.0521921284      56.9982457      0.963242068      -175.82014      0.963080348      -175.81923     0.0610423792      59.4196715
0.947287612         0.0520488588      56.8103769      0.963257931      -175.84616      0.963099551     -175.844876     0.0608284598      59.2706643
0.951933908         0.0519026478      56.6323258      0.963275014     -175.871905      0.963121531     -175.870278     0.0606146228      59.1094994
0.956602993           0.05175612      56.4529042      0.963292072     -175.897671      0.963143512     -175.895697     0.0604005183       58.946613
0.961294979         0.0516189303      56.2836129       0.96330701     -175.922564      0.963163394     -175.920242     0.0601982125      58.7922839
0.966009979          0.051473771      56.1071689      0.963324264     -175.947618      0.963180852     -175.945308     0.0600014555      58.6447257
0.970748105          0.051321664      55.9241947       0.96334354     -175.972818      0.963196212     -175.970833     0.0598094295      58.5029045
0.975509471         0.0511690406      55.7395318      0.963362841     -175.998053      0.963211574     -175.996395     0.0596169259      58.3594729
0.980294191         0.0510159121      55.5531605      0.963382163     -176.023324      0.963226938     -176.021994     0.0594239555      58.2144135
0.985102379         0.0508752284      55.3640664      0.963403746     -176.048384      0.963245574     -176.047275     0.0592282479      58.0609685
0.98993415          0.0507517567      55.1776428      0.963429056     -176.072713      0.963268669     -176.071747     0.0590404463      57.9049963
0.99478962          0.0506302507      54.9910856      0.963454987      -176.09691      0.963292374     -176.096088     0.0588550032      57.7484314
0.999668906         0.0505084044       54.802997      0.963480956     -176.121138      0.963316108     -176.120463     0.0586691636      57.5901383
1.00457212          0.0503742815      54.6071966      0.963499027     -176.146167       0.96333633     -176.145207     0.0584715589       57.433187
1.00949939          0.0502347845      54.4070786      0.963513753     -176.171555      0.963355071     -176.170127     0.0582687147      57.2757677
1.01445083          0.0500949451      54.2051896      0.963528463      -176.19698      0.963373816     -176.195082     0.0580654149      57.1165614
1.01942655          0.0499571478        54.01063      0.963538402     -176.221998      0.963387808     -176.219626      0.057865221      56.9642524
1.02442667          0.0498340078      53.8332099      0.963556808     -176.245521      0.963400538     -176.243465     0.0576847746      56.8213734
1.02945132           0.049712007      53.6556313      0.963576658      -176.26894      0.963413565     -176.267293     0.0575059132       56.677393
1.03450062          0.0495896629      53.4766073      0.963596528     -176.292386      0.963426577     -176.291151     0.0573266754      56.5318594
1.03957468          0.0494677097      53.2950042      0.963614549     -176.315836      0.963439342     -176.314992     0.0571442072      56.3819622
1.04467363          0.0493492629       53.106036      0.963622779     -176.339185      0.963450893     -176.338612     0.0569463518      56.2156794
1.04979759          0.0492337362      52.9180866      0.963631493     -176.362318      0.963462947     -176.362019     0.0567519617      56.0496892
1.05494668          0.0491250352       52.734349      0.963641339     -176.384937      0.963476153     -176.384913     0.0565657757      55.8867146
1.06012103          0.0490015664      52.5579033      0.963653249     -176.407981      0.963494064      -176.40806      0.056387781      55.7286422
1.06532075          0.0488625851      52.3890726      0.963667334     -176.431467      0.963516907     -176.431472      0.056218358        55.57588
1.07054598          0.0487231485      52.2187773      0.963681423     -176.454983       0.96353979     -176.454913     0.0560486461      55.4215218
1.07579684          0.0485832664      52.0470023      0.963695514     -176.478529      0.963562712     -176.478383     0.0558786568      55.2655531
1.08107346          0.0484629531      51.8558068      0.963710233     -176.502451      0.963579471     -176.501879     0.0557001446      55.1155649
1.08637595          0.0483517566      51.6705242      0.963723467     -176.525777      0.963593871     -176.524733     0.0555288181      54.9739335
1.09170445          0.0482403276      51.4837996      0.963736683     -176.549133      0.963608266     -176.547613     0.0553571533      54.8308448
1.09705909          0.0481286775      51.2956221      0.963749879     -176.572519      0.963622656     -176.570521     0.0551851607      54.6862857
1.10243999           0.048014387      51.1194926      0.963768289      -176.59554      0.963637327     -176.593417     0.0550115616      54.5341929
1.10784728          0.0478989557      50.9467588      0.963788551     -176.618451      0.963652095     -176.616327     0.0548372178      54.3783947
1.1132811           0.0477832329      50.7726897      0.963808829     -176.641388      0.963666856     -176.639263      0.054662595      54.2209859
1.11874157           0.047667479      50.6028347      0.963825735     -176.664136      0.963678225     -176.662011      0.054488493      54.0674539
1.12422882          0.0475514696       50.432764      0.963841974     -176.686869      0.963688903     -176.684744     0.0543142533      53.9134227
1.12974298           0.047436894      50.2508732      0.963851099     -176.709896      0.963699762     -176.707611     0.0541459748      53.7829936
1.13528419          0.0473221757      50.0670494      0.963859846     -176.732964      0.963710615      -176.73051     0.0539776905      53.6525244
1.14085258          0.0472072413      49.8818013      0.963868569     -176.756059       0.96372145     -176.753436     0.0538090987      53.5207618
1.14644828          0.0470921019      49.6951185      0.963877265     -176.779182      0.963732266     -176.776388     0.0536402091      53.3876954
1.15207143          0.0469830447      49.5153666      0.963886709     -176.801782      0.963743654     -176.798913     0.0534788815      53.2486918
1.15772216          0.0468741457      49.3422127      0.963894864     -176.824208      0.963753279     -176.821519     0.0533183385      53.0837389
1.1634006            0.046765011      49.1677599       0.96390299     -176.846661      0.963762882     -176.844152     0.0531576198       52.917147
1.1691069           0.0466556507      48.9919993      0.963911087      -176.86914      0.963772464     -176.866813      0.052996738      52.7489021
1.17484118          0.0465460752      48.8149222      0.963919154     -176.891645      0.963782023     -176.889501      0.052835706      52.5789901
1.18060359          0.0464414538      48.6390486       0.96393576     -176.913355       0.96380249     -176.911763     0.0526833024      52.4121538
1.18639427           0.046340052       48.465451       0.96395546     -176.934591      0.963827081     -176.933711     0.0525361264      52.2480946
1.19221334           0.046240573      48.2949679      0.963974166     -176.955594      0.963850701     -176.955431     0.0523916404      52.0866081
1.19806096          0.0461409131      48.1232584      0.963992908     -176.976618      0.963874378     -176.977173     0.0522470601      51.9235991
1.20393726          0.0460405323      47.9487138      0.964011119     -176.997763      0.963895474     -176.998846     0.0521003721      51.7609881
1.20984238          0.0459381425      47.7674592      0.964027445     -177.019275      0.963907653     -177.020221     0.0519467097      51.6034061
1.21577647          0.0458356262      47.5848797      0.964043793     -177.040808      0.963919835     -177.041618     0.0517929159      51.4443216
1.22173966          0.0457338798      47.4021407      0.964060157     -177.062282      0.963932014     -177.062954     0.0516401132      51.2847949
1.2277321           0.0456381651      47.2262778      0.964076501     -177.083207      0.963944153     -177.083742     0.0514949044      51.1312633
1.23375393          0.0455354345      47.0470347      0.964095577     -177.104585      0.963957659     -177.104891     0.0513567352      50.9762299
1.2398053           0.0454313539      46.8661129      0.964115168     -177.126061      0.963971412     -177.126121     0.0512197595      50.8198031
1.24588635          0.0453271434      46.6838785      0.964134795     -177.147559      0.963985171     -177.147372     0.0510827356      50.6619956
1.25199722          0.0452228135       46.500324       0.96415446     -177.169078      0.963998935     -177.168643     0.0509456752      50.5027992
1.25813807          0.0451311265      46.3165206      0.964166171     -177.190661      0.964012718     -177.189993     0.0507993165        50.34422
1.26430904          0.0450526526      46.1409891      0.964169486     -177.211832      0.964024297     -177.210945     0.0506503617      50.1940521
1.27051028          0.0449745898      45.9654353      0.964172499     -177.232968      0.964035618     -177.231859     0.0505018582      50.0435382
1.27674193          0.0448965227      45.7887847      0.964175488     -177.254125      0.964046959     -177.252794     0.0503532377      49.8916397
1.28300415          0.0448117329      45.6120795      0.964181907     -177.275023      0.964057315     -177.273528     0.0502092314      49.7365734
1.28929708          0.0447152983      45.4359933      0.964194295     -177.295457      0.964065953     -177.293898     0.0500733185      49.5770492
1.29562088          0.0446187939      45.2586833      0.964206719     -177.315909      0.964074606     -177.314285     0.0499374027      49.4161165
1.30197569          0.0445251512      45.0860987      0.964218218     -177.336035      0.964082315     -177.334346     0.0498053338      49.2594438
1.30836168          0.0444340034      44.9163408      0.964228842     -177.356106      0.964090944     -177.354457     0.0496756686      49.1040289
1.31477898          0.0443457563      44.7478574      0.964238339     -177.376522      0.964103775      -177.37522     0.0495470762        48.94602
1.32122777          0.0442574514        44.57829      0.964247849     -177.396956      0.964116634     -177.396001      0.049418514      48.7866726
1.32770818          0.0441690986       44.407635      0.964257374     -177.417407      0.964129523     -177.416803     0.0492899942      48.6259802
1.33422038          0.0440799843      44.2368387      0.964267364     -177.437777       0.96414201       -177.4374     0.0491607027      48.4655609
1.34076452           0.043990116       44.071227       0.96427886     -177.457637      0.964152912      -177.45705     0.0490308859      48.3122797
1.34734076          0.0439027505      43.9086962      0.964290251     -177.477253      0.964163704     -177.476456     0.0489043558      48.1616165
1.35394925          0.0438153237      43.7451169      0.964301687     -177.496885      0.964174534     -177.495875     0.0487778429      48.0096953
1.36059016          0.0437287373      43.5765075      0.964312502     -177.516794      0.964187314     -177.515591      0.048648213      47.8566848
1.36726364           0.043644589      43.3959153      0.964321533     -177.537438      0.964205376      -177.53609     0.0485099946      47.7028526
1.37396985          0.0435604788      43.2141668      0.964330591     -177.558101      0.964223516     -177.556609     0.0483717681      47.5476993
1.38070895          0.0434769291      43.0331809      0.964339096     -177.578691      0.964241152     -177.577053     0.0482342894      47.3931196
1.38748111          0.0433955947      42.8648382      0.964346497     -177.598415       0.96425594     -177.596898     0.0481053343      47.2356455
1.39428649          0.0433140005      42.7032553      0.964356363     -177.617428      0.964270405     -177.616448     0.0479845142      47.0605648
1.40112524          0.0432324046      42.5406856      0.964366287     -177.636454      0.964284949     -177.636013     0.0478638543      46.8840283
1.40799754          0.0431508167      42.3771274       0.96437627     -177.655492      0.964299573     -177.655593     0.0477433682      46.7060295
1.41490354          0.0430678501      42.1989666      0.964389979     -177.675176      0.964306751     -177.675342     0.0476166219      46.5503937
1.42184342          0.0429839767      42.0098857      0.964406404     -177.695331      0.964308567     -177.695217     0.0474853037      46.4106564
1.42881734          0.0429056519       41.824065      0.964425187      -177.71512      0.964312662     -177.714725     0.0473605477      46.2736772
1.43582546          0.0428277774      41.6373368      0.964444222     -177.734903      0.964316934     -177.734224     0.0472362092       46.135845
1.44286796          0.0427571745      41.4786362      0.964453946     -177.753864      0.964335884     -177.753119     0.0471263434      45.9769013
1.449945            0.0426879333      41.3244152      0.964462016     -177.772685       0.96435764     -177.771914     0.0470193061      45.8130524
1.45705675          0.0426187487      41.1693535      0.964470156     -177.791517      0.964379532      -177.79072      0.046912478      45.6479479
1.46420338          0.0425476152      41.0107455      0.964478869     -177.810443      0.964398983     -177.809627     0.0468048698      45.4835578
1.47138507          0.0424680317      40.8450794      0.964487577     -177.829475       0.96440396     -177.828674     0.0466943676      45.3339636
1.47860198          0.0423888948       40.681189      0.964495342     -177.848403      0.964407979     -177.847617      0.046584682      45.1860583
1.48585429          0.0423098109      40.5163178      0.964503183     -177.867345      0.964412058     -177.866574     0.0464751402      45.0370466
1.49314217          0.0422326354      40.3436635      0.964512572     -177.886283      0.964421823     -177.885245     0.0463627181      44.8887828
1.50046579          0.0421569764      40.1648321       0.96452316     -177.905223      0.964435929     -177.903704     0.0462481457      44.7408129
1.50782534          0.0420814676      39.9849341      0.964533843     -177.924175      0.964450147     -177.922172     0.0461337161      44.5917359
1.51522099          0.0420078468      39.8084282      0.964543975     -177.942907       0.96446383     -177.940419     0.0460217635      44.4459377
1.5226529           0.0419345388      39.6405381      0.964551198     -177.961507      0.964473485     -177.958744     0.0459156742      44.2936633
1.53012128          0.0418589167      39.4778926      0.964555435     -177.980278      0.964478626     -177.977527     0.0458139876      44.1261809
1.53762628          0.0417833902      39.3142871      0.964559763     -177.999062      0.964483862     -177.996325     0.0457125714      43.9574392
1.54516809          0.0417079696      39.1497216      0.964564183     -178.017861      0.964489195     -178.015136     0.0456114391      43.7874356
1.5527469           0.0416326652      38.9841958        0.9645687     -178.036673      0.964494628     -178.033961     0.0455106041      43.6161679
1.56036288          0.0415709832      38.8132912      0.964569469     -178.054789      0.964494548     -178.052399     0.0454020404      43.4449287
1.56801621          0.0415172128      38.6417544      0.964566863     -178.072408      0.964490081     -178.070519     0.0452893803      43.2759819
1.57570708          0.0414637027      38.4693576      0.964564326     -178.090036      0.964485675     -178.088649     0.0451769525      43.1057117
1.58343567          0.0414104641      38.2961039       0.96456186     -178.107672      0.964481333      -178.10679     0.0450647705      42.9341139
1.59120218          0.0413575081      38.1219968      0.964559468     -178.125316      0.964477057     -178.124942     0.0449528479      42.7611845
1.59900677           0.041285822      37.9539914      0.964566466      -178.14375      0.964488485      -178.14329     0.0448437105      42.5951711
1.60684965          0.0412135104      37.7853336      0.964573981     -178.162229      0.964500718     -178.161656     0.0447349477      42.4282631
1.61473099          0.0411463097       37.624256      0.964582125      -178.18022      0.964513604     -178.179535     0.0446327282      42.2683751
1.62265099          0.0410792923      37.4623062      0.964590416     -178.198221      0.964526661     -178.197424     0.0445307933      42.1073324
1.63060984          0.0410140537      37.2996522      0.964599167     -178.216126       0.96453813     -178.215249     0.0444349108      41.9501178
1.63860772          0.0409515649       37.136439      0.964608578     -178.233867      0.964546972     -178.232964      0.044348521      41.7998228
1.64664483          0.0408892907       36.972356      0.964618162     -178.251618      0.964555981      -178.25069     0.0442624595      41.6485315
1.65472136           0.040827242      36.8074052      0.964627923     -178.269379      0.964565162     -178.268425      0.044176739       41.496245
1.66283751           0.040767968      36.6483938      0.964637158     -178.286805      0.964573809     -178.285825     0.0440947715      41.3497698
1.67099346           0.040711358      36.4904584      0.964645653     -178.304506      0.964585591     -178.303327     0.0440094846      41.2040858
1.67918942          0.0406551364      36.3317026      0.964654257     -178.322254      0.964597871     -178.320858      0.043924067      41.0574094
1.68742558          0.0405991582      36.1721555      0.964663042     -178.340013       0.96461035     -178.338398     0.0438389808      40.9097822
1.69570214          0.0405434341      36.0118204       0.96467201     -178.357784      0.964623032     -178.355948     0.0437542384      40.7612056
1.70401929          0.0404893429      35.8553129      0.964683447     -178.375265      0.964629661     -178.373463     0.0436630779      40.6038806
1.71237723          0.0404356154      35.7030227      0.964695713     -178.392498      0.964629672     -178.390951     0.0435652309      40.4398256
1.72077617          0.0403811324      35.5508524      0.964706946     -178.409744      0.964628591     -178.408453     0.0434666407      40.2756234
1.72921631          0.0403268871      35.3979394      0.964718388     -178.426999       0.96462766     -178.425967     0.0433683752      40.1102224
1.73769784          0.0402703082      35.2466007      0.964727015      -178.44441      0.964629211     -178.443581     0.0432732399      39.9449787
1.74622097          0.0402061871      35.1014727      0.964726736     -178.462268      0.964637944     -178.461476     0.0431868576      39.7826797
1.75478591          0.0401422507      34.9556165      0.964726622     -178.480139      0.964646887     -178.479383     0.0431008774      39.6192952
1.76339286          0.0400795775      34.8124339      0.964726247     -178.497858      0.964655614     -178.497139     0.0430167686      39.4582842
1.77204202          0.0400199347      34.6754927      0.964725679     -178.515192      0.964663408     -178.514495     0.0429365047       39.304753
1.78073361          0.0399637553      34.5092744      0.964738235     -178.532732      0.964670097     -178.531779     0.0428531691      39.1477354
1.78946782          0.0399078805      34.3421819      0.964751035     -178.550284      0.964677002     -178.549076     0.0427702258      38.9896747
1.79824488          0.0398523216      34.1742183      0.964764086     -178.567848      0.964684127     -178.566383      0.042687688      38.8305718
1.80706499          0.0397970901      34.0053866      0.964777391     -178.585424      0.964691478     -178.583701     0.0426055691       38.670428
1.81592835           0.039747422      33.8339526      0.964788845     -178.603001      0.964704271     -178.601114     0.0425220173      38.5293325
1.8248352           0.0396961509      33.6662227      0.964796485     -178.620494      0.964713732      -178.61845     0.0424363952      38.3939379
1.83378572          0.0396452319      33.4976363      0.964804373     -178.638001      0.964723451     -178.635798     0.0423511072      38.2576704
1.84278015          0.0395946768      33.3281972      0.964812515     -178.655521       0.96473343     -178.653159     0.0422661656      38.1205315
1.8518187           0.0395411902      33.1900916      0.964807809     -178.672272       0.96473466     -178.669981     0.0421784833      37.9660856
1.86090158           0.039487627      33.0546713      0.964801956     -178.688952      0.964735192     -178.686755     0.0420908881      37.8089141
1.870029              0.03943433      32.9186558      0.964796302     -178.705641      0.964735954     -178.703539     0.0420037124       37.650693
1.8792012           0.0393845409      32.7869202      0.964791936     -178.722049      0.964738036     -178.720043     0.0419209769      37.4961932
1.88841838          0.0393459709      32.6386396      0.964804657     -178.738649      0.964744617     -178.736851     0.0418451839      37.3475865
1.89768078          0.0393082669      32.4888701      0.964818497     -178.755272      0.964751664     -178.753688      0.041770091      37.1983166
1.9069886             0.03927094      32.3384546      0.964832647     -178.771906      0.964758985     -178.770538     0.0416954357      37.0481011
1.91634208          0.0392319737      32.1866213      0.964846405     -178.788594      0.964766691     -178.787431     0.0416220896      36.8959702
1.92574143          0.0391680354      32.0242985      0.964851628      -178.80582      0.964776008      -178.80474     0.0415599801      36.7307424
1.93518689          0.0391033096      31.8666565      0.964854047     -178.822887      0.964782542      -178.82189     0.0414975605      36.5706781
1.94467868          0.0390380532       31.712259      0.964854454      -178.83984      0.964787086     -178.838926     0.0414350248      36.4142044
1.95421702          0.0389819496      31.5632705       0.96485353       -178.8565      0.964788629     -178.855725     0.0413668415      36.2589929
1.96380214          0.0389504966      31.4308592      0.964848487     -178.872329      0.964781416     -178.871849     0.0412821853      36.1088043
1.97343428          0.0389194412      31.2979879      0.964843687     -178.888164      0.964774436     -178.887982     0.0411979553       35.957633
1.98311366          0.0388887941      31.1646632      0.964839137     -178.904006      0.964767694     -178.904123     0.0411141651      35.8054801
1.99284052          0.0388441421      31.0138081      0.964838935     -178.920733      0.964768891     -178.920595     0.0410358289      35.6532314
2.00261509          0.0387867977      30.8494905      0.964841477      -178.93817      0.964776037      -178.93728     0.0409622037      35.5035052
2.0124376            0.038729814      30.6842443      0.964844319     -178.955625      0.964783506      -178.95398     0.0408890399      35.3528097
2.02230829          0.0386732033      30.5180716      0.964847465     -178.973097      0.964791304     -178.970694     0.0408163511      35.2011465
2.03222739          0.0386493237      30.3683729      0.964862631     -178.989584      0.964795259     -178.987359     0.0407473493       35.040682
2.04219515          0.0386311979       30.220966      0.964880079      -179.00592      0.964798858     -179.004027     0.0406794126      34.8779328
2.05221179          0.0386138459       30.073389      0.964898039     -179.022249        0.9648029     -179.020689     0.0406123421       34.714488
2.06227756          0.0385878099      29.9284693      0.964909087     -179.038324      0.964806142     -179.036979     0.0405497481      34.5575143
2.07239271          0.0385289234      29.7837624      0.964896073     -179.054146      0.964803378     -179.052661     0.0404913872      34.4133114
2.08255747          0.0384703537      29.6382704      0.964883309     -179.069978      0.964800916     -179.068352     0.0404335656       34.268282
2.09277208          0.0384121123      29.4919958      0.964870803     -179.085822       0.96479876     -179.084054     0.0403762969      34.1224302
2.1030368           0.0383566078      29.3435962      0.964860276     -179.101709      0.964797439     -179.099777      0.040318599      33.9744086
2.11335186          0.0383208517      29.1836233      0.964863876      -179.11787      0.964800639     -179.115601     0.0402534544      33.8145993
2.12371752          0.0382841029      29.0280207      0.964864701     -179.133898      0.964801063      -179.13129     0.0401874871      33.6595149
2.13413402          0.0382475817      28.8724842      0.964865368     -179.149918      0.964801327     -179.146969      0.040121831      33.5043429
2.14460161          0.0382115288      28.7162288      0.964866368     -179.165951      0.964801922     -179.162659     0.0400567139      33.3482014
2.15512054          0.0381734827      28.5652137      0.964867651     -179.182114      0.964805777     -179.178754     0.0399943719      33.1904947
2.16569106          0.0381306724      28.4260274      0.964869163     -179.198535      0.964816135     -179.195685     0.0399372837      33.0305888
2.17631343          0.0380882622      28.2862108      0.964871029      -179.21497      0.964826891     -179.212635     0.0398808162      32.8697533
2.18698791          0.0380470351      28.1483865       0.96487313       -179.2313      0.964837924     -179.229481      0.039826013      32.7107497
2.19771474           0.038006651      28.0114562      0.964875515     -179.247575      0.964849284     -179.246275     0.0397724215      32.5524289
2.20849418           0.037968126      27.8656819      0.964878473     -179.263672      0.964847781     -179.262629     0.0397079976      32.3982365
2.2193265           0.0379308575       27.714689      0.964881918     -179.279676      0.964839298     -179.278745     0.0396378018      32.2458567
2.23021194           0.037894058      27.5629823      0.964885741     -179.295696      0.964831134     -179.294877     0.0395681317      32.0924866
2.24115078          0.0378577395      27.4105662      0.964889949     -179.311731      0.964823296     -179.311025     0.0394990014      31.9381278
2.25214327          0.0378222426      27.2620986      0.964893031     -179.327651      0.964815642     -179.327043      0.039431696      31.7873982
2.26318967          0.0378003609      27.1299392      0.964899069     -179.343266      0.964828756     -179.342576     0.0393892247      31.6471521
2.27429026          0.0377789656      26.9972655      0.964905515     -179.358897       0.96484231     -179.358123     0.0393473705      31.5061529
2.2854453           0.0377580679      26.8640831      0.964912376     -179.374543      0.964856312     -179.373686     0.0393061468      31.3644057
2.29665504          0.0377376791      26.7303979       0.96491966     -179.390204       0.96487077     -179.389264     0.0392655676      31.2219155
2.30791977           0.037713834      26.5873543      0.964921741     -179.406449       0.96488067     -179.405121     0.0392167028      31.0854627
2.31923975           0.037687642      26.4388681      0.964919889      -179.42306      0.964887089     -179.421136     0.0391622334      30.9540663
2.33061526          0.0376608029      26.2957603      0.964915438     -179.439498      0.964890956     -179.436976      0.039107296      30.8286614
2.34204656          0.0376344714      26.1520303       0.96491136     -179.455957      0.964895238     -179.452834     0.0390528875      30.7025371
2.35353393           0.037605105      26.0121457       0.96490815     -179.472138      0.964895999     -179.468743     0.0389976728      30.5702157
2.36507764          0.0375636382      25.8874253      0.964907059     -179.487279      0.964883201      -179.48479     0.0389382733      30.4176865
2.37667797          0.0375225812      25.7621275      0.964906373     -179.502433      0.964870751     -179.500856     0.0388794772      30.2642189
2.3883352           0.0374819451      25.6362559        0.9649061     -179.517601      0.964858658      -179.51694     0.0388212991      30.1098159
2.4000496           0.0374399804      25.5096439      0.964904602     -179.532837       0.96484528     -179.533096     0.0387617396      29.9544903
2.41182147          0.0374123415      25.3738943      0.964905751     -179.549145      0.964850302     -179.548965     0.0387213974      29.8013933
2.42365107          0.0373861751      25.2369608      0.964907483     -179.565547       0.96485703     -179.564832      0.038683046      29.6476778
2.4355387           0.0373605161      25.0994398      0.964909642     -179.581972      0.964864208     -179.580719     0.0386453953      29.4931302
2.44748463          0.0373353763      24.9613364      0.964912235      -179.59842      0.964871845     -179.596625     0.0386084598      29.3377558
2.45948915          0.0373056728      24.8131249      0.964917422     -179.614492      0.964879937     -179.612505     0.0385609362      29.1712769
2.47155256          0.0372737006      24.6688683      0.964920533     -179.630166      0.964885195     -179.628111      0.038509334       29.009118
2.48367513          0.0372417594      24.5276676      0.964922542     -179.645733      0.964889359      -179.64361     0.0384580218      28.8501547
2.49585717          0.0372103163      24.3857827      0.964924989     -179.661319       0.96489397     -179.659128     0.0384073547      28.6902115
2.50809895          0.0371772229        24.25898      0.964928472     -179.676878      0.964891082     -179.674825     0.0383630817      28.5451754
2.52040078          0.0371432807      24.1411099      0.964932772     -179.692428      0.964883824     -179.690637     0.0383229132      28.4089245
2.53276295           0.037109785      24.0227166      0.964937543     -179.707997      0.964876983     -179.706471     0.0382834063      28.2719486
2.54518575          0.0370759735       23.906073        0.9649414     -179.723521      0.964869172      -179.72226     0.0382437941      28.1368394
2.55766948          0.0370437487      23.7815197      0.964937263     -179.739116      0.964861896     -179.738025      0.038194483      27.9980609
2.57021445          0.0370134526      23.6493301      0.964928909     -179.754823      0.964856314     -179.753836     0.0381393101      27.8541699
2.58282094          0.0369836436      23.5165101      0.964920961     -179.770553      0.964851152     -179.769671     0.0380847219      27.7093707
2.59548927          0.0369543333      23.3830636      0.964913427     -179.786305      0.964846419     -179.785529     0.0380307324      27.5636658
2.60821973          0.0369262652      23.2400456      0.964912534     -179.802368      0.964847624     -179.801495     0.0379901097      27.4273645
2.62101264          0.0368992103      23.0921486      0.964915436     -179.818584      0.964852228     -179.817499     0.0379574725      27.2971725
2.63386829          0.0368728538      22.9468838      0.964918045     -179.834697      0.964856546     -179.833399     0.0379258081      27.1700027
2.646787            0.0368470359      22.8008966      0.964921123     -179.850837      0.964861339     -179.849325     0.0378947924      27.0421525
2.65976907          0.0368199812      22.6787029      0.964925186     -179.866261      0.964863124     -179.865006     0.0378525733      26.8912713
2.67281482          0.0367928379      22.5637339      0.964929899     -179.881471      0.964864274     -179.880626     0.0378072693      26.7323655
2.68592455          0.0367661722       22.448242      0.964935108     -179.896704      0.964865903      -179.89627     0.0377626582      26.5724923
2.69909858          0.0367399951      22.3322308      0.964940822      -179.91196       0.96486802     -179.911939     0.0377187549      26.4116555
2.71233724          0.0367224275      22.2042825      0.964935216     -179.927405      0.964862258     -179.927388     0.0376747176      26.2765808
2.72564082          0.0367059089      22.0750385      0.964929601     -179.942888      0.964856659     -179.942853     0.0376313522      26.1418357
2.73900966          0.0366899498      21.9452438      0.964924432     -179.958396      0.964851506     -179.958344     0.0375886068      26.0062977
2.75244407          0.0366691227      21.8161341      0.964920457     -179.974019      0.964847377     -179.973898      0.037546725      25.8681756
2.76594437          0.0366289871      21.6908868      0.964919651     -179.989992      0.964845797     -179.989616     0.0375063449      25.7226998
2.77951089           0.036589304      21.5649712      0.964919331      179.994008      0.964844698      179.994639     0.0374666529      25.5763891
2.79314395          0.0365527199      21.4423266      0.964921111      179.978191      0.964845693      179.979079     0.0374308148      25.4334025
2.80684388          0.0365352077      21.3216449      0.964928191      179.962482      0.964847596      179.963569     0.0373926258      25.2997734
2.82061101          0.0365329926      21.2014728      0.964939322      179.946795      0.964849861      179.948034     0.0373515874      25.1726157
2.83444566          0.0365313744      21.0808496      0.964950987      179.931079      0.964852617       179.93247     0.0373111484      25.0447093
2.84834816          0.0365303641      20.9597805      0.964963193      179.915335      0.964855873      179.916878     0.0372713215      24.9160572
2.86231886          0.0365033942      20.8393813      0.964963478       179.89947      0.964858316      179.900919     0.0372405412      24.8030343
2.87635808          0.0364730367      20.7187114      0.964961226      179.883529      0.964858944      179.884866     0.0372084495      24.6909392
2.89046616          0.0364409262      20.5976518      0.964957183      179.867514      0.964857797       179.86874      0.037174453      24.5786916
2.90464344          0.0364092593      20.4759313        0.9649536      179.851467      0.964857124       179.85258     0.0371410489      24.4658065
2.91889026          0.0363914216      20.3464755      0.964957085      179.835509      0.964861805      179.836712     0.0371093839      24.3225168
2.93320695          0.0363775829      20.2145903      0.964962778      179.819549      0.964868257      179.820896     0.0370787145      24.1707289
2.94759387          0.0363643273      20.0821037      0.964968997      179.803558      0.964875239      179.805048     0.0370487729      24.0180746
2.96205135          0.0363505999      19.9518293      0.964974007      179.787616      0.964881016      179.789251     0.0370184486      23.8677929
2.97657975          0.0363343085      19.8290317      0.964974536      179.771872      0.964882327      179.773652     0.0369855993      23.7257499
2.9911794           0.0363044479      19.7249011      0.964965999      179.756158      0.964876051      179.758017     0.0369478191      23.5798085
3.00585066          0.0362750154      19.6202299       0.96495791      179.740411      0.964870232       179.74235     0.0369106944      23.4329751
3.02059388          0.0362460211      19.5150201      0.964950277      179.724631      0.964864881      179.726651      0.036874239      23.2852525
3.03540942          0.0362174753      19.4092736       0.96494311      179.708818      0.964860004       179.71092     0.0368384665      23.1366442
3.05029762          0.0361929223      19.2984143      0.964939752       179.69293      0.964859497      179.695102     0.0368049936      22.9943258
3.06525885          0.0361739431      19.1822368      0.964940492      179.677046      0.964864221      179.679266     0.0367731623      22.8710611
3.08029346          0.0361554607      19.0654817      0.964941725      179.661127      0.964869456      179.663395     0.0367419448      22.7470797
3.09540181          0.0361374856      18.9481518      0.964943457      179.645173       0.96487521      179.647488     0.0367113537      22.6223849
3.11058427          0.0361200283      18.8302497      0.964945699      179.629183      0.964881492      179.631547     0.0366814016      22.4969797
3.12584119          0.0360968401      18.7085671      0.964941895       179.61406      0.964878116      179.616202     0.0366515262      22.3594373
3.14117295          0.0360721557       18.585219      0.964936468      179.599197      0.964871946       179.60103     0.0366221596      22.2174206
3.1565799           0.0360483916      18.4625286      0.964931636      179.584361      0.964866369      179.585883     0.0365939868      22.0760292
3.17206243          0.0360252157      18.3395154       0.96492729      179.569508      0.964861275      179.570718      0.036566603       21.934188
3.18762089          0.0360067865      18.2135365      0.964926059      179.554256      0.964859667      179.555227     0.0365399975      21.7912627
3.20325567          0.0359996924       18.081116      0.964932045      179.538038      0.964866225       179.53896     0.0365143592       21.646871
3.21896713           0.035993194      17.9480807      0.964938556       179.52178       0.96487331      179.522654     0.0364894157      21.5016498
3.23475565          0.0359873025      17.8144345      0.964945602      179.505483      0.964880933      179.506308     0.0364651803      21.3556032
3.25062162          0.0359791586      17.6840991      0.964949432      179.489235      0.964885344      179.490011      0.036438481       21.213323
3.2665654           0.0359566036      17.5611978      0.964944068      179.473319      0.964878204      179.474194     0.0364055989      21.0894582
3.28258739          0.0359332153      17.4381293      0.964938474      179.457394      0.964870578      179.458385     0.0363728617      20.9664585
3.29868796          0.0359103166      17.3143856      0.964933347      179.441431      0.964863408      179.442538     0.0363407213       20.842715
3.31486751          0.0358879178      17.1899686      0.964928696      179.425429      0.964856704      179.426652     0.0363091897      20.7182302
3.33112641          0.0358643309      17.0692155      0.964922302      179.409486      0.964850469      179.410819     0.0362827751      20.5935759
3.34746505          0.0358403068      16.9530522      0.964914587      179.393664      0.964844276      179.395103     0.0362599549       20.471479
3.36388384           0.035816973      16.8418652      0.964906375      179.378018      0.964837591      179.379563     0.0362381507      20.3550255
3.38038316          0.0357940845      16.7300531      0.964898607      179.362332      0.964831356      179.363984      0.036216958      20.2379081
3.3969634           0.0357763877      16.6206308      0.964893758      179.346464      0.964827836      179.348188     0.0361909579      20.1111668
3.41362497          0.0357656575      16.5147794      0.964892762       179.33036      0.964827886      179.332109     0.0361581587      19.9713657
3.43036826          0.0357554395      16.4084114      0.964892257      179.314214      0.964828436      179.315988     0.0361259929         19.8307
3.44719368          0.0357454932      16.3020147      0.964891899       179.29804      0.964829141      179.299839     0.0360941967      19.6897333
3.46410162          0.0357326944      16.1951915      0.964888406      179.281952      0.964824259      179.283846     0.0360629024      19.5597416
3.48109249          0.0357194668      16.0752628      0.964886593      179.265761      0.964815539      179.267906     0.0360391974      19.4407332
3.49816669          0.0357067532      15.9547101      0.964885259      179.249526      0.964807262      179.251922      0.036016097      19.3210309
3.51532465          0.0356945636      15.8335356      0.964884413      179.233246      0.964799438      179.235895     0.0359936128      19.2006373
3.53256676          0.0356829628      15.7130428      0.964883795      179.216994      0.964792914      179.219824      0.035970329      19.0771346
3.54989344          0.0356720433      15.5953409      0.964882981      179.200886      0.964789054      179.203706     0.0359439602      18.9465841
3.56730511          0.0356605588      15.4771145      0.964881527      179.184715      0.964784539      179.187527     0.0359169696      18.8153875
3.58480217           0.035649362      15.3582714      0.964880319      179.168495      0.964780254      179.171297     0.0358903305      18.6834018
3.60238506          0.0356330311      15.2465817      0.964877616       179.15209      0.964775552      179.154746     0.0358632999       18.553058
3.62005419          0.0356053224      15.1505871      0.964871261      179.135345      0.964769486      179.137571     0.0358347894      18.4270636
3.63780998          0.0355779911      15.0540122      0.964865358      179.118551      0.964763875      179.120344     0.0358068646      18.3002913
3.65565287          0.0355510456      14.9568568      0.964859914      179.101708      0.964758726      179.103066     0.0357795372      18.1727434
3.67358326          0.0355312026      14.8570477      0.964854752      179.085351      0.964751275       179.08649     0.0357518862      18.0581546
3.69160161          0.0355221016       14.750896      0.964852374      179.069533      0.964743353      179.070724     0.0357257439      17.9563871
3.70970833           0.035513481      14.6441897      0.964850454      179.053669      0.964735859      179.054911     0.0357001287      17.8539959
3.72790386            0.03550535      14.5369308         0.964849       179.03776      0.964728802      179.039054     0.0356750509      17.7509824
3.74618864          0.0354912084      14.4452625      0.964835293      179.021914      0.964716111      179.023489     0.0356551145      17.6446542
3.7645631           0.0354737947      14.3622987      0.964814756      179.006085      0.964700382      179.008073     0.0356383799      17.5361868
3.78302769          0.0354564549      14.2813261      0.964793804      178.990295      0.964684263        178.9927     0.0356218903      17.4299012
3.80158284          0.0354389094      14.2040932      0.964771829      178.974607      0.964667146      178.977429      0.035605342      17.3277945
3.82022901          0.0354647199      14.1157473      0.964800526      178.959734      0.964699189      178.961807      0.035611511      17.2041279
3.83896663          0.0354958958      14.0259291      0.964835395      178.944913      0.964737253      178.946105     0.0356208511      17.0775715
3.85779615          0.0355277123      13.9358287      0.964870903       178.93005      0.964775971      178.930356     0.0356309346       16.950447
3.87671803          0.0355478293      13.8325542      0.964899273      178.914316        0.9648059      178.913942     0.0356318526      16.8069514
3.89573272          0.0355274312        13.68601       0.96490226      178.895783      0.964804875      178.895429     0.0356005712      16.6101532
3.91484067          0.0355083445      13.5412137       0.96490607      178.877303      0.964804653      178.876968     0.0355709758      16.4150434
3.93404234          0.0354897452      13.3955529      0.964910334      178.858761      0.964804863      178.858445      0.035542107      16.2186611
3.9533382           0.0354700958      13.2586574      0.964904498      178.840829      0.964796548      178.840765     0.0355094112      16.0742335
3.9727287           0.0354499905      13.1267255      0.964892744      178.823242       0.96478326       178.82357     0.0354745054      15.9608538
3.9922143           0.0354303577      12.9939998      0.964881395      178.805597      0.964770369      178.806318     0.0354400855       15.846721
4.01179548          0.0354112072      12.8604808      0.964870458      178.787895      0.964757883      178.789011     0.0354061616      15.7318354
4.03147271          0.0353905613      12.7477866      0.964858962      178.770854      0.964749512      178.772145     0.0353741039       15.625443
4.05124644          0.0353728645      12.6525051      0.964852579      178.754412      0.964751347      178.755638     0.0353493395      15.5222223
4.07111716          0.0353555422      12.5566473      0.964846601      178.737917      0.964753627      178.739078     0.0353250576      15.4183518
4.09108535          0.0353386022      12.4602135      0.964841037      178.721369      0.964756362      178.722463     0.0353012679      15.3138328
4.11115148          0.0353220526      12.3632036      0.964835892      178.704766      0.964759557      178.705794     0.0352779799      15.2086663
4.13131602          0.0353053921      12.2631893      0.964831259      178.687837      0.964755484      178.689073     0.0352673841      15.0793348
4.15157948          0.0352867063      12.1654393      0.964824155      178.670844      0.964745469      178.672411     0.0352603265      14.9433699
4.17194232          0.0352672356      12.0691356      0.964815915      178.653853      0.964734304      178.655751     0.0352525847      14.8089988
4.19240503          0.0352481215      11.9722393       0.96480806      178.636804      0.964723511      178.639035     0.0352454591      14.6738839
4.21296812          0.0352294864      11.8745737      0.964800538      178.619701      0.964713038      178.622256     0.0352386474       14.538548
4.23363206          0.0352188572      11.7646155      0.964789385      178.602816      0.964698992      178.604935      0.035211683      14.4368677
4.25439735          0.0352086707      11.6540403      0.964778621      178.585874      0.964685319      178.587556     0.0351851914      14.3345402
4.2752645           0.0351998975       11.543925      0.964769074      178.568931      0.964672849      178.570173     0.0351602822      14.2327983
4.296234            0.0351928679      11.4346636      0.964761026      178.552007      0.964661863      178.552806     0.0351373324       14.132096
4.31730634          0.0351808828       11.334206        0.9647549      178.534826      0.964653082      178.535387     0.0351213664      14.0207391
4.33848205          0.0351624532      11.2450888      0.964751126      178.517337      0.964647015       178.51792     0.0351142073      13.8960404
4.35976162          0.0351443543      11.1554049      0.964747749      178.499785      0.964641332       178.50039      0.035107626      13.7706401
4.38114556           0.035126593      11.0651537      0.964744776      178.482172      0.964636041      178.482798     0.0351016323      13.6445411
4.40263438          0.0351085299      10.9760855      0.964741264      178.464552      0.964630199        178.4652       0.03509549      13.5197417
4.42422861          0.0351060414      10.8804679      0.964740804      178.447597       0.96462668      178.448865     0.0350822676      13.4066825
4.44592875          0.0351045591      10.7838667      0.964740968      178.430597      0.964623747      178.432508      0.035069407      13.2930635
4.46773533          0.0351034987      10.6867321      0.964741537      178.413537      0.964621204      178.416094     0.0350570593      13.1787672
4.48964886          0.0351028678      10.5890648      0.964742519      178.396416       0.96461906      178.399622     0.0350452338      13.0637954
4.51166988          0.0350981495      10.4866892      0.964736612      178.379125      0.964611613      178.382235     0.0350298162      12.9503609
4.53379891          0.0350907219      10.3808331      0.964726023      178.361695      0.964600586      178.364191     0.0350120501      12.8377737
4.55603647          0.0350817524      10.2750123      0.964713664      178.344198      0.964587784      178.346077     0.0349925378      12.7251993
4.57838311          0.0350730529      10.1686057      0.964701511      178.326636      0.964575186      178.327895     0.0349733543      12.6119525
4.60083936          0.0350648342      10.0590066      0.964689505      178.309178      0.964563542      178.310144     0.0349553563      12.4983703
4.62340575          0.0350572456      9.94290267      0.964677423      178.292037      0.964553668      178.293467     0.0349394876      12.3849449
4.64608282          0.0350500802      9.82613421      0.964665676      178.274834      0.964544141      178.276729     0.0349241044      12.2708307
4.66887112          0.0350433459      9.70870193      0.964654271      178.257569      0.964534967      178.259931     0.0349092156      12.1560293
4.6917712           0.0350352878      9.59723285      0.964642683      178.240315      0.964525265      178.243077     0.0348943772      12.0455106
4.71478359          0.0350250212      9.50597282      0.964644595      178.222501      0.964526113       178.22508     0.0348903246      11.9366259
4.73790886          0.0350150837      9.41415445      0.964646887      178.204619      0.964527337      178.207014     0.0348867755      11.8271252
4.76114755           0.035005482      9.32177751      0.964649567       178.18667      0.964528943      178.188881     0.0348837384      11.7170108
4.78450023          0.0349962225      9.22884179       0.96465264      178.168653      0.964530936      178.170679      0.034881222      11.6062847
4.80796745          0.0349875796      9.13041261       0.96464128      178.150776      0.964516677       178.15268     0.0348592496      11.4887728
4.83154976          0.0349788917      9.03526821      0.964629183      178.132975      0.964501657      178.134757      0.034837099      11.3749349
4.85524775          0.0349700764       8.9438598      0.964616297      178.115263      0.964485833      178.116922     0.0348147811      11.2652934
4.87906197          0.0349615821      8.85189161      0.964603702      178.097483      0.964470284      178.099018     0.0347928551      11.1549292
4.902993            0.0349538779      8.76561192      0.964593548      178.079438      0.964462902       178.08124     0.0347737322      11.0363016
4.92704141          0.0349465168      8.67905181       0.96458379      178.061316      0.964456154        178.0634     0.0347551381      10.9166248
4.95120777          0.0349394865      8.59196758      0.964574349      178.043124      0.964449736      178.045493     0.0347369876      10.7961935
4.97549266          0.0349322977      8.50432692      0.964564732      178.024857      0.964443107      178.027506      0.034718824      10.6751511
4.99989666          0.0349210314      8.40207672      0.964554653      178.006278          0.96443      178.008506     0.0347082414      10.5607524
5.02442036           0.034910077      8.29918948      0.964544862      177.987626      0.964417168      177.989432     0.0346981012      10.4456637
5.04906435          0.0348994405      8.19566462      0.964535365        177.9689      0.964404615      177.970282     0.0346884112      10.3298864
5.07382921          0.0348911698      8.09085275      0.964527758      177.950192      0.964394421      177.951168     0.0346814882      10.2130805
5.09871554          0.0348970162      7.98107111      0.964531198      177.932029      0.964398511      177.932729      0.034690618      10.0933403
5.12372393          0.0349032856      7.87072387      0.964535003      177.913795       0.96440297      177.914219     0.0347003113      9.97301403
5.14885499          0.0349079679      7.76661513      0.964536173      177.895723      0.964404794      177.895868     0.0347081503      9.85983221
5.17410931          0.0349087074      7.66420499      0.964534848        177.8774      0.964401272      177.877449     0.0347077037      9.75092714
5.1994875           0.0349007095      7.56596219      0.964527907      177.858628      0.964386117      177.858966     0.0346892106      9.65161612
5.22499016          0.0348930234      7.46712048      0.964521264      177.839781       0.96437122      177.840409     0.0346710822      9.55166343
5.25061791          0.0348856549      7.36767946      0.964514922      177.820859      0.964356583      177.821779     0.0346533255      9.45106932
5.27637136          0.0348811403      7.27180979      0.964504702      177.802056       0.96434854       177.80274     0.0346393635      9.34108751
5.30225113          0.0348786182      7.18202471      0.964491195      177.783454      0.964344676      177.783528      0.034628021      9.22847107
5.32825783          0.0348763564       7.0928358      0.964477743       177.76482      0.964340914       177.76428     0.0346170041      9.11646784
5.35439209          0.0348743958      7.00311079      0.964464532       177.74611      0.964337439      177.744953     0.0346063827      9.00377663
5.38065454          0.0348703371      6.91091907      0.964468105      177.726318      0.964332487      177.725957     0.0346024095      8.90023544
5.4070458           0.0348663576      6.81798999      0.964473538      177.706353      0.964327661      177.706922     0.0345994351      8.79700253
5.4335665           0.0348626838      6.72450002      0.964479316      177.686305      0.964323127      177.687809     0.0345968916      8.69317664
5.46021729          0.0348535632      6.63579416      0.964478932      177.666573      0.964316209      177.668608     0.0345925947       8.5886156
5.48699879          0.0348340015      6.55564095      0.964466927      177.647566      0.964306164      177.649225     0.0345863295      8.48005466
5.51391165          0.0348146364      6.47493653      0.964455165      177.628481      0.964296372      177.629763     0.0345804716      8.37085941
5.54095651          0.0347954726      6.39367942      0.964443652      177.609318      0.964286837      177.610221     0.0345750283      8.26103104
5.56813403          0.0347791281      6.31247335      0.964433264      177.590004      0.964277405      177.590605     0.0345703538      8.14897969
5.59544485           0.034776195      6.23380798      0.964427541      177.570243       0.96426743      177.570942     0.0345678742      8.02826217
5.62288962          0.0347729617      6.15634013      0.964421288      177.550457      0.964256906      177.551254     0.0345651445      7.90875421
5.650469            0.0347685565      6.08246086      0.964413307      177.530726      0.964244632      177.531621     0.0345610994      7.79313802
5.67818366          0.0347643867      6.00811588      0.964405562      177.510913      0.964232574      177.511907     0.0345574559      7.67685138
5.70603425          0.0347594544      5.92022294       0.96439584      177.491138      0.964219351      177.492186     0.0345521659      7.56665985
5.73402145           0.034753152      5.81021165      0.964382693      177.471479      0.964204064      177.472505     0.0345438696      7.46697391
5.76214591          0.0347471494      5.69954274      0.964369768      177.451738      0.964188988      177.452743     0.0345359354      7.36668712
5.79040833          0.0347414748       5.5883832      0.964357072      177.431921      0.964174131      177.432905     0.0345283905      7.26599458
5.81880936          0.0347364842      5.47944939      0.964344668      177.412135      0.964159557      177.413097      0.034521559      7.16804924
5.8473497           0.0347332558       5.3933532      0.964338026      177.392711      0.964151918      177.393458      0.034517713      7.07157476
5.87603003          0.0347309091      5.31682224      0.964334009      177.373398      0.964147408      177.373844     0.0345153604       6.9754204
5.90485103          0.0347288079      5.23981468      0.964330243      177.354003      0.964143147      177.354147     0.0345133767        6.878707
5.93381339          0.0347269565      5.16232999      0.964326733      177.334527       0.96413914      177.334368     0.0345117679      6.78143555
5.9629178           0.0347253049      5.08282547      0.964321965       177.31483        0.9641341      177.314429     0.0345084157      6.68183575
5.99216497          0.0347210245      4.99675008      0.964303787       177.29424      0.964117228      177.294029     0.0344877318      6.57441423
6.02155559          0.0347164112      4.91116512      0.964285066      177.273595      0.964099819      177.273576     0.0344666466      6.46740243
6.05109037          0.0347120242      4.82505379      0.964266503      177.252863      0.964082575      177.253035      0.034445833      6.35967969
6.08077001          0.0347078676      4.73841543      0.964248103      177.232041        0.9640655      177.232406     0.0344252967      6.25124524
6.11059523          0.0347017751      4.64932051      0.964237132      177.211235      0.964052635      177.211729     0.0344212242       6.1439535
6.14056673          0.0346947614       4.5586473      0.964230228      177.190394      0.964042115      177.190984     0.0344261214      6.03704897
6.17068524          0.0346885983      4.46970072      0.964223959      177.169558      0.964032212      177.170244     0.0344320523      5.93227071
6.20095147          0.0346830918       4.3818456       0.96421819      177.148699      0.964022791      177.149482     0.0344388164      5.82886952
6.23136616          0.0346770983      4.30399174      0.964216385      177.127142      0.964017436      177.127988     0.0344479446       5.7327742
6.26193002          0.0346694459      4.25341103      0.964224695      177.103889       0.96402249      177.104712     0.0344626567      5.65686155
6.2926438           0.0346619405      4.20247143      0.964233288      177.080533      0.964027809      177.081334      0.034477755      5.58054014
6.32350822          0.0346545851      4.15117203      0.964242167      177.057076      0.964033399      177.057853     0.0344932448      5.50381141
6.35452403          0.0346465735      4.10002437      0.964250429      177.033525      0.964038354      177.034279     0.0345081862      5.42717456
6.38569197          0.0346336476      4.00896602       0.96423561      177.012584      0.964028791      177.013289     0.0345023423      5.33445362
6.41701277          0.0346208587      3.91691009      0.964220735      176.991577      0.964019281      176.992235     0.0344966047      5.24100802
6.44848721          0.0346082454      3.82425261      0.964206017       176.97048      0.964009956      176.971089     0.0344911688      5.14700086
6.48011602          0.0345958116      3.73099204       0.96419146      176.949291      0.964000819      176.949851     0.0344860398      5.05243253
6.51189996          0.0345926538      3.62868475      0.964179847      176.927768      0.963987024       176.92829     0.0344850536      4.94886839
6.5438398           0.0345921542      3.52440055      0.964169084       176.90612      0.963972066      176.906606     0.0344854155      4.84347027
6.5759363            0.034592095      3.42639572         0.964158      176.884641      0.963956766       176.88509      0.034486044      4.74539477
6.60819023          0.0345922671      3.32781517      0.964147073      176.863067        0.9639416      176.863479     0.0344869891      4.64675812
6.64060235          0.0345889761       3.2382715      0.964136638      176.841529      0.963930118      176.841974     0.0344816296      4.54775947
6.67317346          0.0345841371      3.15272224      0.964126525      176.819957      0.963920472       176.82047     0.0344734306      4.44825837
6.70590432          0.0345794907      3.06663772       0.96411658      176.798291      0.963910997      176.798871     0.0344655154      4.34815437
6.73879572          0.0345750403      2.98001692      0.964106807       176.77653      0.963901695      176.777178     0.0344578893      4.24744756
6.77184844           0.034574819      2.89782285      0.964100567      176.754582      0.963894713      176.755122     0.0344568732      4.13694898
6.80506329          0.0345769832      2.81728947      0.964096378      176.732467      0.963889115      176.732803      0.034459651      4.02018427
6.83844105          0.0345793382       2.7362648      0.964092359      176.710252      0.963883681      176.710384     0.0344627693      3.90277271
6.87198252          0.0345818873      2.65474811      0.964088514       176.68794      0.963878414      176.687865     0.0344662336      3.78471511
6.90568851          0.0345814092       2.5662749      0.964080329      176.665558      0.963865151       176.66565      0.034471308      3.68123391
6.93955982          0.0345797019      2.47439908      0.964070303      176.643089      0.963848404      176.643515     0.0344772701      3.58393289
6.97359726          0.0345768172      2.38588186      0.964058605      176.620657      0.963829951      176.621418     0.0344817985      3.49039804
7.00780165           0.034573316       2.2990798      0.964045988      176.598203      0.963810547      176.599301     0.0344856118      3.39881762
7.04217381          0.0345706815      2.21570505      0.964024985       176.57593      0.963794121       176.57683     0.0344797088      3.29379274
7.07671456          0.0345683771      2.13272407      0.964002125      176.553623       0.96377846        176.5542     0.0344717961      3.18518621
7.11142472          0.0345662476      2.04923663      0.963979343      176.531216      0.963762913       176.53147     0.0344641558      3.07593013
7.14630514          0.0345643219      1.96524984       0.96395677      176.508708      0.963747516      176.508641     0.0344568114      2.96611778
7.18135663          0.0345655688      1.88236175      0.963950311      176.485944      0.963736351      176.486094      0.034451729      2.86821222
7.21658005           0.034566501      1.79985941      0.963943397      176.463106      0.963724708      176.463474     0.0344462884      2.77066005
7.25197624          0.0345676023      1.71686183       0.96393662      176.440167       0.96371318      176.440754     0.0344410903      2.67252259
7.28754603          0.0345665143      1.63104624      0.963928939       176.41722      0.963701936       176.41788     0.0344383216      2.57447018
7.32329029          0.0345592206      1.53842448      0.963918576      176.394429      0.963691262      176.394765     0.0344417081      2.47767007
7.35920987          0.0345520771      1.44522135      0.963908339      176.371535      0.963680713      176.371545     0.0344453855      2.38033389
7.39530563          0.0345451696      1.35204875      0.963898266      176.348563      0.963670325      176.348245     0.0344494189      2.28317759
7.43157844          0.0345401244      1.26356721      0.963883975      176.325406      0.963659223      176.325082     0.0344499045      2.19304294
7.46802915           0.034536074      1.17592005      0.963866767      176.302007      0.963647556      176.301892     0.0344478735      2.10493494
7.50465866          0.0345321638      1.08772765      0.963849635      176.278503      0.963635994      176.278596     0.0344460754      2.01630424
7.54146782          0.0345283966     0.998988725      0.963832581      176.254891      0.963624538      176.255196      0.034444514      1.92715084
7.57845753          0.0345455043     0.921694111      0.963829441      176.230726      0.963612799       176.23123     0.0344553662      1.80436707
7.61562866          0.0345629368     0.844046849      0.963826512      176.206449      0.963601164      176.207154      0.034466636      1.68081644
7.65298211          0.0345781497     0.770894961      0.963820718      176.182228      0.963586623      176.183134     0.0344751768      1.56185988
7.69051878          0.0345933649      0.69774953      0.963814798      176.157909      0.963571912      176.159019     0.0344837892      1.44271385
7.72823956           0.034594964     0.606182117      0.963801226      176.133836      0.963559454      176.135089     0.0344797328      1.34720352
7.76614535          0.0345943034     0.510908825      0.963786375      176.109715      0.963547469      176.111102     0.0344736126      1.25539238
7.80423707          0.0345938066     0.415078956      0.963771605      176.085484       0.96353558      176.087006     0.0344677023      1.16303171
7.84251561          0.0345934764     0.318691501      0.963756919      176.061143      0.963523789      176.062801     0.0344620058      1.07012125
7.88098191          0.0345926482     0.222865776      0.963741715      176.036732      0.963511628      176.038496     0.0344567172     0.976811252
7.91963688          0.0345867621     0.130844201      0.963723621      176.012387      0.963498564      176.013821     0.0344606359     0.871955515
7.95848145          0.0345809975    0.0382594689      0.963705581      175.987931      0.963485578      175.989032     0.0344648239     0.766531648
7.99751654          0.0345753569   -0.0548898603      0.963687596      175.963363      0.963472672       175.96413     0.0344692853     0.660540082
8.03674309          0.0345698428    -0.148605224      0.963669669      175.938683      0.963459848      175.939114     0.0344740242     0.553981296
8.07616205          0.0345679352    -0.241691379      0.963654828      175.913861      0.963445665      175.913991     0.0344774325     0.447571613
8.11577435          0.0345714854    -0.331194465      0.963644466      175.888962      0.963428811      175.888847     0.0344781003     0.344201844
8.15558093          0.0345748764    -0.418525846       0.96363365      175.864048      0.963411471      175.863687     0.0344784741     0.243262095
8.19558277          0.0345784101    -0.506357613      0.963622908      175.839019      0.963394173      175.838411     0.0344790749       0.1417494
8.23578081          0.0345820888    -0.594690562      0.963612241      175.813875      0.963376918      175.813019     0.0344799063    0.0396636933
8.27617601          0.0345871674    -0.681094126      0.963598636      175.788381      0.963362243      175.787484     0.0344819702   -0.0646229521
8.31676934          0.0345926887    -0.767419319      0.963584393      175.762715      0.963348217      175.761826     0.0344845103    -0.169862572
8.35756178          0.0345984459     -0.85351035      0.963570245      175.736958      0.963334287      175.736077      0.034487342    -0.274838911
8.3985543           0.0346046504     -0.93744743      0.963556275      175.711186      0.963320537      175.710313     0.0344905706    -0.377311334
8.43974788          0.0346119099      -1.0163253      0.963543761      175.685107      0.963309079      175.684375     0.0344945629    -0.478099533
8.48114351          0.0346210845     -1.08481074      0.963534057      175.658539      0.963302069      175.658213     0.0344998232    -0.575039735
8.52274217          0.0346303993     -1.15368307      0.963524433      175.631848      0.963295153      175.631929      0.034505327    -0.672499423
8.56454488          0.0346398563      -1.2229427      0.963514891      175.605034      0.963288331      175.605524     0.0345110778    -0.770478251
8.60655261          0.0346494572     -1.29259008      0.963505433      175.578096      0.963281606      175.578997     0.0345170792    -0.868975854
8.64876639          0.0346503553     -1.40150711      0.963482904      175.552078       0.96326822      175.552918     0.0345205178    -0.971381208
8.69118722          0.0346510846     -1.51265068       0.96345988       175.52598      0.963254644      175.526741     0.0345241122      -1.0745142
8.73381612          0.0346519737     -1.62441058      0.963436856      175.499762      0.963241115      175.500442     0.0345279388     -1.17820247
8.77665411          0.0346530251     -1.73678791      0.963413833      175.473422      0.963227635      175.474022     0.0345320011     -1.28244586
8.81970221          0.0346482999     -1.83163515      0.963401261      175.446592      0.963211184      175.447325      0.034537785     -1.38172041
8.86296145          0.0346408067     -1.91830278      0.963393783      175.419459      0.963193316      175.420431     0.0345445219     -1.47885589
8.90643288          0.0346353581      -2.0016774      0.963388225       175.39236      0.963177318      175.393572     0.0345534506      -1.5717103
8.95011752          0.0346306677     -2.08423011      0.963383391      175.365191      0.963161992      175.366643     0.0345632919     -1.66337623
8.99401643          0.0346353122     -2.16776835      0.963371159      175.338063      0.963145721      175.339573     0.0345729496     -1.76104382
9.03813066          0.0346502297     -2.25227696      0.963350776      175.310992      0.963128408      175.312358     0.0345823981     -1.86526767
9.08246126          0.0346653187     -2.33721658      0.963330402      175.283794      0.963111117      175.285016     0.0345921009      -1.9700221
9.1270093            0.034680581     -2.42258743      0.963310038      175.256471       0.96309385      175.257546     0.0346020612     -2.07530666
9.17177583          0.0346896262     -2.51029828       0.96329572      175.228935      0.963078985      175.229909     0.0346131832     -2.17819008
9.21676194          0.0346889235     -2.60302029       0.96329342      175.201086       0.96306974      175.202035      0.034627681     -2.27753687
9.2619687           0.0346883188     -2.69627481      0.963291208      175.173107      0.963060548      175.174031     0.0346424375     -2.37737129
9.30739719          0.0346878139     -2.79006317      0.963289084      175.144997      0.963051409      175.145896     0.0346574559     -2.47769271
9.3530485           0.0347114109     -2.95980167      0.963250415      175.123704       0.96300081      175.124596     0.0346779413     -2.65731669
9.39892373          0.0347842467     -3.28126973      0.963137918      175.116293      0.962866506      175.117215     0.0347098994     -2.99604814
9.44502396           0.034858294     -3.60285002      0.963024578      175.108854      0.962731253      175.109807     0.0347428871     -3.33580552
9.49135031          0.0349329665     -3.92433646      0.962909745      175.101393      0.962594399      175.102376     0.0347762219     -3.67649366
9.53790388          0.0349844687     -4.15498237      0.962832216      175.085932      0.962503168       175.08701      0.034799103      -3.9288524
9.58468579          0.0349959491     -4.23650188      0.962816612      175.057284      0.962487659      175.058567     0.0348030556     -4.03515457
9.63169716          0.0350075649     -4.31843453      0.962801027      175.028503       0.96247217       175.02999     0.0348072263     -4.14200855
9.67893911          0.0350193178     -4.40078063      0.962785463      174.999588      0.962456703       175.00128     0.0348116181     -4.24941422
9.72641277          0.0350314621     -4.48936947       0.96277049      174.970585       0.96243953      174.972339     0.0348186125     -4.35758698
9.77411929          0.0350461977     -4.57864878      0.962758182      174.941723      0.962422702      174.943394     0.0348302301     -4.45957422
9.8220598           0.0350610896     -4.66837089      0.962745901      174.912726      0.962405879      174.914313     0.0348420842     -4.56206318
9.87023545          0.0350761396      -4.7585361      0.962733647      174.883592      0.962389061      174.885096     0.0348541776     -4.66505344
9.91864739          0.0350826404     -4.84878619      0.962717511      174.854323      0.962371741      174.855823     0.0348667293     -4.76726372
9.96729679          0.0350853898     -4.93936706      0.962699648      174.824917        0.9623542       174.82645      0.034879621     -4.86939944
10.0161848          0.0350882408     -5.03044702      0.962681788      174.795372      0.962336665      174.796938     0.0348927599     -4.97202661
10.0653126          0.0350902376     -5.12139918      0.962662877       174.76571      0.962318082      174.767309      0.034904998     -5.07466034
10.1146814          0.0350966333     -5.21229941      0.962644511      174.736047      0.962299669      174.737531     0.0349225154     -5.17587255
10.1642923          0.0351033503     -5.30366021      0.962626174       174.70625      0.962281269      174.707613     0.0349405388     -5.27746695
10.2141465          0.0351101797     -5.39549994       0.96260783      174.676314       0.96226286      174.677554     0.0349588243     -5.37952506
10.2642453          0.0351181819     -5.48666489      0.962588998      174.646168      0.962244629      174.647346     0.0349736261     -5.48380415
10.3145898          0.0351289529     -5.57540299      0.962568953      174.615708      0.962226857      174.616977     0.0349792928     -5.59299502
10.3651812          0.0351403384     -5.66270143      0.962549338       174.58518      0.962209527      174.586541     0.0349855522      -5.7004521
10.4160208          0.0351522297     -5.74894549      0.962530054      174.554568      0.962192538      174.556022     0.0349923139     -5.80664073
10.4671097          0.0351619462     -5.84168023      0.962511795      174.523953      0.962174135      174.525416     0.0350018439     -5.91089085
10.5184493          0.0351707053     -5.93773994      0.962494013       174.49326      0.962155055      174.494693     0.0350127945     -6.01448963
10.5700406          0.0351795846     -6.03429306      0.962476218      174.462422      0.962135955      174.463826     0.0350239666     -6.11859437
10.621885           0.0351885859     -6.13134042      0.962458411      174.431438      0.962116837      174.432812     0.0350353631     -6.22320483
10.6739836          0.0351973366     -6.22581405      0.962440098      174.400099      0.962096408      174.401556     0.0350497544     -6.33253402
10.7263378          0.0352049299     -6.31906972      0.962420368      174.368388      0.962073856      174.370027     0.0350658238     -6.44737841
10.7789488          0.0352126264     -6.41279742      0.962400614      174.336527      0.962051267       174.33835     0.0350821597     -6.56274153
10.8318179          0.0352204274     -6.50699792      0.962380837      174.304517      0.962028642      174.306523     0.0350987651     -6.67862265
10.8849462          0.0352283342       -6.601672      0.962361039      174.272355      0.962005981      174.274546     0.0351156433     -6.79502098
10.9383352           0.035235311     -6.70180727      0.962341251      174.240357      0.961985554      174.242614     0.0351323243     -6.90203112
10.991986           0.0352421443     -6.80350337       0.96232153      174.208339      0.961965946      174.210623     0.0351491402     -7.00544169
11.0458999          0.0352500752     -6.89892972      0.962302602       174.17644      0.961947129      174.178749     0.0351666139     -7.10131076
11.1000783          0.0352581046     -6.99484453      0.962283642      174.144389      0.961928282      174.146725     0.0351843121     -7.19762322
11.1545224           0.035266068     -7.09106902      0.962264265      174.112161      0.961909105      174.114526     0.0352019129     -7.29528772
11.2092336          0.0352719269      -7.1854011      0.962239698      174.079435      0.961885908      174.081855     0.0352154433     -7.40548545
11.2642131           0.035277871     -7.28022395      0.962215073      174.046554       0.96186266       174.04903     0.0352292053     -7.51619794
11.3194623          0.0352839014     -7.37553862      0.962190392      174.013518      0.961839362      174.016049     0.0352432016     -7.62742486
11.3749825          0.0352896528     -7.46980859      0.962165209      173.980384      0.961815571      173.982971      0.035256849     -7.73751885
11.430775            0.035299676     -7.56398119      0.962141428      173.947518      0.961789789      173.950011      0.035271265      -7.8495929
11.4868411          0.0353141252     -7.65829623      0.962119159      173.914916      0.961762056      173.917161     0.0352865749     -7.96396937
11.5431822          0.0353287045     -7.75305326      0.962096847       173.88216      0.961734253      173.884155     0.0353021349     -8.07885756
11.5997997          0.0353434152     -7.84825272      0.962074492       173.84925       0.96170638      173.850993     0.0353179479     -8.19425688
11.6566949          0.0353581645     -7.94381233      0.962052138      173.816165      0.961678655      173.817667     0.0353341334     -8.31008011
11.7138692          0.0353683471     -8.03473223      0.962030715      173.782268      0.961659052      173.783939     0.0353543576     -8.42115626
11.7713238          0.0353781265     -8.12504608      0.962008684      173.748249      0.961638849      173.750092     0.0353741565     -8.53166463
11.8290603          0.0353879952     -8.21580333      0.961986603       173.71407      0.961618605      173.716084     0.0353942109     -8.64265041
11.88708            0.0353979543     -8.30700472      0.961964473      173.679727      0.961598322      173.681914     0.0354145235     -8.75411292
11.9453842           0.035406921     -8.40687755      0.961939905       173.64533      0.961574477      173.647577     0.0354347835     -8.85921496
12.0039744          0.0354153987     -8.51175451      0.961913964      173.610828      0.961548642      173.613073     0.0354551181     -8.96101467
12.062852           0.0354238712      -8.6168616      0.961887828      173.576173      0.961522613      173.578417     0.0354755362     -9.06296894
12.1220184          0.0354322595     -8.72201035      0.961861408      173.541372      0.961496299      173.543613     0.0354959263     -9.16488826
12.181475           0.0354429445     -8.82232293      0.961835725      173.506429      0.961470999      173.508642     0.0355166804     -9.26999673
12.2412232          0.0354576269     -8.91359749      0.961811413      173.471363      0.961447561      173.473501      0.035537905     -9.38044768
12.3012645          0.0354724198     -9.00528872      0.961787044      173.436131      0.961424069      173.438192      0.035559392     -9.49135822
12.3616002          0.0354873242     -9.09739702      0.961762616      173.400731      0.961400524      173.402716      0.035581144      -9.6027275
12.4222319          0.0355008526     -9.18987154      0.961738219      173.365116      0.961377644      173.367037     0.0356031269     -9.71239826
12.483161           0.0355069834     -9.28201911       0.96171439      173.329108      0.961358589      173.331029     0.0356253054     -9.81077918
12.5443889           0.035513175     -9.37463217      0.961690499      173.292929      0.961339496      173.294849     0.0356477216     -9.90957602
12.6059172          0.0355194283     -9.46771181      0.961666546      173.256577      0.961320364      173.258497     0.0356703779     -10.0087881
12.6677472          0.0355263451     -9.56135067      0.961642439      173.220058       0.96130094      173.221987     0.0356930322     -10.1088359
12.7298805          0.0355448778     -9.65718682      0.961616486      173.183475      0.961276594      173.185572     0.0357112436     -10.2173924
12.7923186          0.0355635372     -9.75344334      0.961590462      173.146718      0.961252185      173.148984     0.0357296924     -10.3264128
12.8550629          0.0355809836     -9.85039262      0.961562933      173.109772       0.96122628      173.112208     0.0357468924     -10.4366476
12.9181149          0.0355983554     -9.94777873      0.961535214      173.072655      0.961200121      173.075258     0.0357643058     -10.5475284
12.9814762          0.0356132449     -10.0447087      0.961510075      173.035674      0.961172585      173.038296     0.0357900356     -10.6639179
13.0451483           0.035628241     -10.1420718      0.961484867      172.998516       0.96114497      173.001159     0.0358160517     -10.7807589
13.1091327          0.0356433445     -10.2398685      0.961459591      172.961182      0.961117274      172.963844     0.0358423571     -10.8980504
13.1734309          0.0356584548     -10.3384732      0.961434098      172.923656      0.961089504      172.926339     0.0358687264     -11.0155437
13.2380445          0.0356723896     -10.4414974      0.961406533      172.885818       0.96106191       172.88854     0.0358920505     -11.1280479
13.302975           0.0356865332     -10.5442082       0.96137898       172.84783      0.961034328      172.850591      0.035915649     -11.2400955
13.368224           0.0357007792     -10.6473806      0.961351339      172.809661      0.961006658      172.812461     0.0359395053     -11.3525944
13.433793           0.0357156573     -10.7505842      0.961323588       172.77138      0.960978265      172.774168     0.0359638674     -11.4660377
13.4996837           0.035732981     -10.8523329      0.961295649      172.733229      0.960946967      172.735779     0.0359895834     -11.5821129
13.5658975          0.0357504196     -10.9545208      0.961267622      172.694896      0.960915565      172.697206     0.0360155765     -11.6986383
13.6324361          0.0357682265     -11.0556664      0.961239753      172.656439      0.960884305      172.658509     0.0360419284     -11.8138577
13.699301            0.035784654     -11.1569604      0.961212956      172.617871      0.960854875      172.619805     0.0360685886     -11.9236872
13.7664939          0.0357981691     -11.2615104      0.961187446      172.579106         0.960828      172.581076     0.0360953911     -12.0282034
13.8340164          0.0358117904     -11.3665279      0.961161868      172.540155      0.960801048      172.542163     0.0361224589     -12.1331189
13.90187            0.0358255186     -11.4720137       0.96113622      172.501019      0.960774021      172.503063     0.0361497945     -12.2384325
13.9700565          0.0358437479     -11.5777481      0.961105714      172.461766      0.960744205       172.46388     0.0361774444     -12.3617081
14.0385774          0.0358642203     -11.6831524      0.961072032      172.422391      0.960712383      172.424593     0.0362049409     -12.4947034
14.1074344          0.0358833168      -11.786248      0.961036571      172.382935       0.96067879      172.385227     0.0362306493     -12.6256702
14.1766292          0.0359025402     -11.8897695      0.961000985      172.343291      0.960645082      172.345672     0.0362566632     -12.7571295
14.2461633          0.0359194295     -11.9937044      0.960971978      172.303284      0.960608422      172.305715     0.0362775421     -12.8697667
14.3160385            0.03593636      -12.098078      0.960943084      172.263081      0.960571549       172.26556     0.0362985005      -12.982272
14.3862564          0.0359534061     -12.2028913      0.960914101      172.222685      0.960534549      172.225213     0.0363197033     -13.0952239
14.4568187          0.0359695976     -12.3050486      0.960884076      172.182081      0.960499959      172.184673     0.0363444043     -13.2092069
14.5277271          0.0359843013      -12.403515      0.960852422      172.141206      0.960469792      172.143888     0.0363753312     -13.3259925
14.5989833          0.0359990926     -12.5024682      0.960820667      172.100133      0.960439532      172.102905     0.0364065694     -13.4432608
14.670589            0.036013967     -12.6018486      0.960788805      172.058863      0.960409171      172.061726     0.0364381069     -13.5609456
14.7425459          0.0360293287     -12.7046477      0.960755561      172.017401      0.960377609       172.02033     0.0364689253     -13.6790604
14.8148558          0.0360462202     -12.8184482      0.960717699      171.975759      0.960342046      171.978663     0.0364964343     -13.7976544
14.8875203          0.0360632325     -12.9327205      0.960679701      171.933918      0.960306358      171.936796     0.0365242275     -13.9166831
14.9605412           0.036080851     -13.0463152      0.960642078      171.891923      0.960271057      171.894775     0.0365526754     -14.0346755
15.0339203          0.0360987791     -13.1599264      0.960604519      171.849746       0.96023583      171.852572     0.0365815502     -14.1525186
15.1076593          0.0361176507     -13.2699204      0.960569215      171.807445      0.960202675      171.810224     0.0366128452      -14.272417
15.18176            0.0361379655     -13.3737546      0.960537657      171.765069      0.960172961      171.767765     0.0366478995     -14.3953599
15.2562241          0.0361583899     -13.4780099       0.96050599      171.722489      0.960143148      171.725102     0.0366832775      -14.518713
15.3310535          0.0361789244     -13.5826869      0.960474217      171.679705      0.960113236      171.682235     0.0367189819     -14.6424749
15.4062499          0.0361998297     -13.6869502      0.960442609      171.636751        0.9600835      171.639197     0.0367551729     -14.7656125
15.4818151          0.0362205447     -13.7906877      0.960410102      171.593181      0.960053788      171.595651     0.0367873527     -14.8839284
15.557751           0.0362410626     -13.8948204      0.960376914      171.549167      0.960023889      171.551717      0.036817461     -15.0004972
15.6340593          0.0362616887     -13.9993702      0.960343616      171.504943      0.959993896      171.507574     0.0368478579     -15.1174738
15.7107419          0.0362824236     -14.1043377      0.960310207      171.460507      0.959963809      171.463218     0.0368785457     -15.2348569
15.7878006           0.036303446     -14.2097094      0.960276725      171.415878      0.959933416      171.418667      0.036909765     -15.3528036
15.8652372          0.0363287548     -14.3144668      0.960243489        171.3716      0.959896681      171.374373     0.0369468715     -15.4748491
15.9430537          0.0363524584     -14.4175855      0.960208268      171.327192      0.959857943      171.329949     0.0369820124     -15.5957562
16.0212519           0.036376279     -14.5210905      0.960172923      171.282571      0.959819064      171.285311     0.0370174694     -15.7170598
16.0998336          0.0364002168     -14.6249819      0.960137455      171.237736      0.959780045       171.24046     0.0370532449     -15.8387583
16.1788007          0.0364226832     -14.7339979      0.960099286      171.192636      0.959740962      171.195361     0.0370853232     -15.9613418
16.2581552          0.0364437969     -14.8478324      0.960058584      171.147273      0.959701811      171.150018     0.0371139707     -16.0848034
16.3378988          0.0364650268     -14.9620934      0.960017727      171.101693      0.959662513      171.104457     0.0371428993     -16.2086872
16.4180336          0.0364855283      -15.075517      0.959975804      171.055947      0.959622156       171.05873     0.0371709396     -16.3319554
16.4985615          0.0365064159     -15.1897624      0.959933582       171.01002      0.959581935      171.012802      0.037199933     -16.4555872
16.5794843          0.0365298648     -15.3079922      0.959889862      170.964216      0.959544127       170.96682     0.0372352987     -16.5790372
16.6608041          0.0365534564     -15.4266544      0.959845981      170.918193      0.959506188      170.920616     0.0372709879     -16.7028783
16.7425227          0.0365771915     -15.5457493      0.959801941      170.871949      0.959468118      170.874191     0.0373070032     -16.8271088
16.8246421          0.0366010707     -15.6652766      0.959757741      170.825484      0.959429917      170.827544      0.037343347      -16.951727
16.9071643          0.0366301163     -15.7848229      0.959719157      170.779168      0.959390972      170.781321     0.0373828527     -17.0784884
16.9900913          0.0366608103     -15.9046598      0.959682137       170.73274      0.959351706      170.735067     0.0374235398     -17.2061469
17.073425           0.0366916723     -16.0249103       0.95964498      170.686088       0.95931229      170.688591     0.0374645727     -17.3341909
17.1571674          0.0367227029     -16.1455743      0.959607683      170.639213      0.959272724      170.641891     0.0375059538     -17.4626187
17.2413206          0.0367505731     -16.2624293      0.959570908      170.591832      0.959235091      170.594561     0.0375453555     -17.5954599
17.3258866          0.0367756931      -16.376051      0.959534568      170.543981      0.959199124      170.546649     0.0375830898      -17.732204
17.4108673          0.0367997093     -16.4891292      0.959496783      170.495941      0.959161713      170.498548     0.0376196202      -17.868856
17.4962649          0.0368227708     -16.6017836      0.959457711      170.447705      0.959123019      170.450251     0.0376551365     -18.0054884
17.5820813          0.0368471598     -16.7164803      0.959416151      170.399192      0.959083534      170.401786     0.0376941593     -18.1361449
17.6683186          0.0368736166     -16.8341812       0.95937069      170.350371      0.959042869      170.353188      0.037738574     -18.2569584
17.7549789          0.0369002083     -16.9522953      0.959325057      170.301316      0.959002056      170.304356     0.0377833372       -18.37811
17.8420643          0.0369269349     -17.0708225      0.959279251      170.252025      0.958961094       170.25529     0.0378284512      -18.499598
17.9295768          0.0369534208     -17.1902781      0.959233589      170.202524      0.958919468       170.20593        0.0378726     -18.6261241
18.0175185          0.0369791604     -17.3113861      0.959188358      170.152837      0.958876504      170.156201     0.0379142275     -18.7633027
18.1058916          0.0370050298     -17.4329144      0.959142956      170.102912      0.958833381      170.106234     0.0379562265     -18.9008747
18.1946981           0.037031029     -17.5548629      0.959097383      170.052747      0.958790098      170.056026     0.0379985997     -19.0388383
18.2839403          0.0370576169     -17.6778181      0.959052752      170.002381      0.958746182      170.005606     0.0380417143     -19.1772207
18.3736201          0.0370852775     -17.8023893       0.95901023      169.951856      0.958701135      169.955003     0.0380859551      -19.316046
18.4637398          0.0371131115     -17.9271723      0.958967589      169.901096      0.958655958      169.904164     0.0381305761      -19.455008
18.5543015          0.0371415736     -18.0491642      0.958925349      169.850226      0.958611168      169.853215     0.0381754749     -19.5906202
18.6453074          0.0371678988     -18.1670758      0.958880999      169.798801      0.958567966      169.801826     0.0382229013     -19.7179139
18.7367597          0.0371911421     -18.2791073      0.958833744      169.746693      0.958527069      169.749915     0.0382737034     -19.8333665
18.8286606          0.0372144682     -18.3915397      0.958786311      169.694335      0.958486024      169.697755     0.0383248661     -19.9491121
18.9210122          0.0372378767     -18.5043734      0.958738698      169.641725      0.958444831      169.645344     0.0383763916     -20.0651486
19.0138167          0.0372645751      -18.627719      0.958692828      169.589104      0.958401109      169.592709     0.0384280364     -20.1944272
19.1070765          0.0372934929     -18.7576253      0.958647928       169.53646      0.958355219      169.539894     0.0384793552     -20.3322672
19.2007937          0.0373225041      -18.887694      0.958602803      169.483573      0.958309099      169.486837     0.0385309645     -20.4701834
19.2949705          0.0373516638     -19.0181899      0.958557508      169.430433      0.958262805      169.433524     0.0385829834     -20.6084332
19.3896093          0.0373852091     -19.1453597       0.95850945      169.377487      0.958213991      169.380428     0.0386296677     -20.7399774
19.4847123          0.0374199113     -19.2720352      0.958460601      169.324393      0.958164442      169.327189     0.0386753729     -20.8702146
19.5802817          0.0374547792     -19.3990913      0.958411567      169.271044      0.958114705      169.273693     0.0387214429      -21.000793
19.6763199          0.0374892303     -19.5268099      0.958361864      169.217511      0.958064146      169.220052     0.0387685767     -21.1341423
19.7728291          0.0375231142     -19.6585638      0.958312308      169.164248      0.958012522      169.166996      0.038826457     -21.2869504
19.8698117          0.0375571669     -19.7907174      0.958262556      169.110728      0.957960691      169.113684     0.0388848097     -21.4400883
19.96727            0.0375913886     -19.9232701      0.958212607      169.056951      0.957908654      169.060116     0.0389436375     -21.5935529
20.0652063          0.0376249227     -20.0539358      0.958161597      169.002523      0.957857043      169.005743     0.0389979188     -21.7440035
20.163623           0.0376576651     -20.1824843      0.958109435        168.9474      0.957805928      168.950505     0.0390471078     -21.8911407
20.2625224          0.0376909593      -20.311418      0.958057509      168.892012      0.957755054         168.895     0.0390971614      -22.038428
20.3619068          0.0377251549     -20.4407305      0.958006196      168.836357      0.957704798      168.839228     0.0391484689     -22.1856769
20.4617788          0.0377616451     -20.5735423      0.957957215      168.780474      0.957655042      168.783457     0.0392062533     -22.3247437
20.5621405          0.0377985239      -20.707064      0.957908309      168.724326      0.957605165      168.727446     0.0392650966     -22.4632216
20.6629946          0.0378355693     -20.8409722      0.957859213      168.667907      0.957555094      168.671165     0.0393243729      -22.601991
20.7643433          0.0378727811     -20.9752663      0.957809929      168.611217      0.957504829      168.614613     0.0393840845     -22.7410492
20.8661891          0.0379094265     -21.1080596      0.957759143      168.554332      0.957451869      168.557732     0.0394420866      -22.882157
20.9685345          0.0379438792     -21.2367377      0.957705547      168.497369      0.957395716      168.500731     0.0394965779     -23.0210485
21.0713818           0.037978475     -21.3657849      0.957651744      168.440131      0.957339342      168.443455       0.03955148     -23.1602503
21.1747336          0.0380132135     -21.4952008      0.957597733      168.382618      0.957282749      168.385903      0.039606795     -23.2997597
21.2785923          0.0380480942     -21.6249844      0.957543515      168.324828      0.957225934      168.328074     0.0396625251     -23.4395741
21.3829605          0.0380799724     -21.7588293      0.957488774      168.267059      0.957170698      168.270104     0.0397209666     -23.5805573
21.4878405           0.038111903     -21.8931728      0.957433814      168.209019      0.957115297      168.211859     0.0397799024     -23.7218537
21.593235           0.0381439559     -22.0303896      0.957378567      168.150594      0.957059605      168.153228     0.0398398609     -23.8660715
21.6991464          0.0381761414     -22.1683602      0.957323092      168.091872      0.957003683      168.094299     0.0399003458     -24.0109477
21.8055772          0.0382093651     -22.3065043      0.957266427      168.032601      0.956948749      168.034968     0.0399607329     -24.1531161
21.9125302          0.0382448835     -22.4444833      0.957207219      167.972406      0.956896488      167.975069     0.0400202494     -24.2884247
22.0200076          0.0382805451     -22.5828478      0.957147777      167.911921      0.956844028      167.914882     0.0400801824     -24.4240052
22.1280123          0.0383163491     -22.7215972        0.9570881      167.851145      0.956791367      167.854405     0.0401405338     -24.5598547
22.2365467          0.0383527152      -22.859285       0.95702868      167.790138      0.956738999      167.793699     0.0402014035      -24.694219
22.3456134          0.0383894215     -22.9961807      0.956970021      167.729384      0.956680134      167.733021     0.0402623698     -24.8408931
22.4552151            0.03842625     -23.1333134      0.956911401      167.668535      0.956618496      167.672162     0.0403236418     -24.9928734
22.5653544          0.0384632119     -23.2708214      0.956852542      167.607393      0.956556603       167.61101     0.0403853698     -25.1451528
22.6760339          0.0385003062     -23.4087038      0.956793442      167.545957      0.956494455      167.549563     0.0404475555     -25.2977284
22.7872563          0.0385384827     -23.5477243       0.95673371       167.48426      0.956432782      167.487861     0.0405124152     -25.4509084
22.8990242          0.0385790613     -23.6881499      0.956671928      167.422427      0.956372439      167.426041     0.0405834385     -25.6042971
23.0113403          0.0386188888     -23.8270609      0.956608974       167.36038      0.956310928      167.364008     0.0406534771     -25.7564674
23.1242072          0.0386588686      -23.966321      0.956545765      167.298035      0.956249169      167.301675     0.0407240101      -25.908879
23.2376278          0.0386989996     -24.1059287      0.956482299       167.23539      0.956187161      167.239043     0.0407950393     -26.0615283
23.3516047          0.0387380263     -24.2496375      0.956417205      167.172739      0.956124292      167.176237     0.0408634549     -26.2114957
23.4661406          0.0387770237     -24.3942643      0.956351645       167.10983      0.956061078      167.113148     0.0409318895     -26.3612782
23.5812383          0.0388160477     -24.5388062      0.956285694      167.046638      0.955997486      167.049775     0.0410005389      -26.510907
23.6969006          0.0388545843     -24.6814715      0.956218857      166.983242      0.955933022      166.986198     0.0410683507      -26.658805
23.8131301          0.0388971652     -24.8219081      0.956155477      166.919357       0.95587027      166.922209     0.0411373488     -26.8075853
23.9299298          0.0389426608      -24.960832      0.956094485      166.855032      0.955808665      166.857839     0.0412073292      -26.957054
24.0473023          0.0389883193     -25.1000581      0.956033251      166.790398      0.955746815      166.793158     0.0412777865      -27.106754
24.1652505          0.0390341393     -25.2395851      0.955971776      166.725452      0.955684719      166.728166     0.0413487221     -27.2566826
24.2837772          0.0390827311     -25.3823516      0.955907777      166.660189      0.955621694      166.662907     0.0414174045     -27.4059803
24.4028853          0.0391540351     -25.5355178      0.955859607        166.5943      0.955577017      166.597105     0.0415039464      -27.549414
24.5225776           0.039227011     -25.6893495       0.95581272       166.52807      0.955533638      166.530962      0.041592642     -27.6926229
24.642857           0.0393002908     -25.8434361      0.955765651       166.46152      0.955490096      166.464501     0.0416818789      -27.835954
24.7637263          0.0393707644     -25.9989192      0.955719083      166.394691      0.955444938      166.397785     0.0417744812     -27.9817407
24.8851884          0.0394333201     -26.1577178      0.955674137      166.327646      0.955395769      166.330926      0.041875113     -28.1337716
25.0072464          0.0394961352     -26.3168479      0.955629017      166.260278      0.955346406      166.263743     0.0419763622     -28.2858692
25.1299029          0.0395466348     -26.4753799      0.955570167      166.192671      0.955283296      166.196323     0.0420642044     -28.4442688
25.2531611          0.0395944083      -26.629132      0.955505407      166.124798      0.955215333      166.128614     0.0421464904     -28.6069201
25.3770239          0.0396505578     -26.7684562      0.955441389      166.056664      0.955151464      166.060572     0.0422295627     -28.7739084
25.5014942          0.0397068618     -26.9080234      0.955377097      165.988202      0.955087321      165.992203     0.0423131939     -28.9410816
25.626575           0.0397633173     -27.0478315      0.955312529       165.91941      0.955022903      165.923504     0.0423973844     -29.1084361
25.7522693          0.0398163261     -27.1950572      0.955246897      165.850301      0.954956851      165.854429     0.0424829694     -29.2730336
25.8785801          0.0398598609      -27.360614      0.955178176      165.780881      0.954886301      165.784895     0.0425704037     -29.4313908
26.0055104          0.0399026236     -27.5269563      0.955108131      165.711111      0.954814421       165.71501      0.042657494     -29.5908641
26.1330633          0.0399455464     -27.6936647      0.955037792      165.641006      0.954742236       165.64479     0.0427451372      -29.750479
26.2612419          0.0399918068     -27.8616226      0.954965769      165.570626      0.954670842      165.574337     0.0428323372     -29.9073488
26.3900491          0.0400428301     -28.0311819      0.954891439      165.499998      0.954600725      165.503695      0.042918635     -30.0602087
26.5194881           0.040094054     -28.2010522      0.954816791       165.42903      0.954530312      165.432713     0.0430054528     -30.2132042
26.649562           0.0401456519     -28.3708954       0.95474203      165.357736      0.954459805      165.361405     0.0430928772     -30.3658872
26.7802739          0.0401982482      -28.535929       0.95466914      165.286069      0.954384299      165.289741     0.0431843131      -30.529237
26.9116269          0.0402511365     -28.6986622      0.954596895      165.214003      0.954304883       165.21769     0.0432784226     -30.7006599
27.0436242          0.0403041888     -28.8616695      0.954524329      165.141592      0.954225111      165.145292     0.0433731255     -30.8721907
27.1762689          0.0403574017     -29.0249481       0.95445144      165.068832      0.954144981      165.072548      0.043468421     -31.0438253
27.3095642          0.0404123733     -29.1889542      0.954378277      164.995973      0.954069021      164.999607     0.0435579518     -31.2123547
27.4435133          0.0404677564     -29.3532893      0.954304795      164.922803      0.953993421      164.926339     0.0436470479     -31.3805202
27.5781194          0.0405231421     -29.5202611      0.954230685      164.849174      0.953917183      164.852611     0.0437372832     -31.5513007
27.7133857          0.0405793089     -29.6868184      0.954156342      164.775157      0.953841817        164.7785     0.0438280063     -31.7234115
27.8493155          0.0406381688     -29.8507285      0.954082077      164.700656      0.953771109      164.703917     0.0439189695     -31.9004522
27.985912           0.0406971864     -30.0148527      0.954007479      164.625798      0.953700084      164.628977     0.0440105036     -32.0776059
28.1231784           0.040756357     -30.1791878      0.953932544      164.550582       0.95362874      164.553678     0.0441026063     -32.2548686
28.2611182           0.040815707      -30.348921      0.953858362      164.475013      0.953559611      164.478208     0.0441971077     -32.4308826
28.3997345          0.0408754453     -30.5181432      0.953785058      164.399287      0.953492385      164.402708     0.0442922105     -32.6016179
28.5390307           0.040935418     -30.6861139      0.953711573      164.323267      0.953425008      164.326915     0.0443874375     -32.7709397
28.6790101          0.0409955529     -30.8542903      0.953637748      164.246884      0.953357321      164.250759     0.0444831999      -32.940344
28.8196761          0.0410560178     -31.0229807      0.953563283      164.170252      0.953289082      164.174226     0.0445766224     -33.1102603
28.9610321          0.0411168528     -31.1922565      0.953488101      164.093399      0.953220228      164.097311     0.0446669925     -33.2808152
29.1030814          0.0411778388     -31.3617297      0.953412563      164.016179      0.953151048      164.020028     0.0447578623     -33.4514805
29.2458274          0.0412389963     -31.5334489      0.953336567      163.938494      0.953081442      163.942279     0.0448499668      -33.624267
29.3892735          0.0413003335     -31.7073193      0.953260125      163.860346      0.953011421      163.864067     0.0449432981     -33.7990657
29.5334233          0.0413623782     -31.8803157      0.953183356      163.781966      0.952935621      163.785569      0.045045757     -33.9728438
29.67828            0.0414248554     -32.0529316       0.95310624      163.703287      0.952856631       163.70674      0.045153242     -34.1460688
29.8238473           0.041487471     -32.2257087      0.953028757      163.624232      0.952777265      163.627535     0.0452613019     -34.3192943
29.9701286          0.0415502178     -32.3986449      0.952950901      163.544799      0.952697517      163.547953     0.0453699326     -34.4925199
30.1171273          0.0416130216     -32.5717514      0.952872595      163.464987      0.952617308       163.46799     0.0454790629      -34.665799
30.264847           0.0416793006     -32.7545424      0.952787656      163.384756      0.952535046      163.387709     0.0455883561     -34.8457801
30.4132913          0.0417458391     -32.9376555      0.952702202      163.304141      0.952452372      163.307047     0.0456982471     -35.0258636
30.5624637          0.0418125608     -33.1209002      0.952616347      163.223142       0.95236931         163.226     0.0458087355     -35.2059189
30.7123678          0.0418794579      -33.304274      0.952530083      163.141758      0.952285853      163.144567     0.0459198163     -35.3859452
30.8630071          0.0419466034     -33.4854913      0.952444603      163.059919       0.95220121      163.062726     0.0460317023     -35.5638368
31.0143852          0.0420140254      -33.663391      0.952360484      162.977599      0.952115034      162.980472     0.0461444517     -35.7385162
31.1665059          0.0420819979     -33.8384991      0.952276613      162.895023      0.952029095      162.897962     0.0462571302     -35.9100829
31.3193727          0.0421501291     -34.0137054      0.952192367      162.812054      0.951942773      162.815059     0.0463703885     -36.0815929
31.4729892          0.0422184109     -34.1890062      0.952107741       162.72869       0.95185606      162.731761     0.0464842206     -36.2530445
31.6273593           0.042288203     -34.3628004      0.952020361      162.645107      0.951768255      162.648319     0.0465983954     -36.4365528
31.7824865          0.0423582294     -34.5365583      0.951932404       162.56114      0.951679991      162.564497     0.0467131587     -36.6208569
31.9383745          0.0424283843     -34.7103893      0.951844032      162.476773      0.951591309      162.480277     0.0468285212     -36.8051011
32.0950272          0.0424983734     -34.8859719      0.951754803      162.391925      0.951501768      162.395577      0.046944825     -36.9910834
32.2524482          0.0425682178     -35.0710543      0.951665046      162.306676      0.951413066      162.310381     0.0470644423     -37.1694541
32.4106414          0.0426380824     -35.2634025      0.951574881      162.221038      0.951325053      162.224723     0.0471867444     -37.3413613
32.5696105          0.0427081627     -35.4558416      0.951484334      162.134993      0.951236669      162.138657     0.0473096713     -37.5131419
32.7293593          0.0427784501      -35.648365        0.9513934      162.048538      0.951147908      162.052181     0.0474332154     -37.6847925
32.8898916          0.0428501324     -35.8391491      0.951303302      161.961758      0.951058974      161.965396     0.0475565966     -37.8599648
33.0512113          0.0429237699     -36.0267057      0.951214426      161.874727       0.95096852      161.878402     0.0476776305     -38.0473124
33.2133223          0.0429964934     -36.2155645      0.951123876      161.787227      0.950876385      161.790939     0.0477986597     -38.2364428
33.3762284          0.0430694275     -36.4044747      0.951032973       161.69931      0.950783887       161.70306     0.0479203831     -38.4254389
33.5399335          0.0431422482     -36.5939079      0.950941066      161.610968      0.950690529      161.614746     0.0480430707     -38.6144562
33.7044415          0.0432112722     -36.7894672      0.950840637      161.522128       0.95059054      161.525817     0.0481699596     -38.8053688
33.8697565          0.0432804878     -36.9850869      0.950739791      161.432866      0.950490136      161.436465     0.0482975481     -38.9961046
34.0358823          0.0433516294     -37.1806606      0.950640422      161.343173       0.95039121      161.346682     0.0484276247     -39.1854404
34.2028229          0.0434265745     -37.3761037      0.950544572      161.253038      0.950295807      161.256456     0.0485621311     -39.3720764
34.3705823          0.0435099548     -37.5732518      0.950456846       161.16259      0.950207286      161.165977     0.0487002931     -39.5510931
34.5391646          0.0435939474     -37.7704774      0.950369146      161.071716      0.950118735      161.075073     0.0488393049     -39.7295788
34.7085738           0.043678205      -37.967702      0.950281116      160.980408       0.95002985      160.983736     0.0489790379     -39.9078334
34.8788138          0.0437627192     -38.1649158      0.950192751      160.888665      0.949940626      160.891964     0.0491194839     -40.0858497
35.0498889          0.0438493052     -38.3556667      0.950099608      160.796702      0.949852053      160.799831     0.0492570105     -40.2757441
35.221803           0.0439319603     -38.5454431      0.950001133      160.704371      0.949758594      160.707317     0.0493902949     -40.4687286
35.3945604          0.0440148269     -38.7352218      0.949902276      160.611598      0.949664775      160.614361     0.0495243279     -40.6615339
35.5681651          0.0440978977     -38.9249937      0.949803031      160.518381      0.949570595       160.52096     0.0496591033     -40.8541517
35.7426214          0.0441776539      -39.127023      0.949702175      160.424735      0.949467687      160.427369     0.0497978732     -41.0441848
35.9179333          0.0442575435     -39.3293884      0.949600885      160.330642      0.949364144      160.333339     0.0499374663     -41.2339364
36.094105           0.0443376513     -39.5317553      0.949499187      160.236101      0.949260183      160.238861      0.050077788     -41.4234626
36.2711409          0.0444175198     -39.7351351      0.949396921      160.141039      0.949155672       160.14386     0.0502189704     -41.6145698
36.4490451           0.044498186     -39.9354175       0.94929927      160.045471      0.949056024      160.048342     0.0503616106      -41.807687
36.6278219           0.044579047      -40.135729      0.949201234      159.949446      0.948955981      159.952366     0.0505050198     -42.0005946
36.8074756          0.0446600954     -40.3360616      0.949102811      159.852962      0.948855541       159.85593     0.0506491923     -42.1932854
36.9880104            0.04474243     -40.5354359      0.949002347       159.75607      0.948753707      159.759085     0.0507933629     -42.3868406
37.1694308          0.0448276692     -40.7323965      0.948897404      159.658849       0.94864901      159.661905     0.0509364133     -42.5828532
37.351741           0.0449130913     -40.9297201       0.94879201      159.561143      0.948543861      159.564239     0.0510804102     -42.7789937
37.5349453          0.0449986859     -41.1272939      0.948686166      159.462955      0.948438265      159.466092      0.051225299      -42.975159
37.7190483          0.0450838118     -41.3354894      0.948582512      159.364321      0.948332797      159.367441     0.0513753051     -43.1660266
37.9040543          0.0451686439     -41.5523457       0.94848057      159.265235      0.948227351      159.268289     0.0515296174     -43.3525221
38.0899677          0.0452537033     -41.7692252      0.948378207      159.165673      0.948121467      159.168662     0.0516846953      -43.538786
38.2767929          0.0453389827     -41.9861206      0.948275421      159.065634      0.948015142      159.068556     0.0518405336     -43.7248126
38.4645345          0.0454268556     -42.1893109      0.948168471      158.965158      0.947907744      158.968268       0.05199307     -43.9281055
38.653197           0.0455135965     -42.3906223      0.948058823       158.86422      0.947798066      158.867551     0.0521442091     -44.1345746
38.8427848           0.045600475     -42.5919337       0.94794871      158.762795      0.947687923      158.766349     0.0522961702     -44.3408365
39.0333025          0.0456870037     -42.7962357      0.947838687       158.66097      0.947577638      158.664708     0.0524493599     -44.5445012
39.2247547          0.0457724222      -43.008396      0.947729661      158.558883      0.947467744      158.562703     0.0526044226     -44.7416997
39.4171459          0.0458579961     -43.2205618      0.947620173      158.456306      0.947357382      158.460207     0.0527602699     -44.9386772
39.6104808          0.0459440435      -43.432963      0.947510547       158.35322      0.947246878      158.357203     0.0529173479      -45.135421
39.8047639          0.0460327065     -43.6481194      0.947402365       158.24954      0.947137693      158.253574     0.0530779686     -45.3329878
40                  0.0461250474     -43.8720937      0.947293434      158.145309      0.947026954      158.149184     0.0532398273     -45.5374928
