! TOUCHSTONE file generated by CST DESIGN STUDIO
! Date and time: Tue May 12 12:13:23 2026
! Project name: C:\sim_local\10base-t1m\passive_node_simulations_nostub.cst
! Tree item: Tasks\SPara1\S-Parameters
! Header version: 2024
! Port assignment regex: !\s*Touchstone port\s*([0-9]+)\s*=\s*(CST MWS port|CST DES external port|CST DES block port)\s*(.+)\s* \(\"(.*)\"\)(\s*mode\s*([0-9]+))?.*
! Touchstone port assignment:
! Touchstone port 1 = CST DES external port 1 ("PHY")
! Touchstone port 2 = CST DES external port 2 ("MDI")
# MHz S MA R 100
0.3                  0.272535905      116.259539      0.907198227     -155.511041      0.907252686     -155.508973      0.326715493      103.558022
0.301593713            0.2711472       116.04316      0.907811143     -155.643162      0.907872748     -155.641418      0.325049273      103.423227
0.303195893           0.26976507      115.827462      0.908416529     -155.774624      0.908485332     -155.773205      0.323391212      103.288891
0.304806585          0.268389489      115.612438      0.909014438     -155.905431      0.909090492     -155.904338      0.321741285      103.155011
0.306425833          0.267020431      115.398081      0.909604922     -156.035586       0.90968828     -156.034821      0.320099464      103.021583
0.308053682          0.265658309      115.183551      0.910198177     -156.164854      0.910281303     -156.164271      0.318471108      102.886867
0.30969018           0.264303055      114.969052      0.910791775     -156.293299      0.910869126     -156.292788        0.3168547      102.751281
0.311335372           0.26295434      114.755179      0.911378451     -156.421097      0.911449995     -156.420661      0.315246281      102.616069
0.312989303           0.26161214      114.541924      0.911958256     -156.548253      0.912023963     -156.547892      0.313645824      102.481228
0.31465202           0.260275809      114.329426      0.912529478     -156.674772      0.912591967     -156.674533      0.312049425      102.346717
0.316323571          0.258944181      114.117961      0.913088865     -156.800654      0.913155728     -156.800677      0.310449748       102.21247
0.318004001          0.257618998      113.907109      0.913641509     -156.925906      0.913712775     -156.926192      0.308857823      102.078595
0.319693359          0.256300234      113.696862       0.91418746     -157.050532      0.914263155     -157.051083      0.307273621      101.945087
0.321391691          0.254988058      113.487198      0.914727041     -157.174548      0.914807115     -157.175351      0.305697612      101.811961
0.323099045          0.253687697      113.277711      0.915267672     -157.298264      0.915350013     -157.298943       0.30414304        101.6797
0.32481547           0.252393718      113.068819      0.915801946     -157.421361       0.91588656     -157.421915      0.302596235      101.547789
0.326541012          0.251106095      112.860516      0.916329912     -157.543843      0.916416807     -157.544272      0.301057168      101.416223
0.328275722          0.249824801      112.652793      0.916851619     -157.665714        0.9169408     -157.666018      0.299525813      101.284998
0.330019646          0.248544379      112.446977      0.917372778     -157.787104      0.917456511     -157.787157      0.297996477      101.155376
0.331772836           0.24726959       112.24189      0.917888405     -157.907901      0.917965833     -157.907689      0.296474189       101.02625
0.333535338          0.246000979      112.037385      0.918397951     -158.028096      0.918469033      -158.02762      0.294959517      100.897484
0.335307204          0.244738519      111.833457      0.918901461     -158.147693      0.918966155     -158.146952      0.293452435      100.769075
0.337088483          0.243485788      111.627428      0.919397379     -158.265977      0.919460708     -158.265307      0.291955519      100.640199
0.338879225          0.242239867      111.421486      0.919887146     -158.383549      0.919949921     -158.383005      0.290466549      100.511521
0.340679479          0.241000162      111.216048      0.920371067      -158.50053      0.920433289     -158.500112      0.288985078      100.383168
0.342489297          0.239766646      111.011107      0.920849185     -158.616923      0.920910856     -158.616631      0.287511076      100.255136
0.34430873           0.238535571      110.806944      0.921332883     -158.733166      0.921388198     -158.732909      0.286032461       100.12855
0.346137828          0.237310161      110.603303      0.921812145     -158.848873      0.921860445     -158.848642      0.284559917      100.002431
0.347976643          0.236090781      110.400148      0.922285816     -158.964003      0.922327056     -158.963797      0.283094687      99.8766585
0.349825227           0.23487781      110.197555      0.922753638     -159.078531      0.922787914     -159.078357      0.281637125      99.7511366
0.351683631           0.23368523       109.99844      0.923205373     -159.191474      0.923237619     -159.191611      0.280200316      99.6227073
0.353551907          0.232498724      109.799849      0.923651684     -159.303845      0.923681882     -159.304294       0.27877075        99.49454
0.355430109          0.231318263      109.601776       0.92409261     -159.415647      0.924120744     -159.416409      0.277348401      99.3666305
0.357318288          0.230141262      109.404001      0.924531692     -159.527002      0.924557757     -159.527903      0.275934513      99.2391308
0.359216498          0.228961599      109.206002      0.924977319     -159.638189      0.925001348     -159.638636      0.274532101      99.1124092
0.361124792          0.227787799      109.008471      0.925417846     -159.748816      0.925439831     -159.748809      0.273136876      98.9859395
0.363043223          0.226619835      108.811404      0.925853313     -159.858888      0.925873247     -159.858425      0.271748807      98.8597173
0.364971846           0.22546594      108.616513      0.926283227     -159.968914      0.926302051     -159.968006      0.270361468      98.7348179
0.366910715          0.224325884      108.423824      0.926707608     -160.078889      0.926726241     -160.077547      0.268974943      98.6112499
0.368859883          0.223191567      108.231675      0.927127002     -160.188324      0.927145436     -160.186546      0.267595444      98.4879678
0.370819407          0.222062963      108.040059      0.927541447     -160.297224      0.927559673     -160.295007      0.266222942       98.364968
0.37278934           0.220926013      107.845308      0.927957344     -160.403921      0.927964611     -160.402212      0.264860665      98.2416893
0.374769738          0.219792401      107.650356      0.928369552     -160.509792      0.928363964     -160.508756      0.263505893       98.118577
0.376760656          0.218664492       107.45581      0.928777035     -160.615124      0.928758515     -160.614762      0.262158045      97.9957208
0.378762151          0.217543835      107.262901      0.929174542     -160.720158      0.929147394     -160.720376      0.260817555      97.8734019
0.380774279          0.216433032      107.073753      0.929553218     -160.825301      0.929529127     -160.825833       0.25948519      97.7521032
0.382797096          0.215327841      106.885097       0.92992719     -160.929916      0.929906177     -160.930765      0.258159696      97.6310668
0.384830659          0.214228234      106.696928      0.930296493     -161.034006      0.930278577     -161.035174      0.256841043      97.5102889
0.386875025          0.213136084      106.507526       0.93066985     -161.137495      0.930654679     -161.138499      0.255529808       97.387249
0.388930252          0.212050099      106.318009      0.931041493     -161.240439      0.931028948     -161.241126      0.254225497      97.2636025
0.390996396          0.210969647      106.128917      0.931408683     -161.342871      0.931398763     -161.343239       0.25292788      97.1401455
0.393073517          0.209894094      105.940327      0.931771342     -161.444652      0.931763274     -161.444811      0.251634299      97.0179945
0.395161672          0.208822661      105.752342      0.932129354     -161.545607      0.932121405     -161.545807      0.250341396      96.8986148
0.39726092           0.207756705      105.564765      0.932483001     -161.646052       0.93247519     -161.646293       0.24905511      96.7794847
0.399371321          0.206696201      105.377591      0.932832315     -161.745991      0.932824662     -161.746271      0.247775412       96.660601
0.401492932          0.205657654      105.190697      0.933182568     -161.844783      0.933168035     -161.845675       0.24650532       96.540728
0.403625815          0.204626121      105.004201      0.933529122     -161.943012      0.933507007      -161.94457      0.245242032      96.4209583
0.405770028          0.203600084      104.818107      0.933871538     -162.040739      0.933841773     -162.042967      0.243985247      96.3013989
0.407925631          0.202561438       104.63172      0.934214195     -162.139024      0.934180753     -162.140762      0.242738527      96.1831232
0.410092687          0.201515363      104.445201      0.934555871      -162.23756      0.934521586     -162.237988      0.241500834      96.0658273
0.412271254          0.200474488      104.259018      0.934893555     -162.335609      0.934858438     -162.334721      0.240269631      95.9487571
0.414461395          0.199438788      104.073166      0.935227277     -162.433175      0.935191338     -162.430966      0.239044892      95.8319094
0.416663171          0.198424232      103.890616      0.935553921     -162.529282      0.935516197      -162.52701      0.237821454       95.712632
0.418876643          0.197419947      103.709404      0.935875689     -162.624597      0.935835859     -162.622662      0.236602707       95.592687
0.421101874          0.196420866      103.528595      0.936193609     -162.719432      0.936151654     -162.717835      0.235390234      95.4729014
0.423338927          0.195426964      103.348182      0.936507708     -162.813791       0.93646361     -162.812534      0.234184005      95.3532715
0.425587863          0.194436739      103.167576      0.936816761     -162.907631      0.936771374     -162.906662      0.232983311       95.233409
0.427848747           0.19344878       102.98619      0.937119601     -163.000914      0.937074626     -163.000129       0.23178745      95.1129319
0.430121641          0.192465958      102.805152      0.937418704     -163.093728      0.937374145     -163.093127      0.230597718      94.9925819
0.43240661            0.19148825      102.624457      0.937714095     -163.186076       0.93766996      -163.18566      0.229414088       94.872355
0.434703718          0.190515683      102.444109      0.938005932     -163.277965      0.937962242     -163.277725      0.228236848      94.7522885
0.437013028          0.189550935      102.264538      0.938301098     -163.369591      0.938258682     -163.369085      0.227082432      94.6345242
0.439334607          0.188591218      102.085304      0.938592751     -163.460757      0.938551611     -163.459984      0.225934181      94.5168945
0.441668518          0.187636508      101.906402      0.938880915     -163.551465      0.938841055     -163.550424      0.224792068      94.3993957
0.444014829          0.186686781      101.727825      0.939165616     -163.641721       0.93912704      -163.64041      0.223656067      94.2820243
0.446373603          0.185725621      101.550113      0.939444255       -163.7309      0.939402377     -163.729692      0.222517904      94.1665524
0.448744909           0.18476511      101.372836      0.939718786     -163.819466      0.939672404     -163.818456      0.221383638      94.0517003
0.451128812           0.18380944      101.195843      0.939989908     -163.907579         0.939939     -163.906769      0.220255364      93.9370121
0.453525378          0.182858586       101.01913      0.940257646     -163.995243       0.94020219     -163.994634      0.219133053      93.8224847
0.455934677          0.181929899      100.841482      0.940527999     -164.082608      0.940476837     -164.082014       0.21800996      93.7049343
0.458356774          0.181014869      100.663498      0.940798115     -164.169605      0.940755763     -164.168933      0.216889271      93.5858705
0.460791739          0.180104708      100.485786      0.941065012     -164.256163      0.941031519     -164.255412      0.215774338      93.4668858
0.463239639          0.179199394       100.30834      0.941328714     -164.342285      0.941304128     -164.341455      0.214665133      93.3479762
0.465700543          0.178295292      100.128822      0.941583959     -164.428459      0.941562998     -164.427749      0.213561616      93.2334675
0.46817452           0.177393834      99.9481089      0.941832799     -164.514497      0.941812223     -164.514031      0.212463835      93.1217558
0.470661641          0.176497205      99.7676077       0.94207846     -164.600106      0.942058265     -164.599886      0.211371788      93.0102264
0.473161973          0.175605383      99.5873124      0.942320964      -164.68529      0.942301146     -164.685316      0.210285449      92.8988768
0.475675589          0.174721493      99.4107783      0.942570823     -164.769587      0.942549284     -164.769763      0.209206925      92.7831031
0.478202557          0.173843892      99.2362975      0.942822992     -164.853228      0.942798657     -164.853504      0.208135086      92.6650772
0.48074295           0.172970956      99.0620744      0.943072211      -164.93645      0.943045059     -164.936826      0.207068815       92.547104
0.483296839           0.17210266      98.8881038      0.943318501     -165.019257      0.943288512     -165.019733      0.206008086      92.4291796
0.485864294          0.171234432      98.7146648       0.94356258     -165.102527      0.943528288     -165.103038      0.204961546       92.316026
0.488445389          0.170369525      98.5415661      0.943804011     -165.185624      0.943765008     -165.186153      0.203922955      92.2042697
0.491040196          0.169509138      98.3687285      0.944042635     -165.268313      0.943998901      -165.26886      0.202889965      92.0926434
0.493648787          0.168653249      98.1961472      0.944278471     -165.350596       0.94422999     -165.351163      0.201862549      91.9811442
0.496271236          0.167806927      98.0241776      0.944502943     -165.431074      0.944453862     -165.431339      0.200843511      91.8668981
0.498907617          0.166965203      97.8524448      0.944724533      -165.51113        0.9446749     -165.511088      0.199830014      91.7526925
0.501558003          0.166128001      97.6809398      0.944943353     -165.590782       0.94489317      -165.59043      0.198822003      91.6385552
0.504222469           0.16529505      97.5103506      0.945162983     -165.670117      0.945111857     -165.669671      0.197817286      91.5240111
0.506901089          0.164465835      97.3419224      0.945389775     -165.749287      0.945336606     -165.749346      0.196811986      91.4082131
0.509593939          0.163640986       97.173758      0.945613977     -165.828061      0.945558745     -165.828628      0.195812027       91.292451
0.512301095          0.162820483       97.005853      0.945835609     -165.906442      0.945778295     -165.907521      0.194817386      91.1767213
0.515022632          0.161998379      96.8338945      0.946047018      -165.98395      0.945989588      -165.98514      0.193820958      91.0594855
0.517758627          0.161176952      96.6593731      0.946251013     -166.060765      0.946194714     -166.061812      0.192825285      90.9412863
0.520509157          0.160359917      96.4849567      0.946452404     -166.137191      0.946397246     -166.138095       0.19183476      90.8230757
0.523274299          0.159547538      96.3108408      0.946651328     -166.213259      0.946597161     -166.214021      0.190849778      90.7050729
0.52605413           0.158747884      96.1428793      0.946851241     -166.289822      0.946793338     -166.290486      0.189882413      90.5937311
0.528848728          0.157952502      95.9751384      0.947048662     -166.366004      0.946987004     -166.366568       0.18892026      90.4824709
0.531658173          0.157161373      95.8076137      0.947243609     -166.441807      0.947178178     -166.442271      0.187963295      90.3712896
0.534482542          0.156376482      95.6400644      0.947438554     -166.517018      0.947372288     -166.517289      0.187010119      90.2588266
0.537321915          0.155597693      95.4724926      0.947633394     -166.591651       0.94756906     -166.591643      0.186060771      90.1451383
0.540176373          0.154823115      95.3051114      0.947825868      -166.66591      0.947763477     -166.665621      0.185116501      90.0314799
0.543045994          0.154052453      95.1378769      0.948015607     -166.739809      0.947955654     -166.739246      0.184177398       89.917798
0.54593086           0.153282056      94.9702604      0.948197552     -166.813508      0.948146897     -166.812773      0.183244929      89.8034233
0.548831051          0.152515799      94.8028127      0.948377165     -166.886841      0.948335863     -166.885932       0.18231747      89.6890558
0.551746649          0.151753663      94.6355293       0.94855446     -166.959809      0.948522569     -166.958726      0.181394999      89.5746922
0.554677736          0.150986657      94.4687202      0.948729069     -167.032503      0.948695863     -167.031518      0.180479325      89.4597155
0.557624394          0.150219405      94.3022142      0.948901229     -167.104879      0.948861532     -167.104124      0.179569475      89.3444293
0.560586706          0.149456158       94.135856      0.949071144     -167.176897      0.949024909     -167.176373      0.178664552      89.2291208
0.563564754          0.148707098      93.9683235      0.949246988     -167.248949      0.949197164     -167.248417      0.177759597      89.1151917
0.566558623          0.147981222      93.7984551      0.949436016     -167.321383      0.949388224     -167.320389      0.176850213      89.0039224
0.569568397          0.147259397      93.6287194      0.949622968     -167.393469      0.949577221     -167.392012      0.175945625      88.8926967
0.57259416           0.146541602      93.4591121      0.949807858      -167.46521      0.949764172     -167.463288      0.175045811      88.7815121
0.575635997          0.145821632      93.2904284      0.949985366     -167.535792      0.949938084     -167.533742      0.174155985      88.6695598
0.578693993          0.145099943       93.122591      0.950155891     -167.605275      0.950099749     -167.603409      0.173275761      88.5568756
0.581768234          0.144382225       92.954854      0.950324363     -167.674412      0.950259319      -167.67273      0.172400291      88.4441931
0.584858807          0.143668457      92.7872129      0.950490797     -167.743204      0.950416805     -167.741708      0.171529555      88.3315095
0.587965798          0.142957984      92.6200901      0.950654738     -167.811652      0.950573012     -167.810345      0.170663887      88.2186319
0.591089295          0.142245573      92.4569811      0.950812401     -167.879727        0.9507344     -167.878652      0.169806181       88.103997
0.594229385          0.141536978      92.2940115      0.950968095     -167.947464      0.950893837     -167.946621      0.168953151      87.9893195
0.597386156          0.140832178      92.1311773      0.951121831     -168.014863      0.951051337     -168.014254      0.168104775      87.8745963
0.600559698          0.140131156      91.9684745      0.951273625     -168.081927      0.951206913     -168.081554       0.16726103      87.7598244
0.603750098          0.139436454      91.8045585      0.951428117     -168.148761      0.951356797      -168.14855      0.166415792      87.6459099
0.606957447          0.138746255       91.640369      0.951582048     -168.215293      0.951503684     -168.215225      0.165573368      87.5322198
0.610181834          0.138059816      91.4762815      0.951734117     -168.281496      0.951648659     -168.281571      0.164735469      87.4184951
0.613423351          0.137377119      91.3122917      0.951884339     -168.347372      0.951791736     -168.347592      0.163902073      87.3047328
0.616682088          0.136695806      91.1467156      0.952027915     -168.412683      0.951934804     -168.413083      0.163076961      87.1883998
0.619958136          0.136016349      90.9798391      0.952165797     -168.477476      0.952077561     -168.478085      0.162259372      87.0699361
0.623251589          0.135340612      90.8129914      0.952301848     -168.541946      0.952218531     -168.542764      0.161446244      86.9513489
0.626562537          0.134668576      90.6461679      0.952436082     -168.606094      0.952357725     -168.607121      0.160637555      86.8326346
0.629891074          0.134004244       90.479856      0.952573052     -168.670024       0.95249697     -168.671029      0.159834437      86.7170187
0.633237294          0.133349045       90.314249      0.952714451     -168.733774      0.952636937      -168.73444      0.159037314      86.6057381
0.63660129           0.132697513      90.1486832      0.952854142     -168.797207      0.952775182     -168.797533      0.158244613      86.4944412
0.639983157           0.13204963      89.9831543      0.952992139     -168.860326      0.952911716     -168.860311      0.157456313      86.3831255
0.643382989          0.131403817      89.8200234      0.953129408     -168.923305      0.953049834      -168.92305      0.156665092       86.270169
0.646800883          0.130759014      89.6608192       0.95326656     -168.986255      0.953191616     -168.985928      0.155866318      86.1545247
0.650236934          0.130117699      89.5017378      0.953402063     -169.048898      0.953331773     -169.048499      0.155071751      86.0387951
0.653691238          0.129479855       89.342776       0.95353593     -169.111237      0.953470315     -169.110766      0.154281373      85.9229769
0.657163894          0.128844464      89.1804915       0.95366844     -169.173109      0.953603225     -169.172643       0.15350061      85.8083299
0.660654997          0.128211221      89.0135574      0.953799727     -169.234454      0.953729063       -169.2341      0.152731453      85.6953337
0.664164646          0.127581491      88.8466028       0.95392945     -169.295497      0.953853305     -169.295255      0.151966509       85.582283
0.66769294           0.126955256      88.6796231       0.95405762     -169.356239      0.953975962     -169.356111      0.151205755      85.4691752
0.671239977          0.126334129      88.5148227      0.954180541     -169.416839       0.95409307     -169.416867      0.150453044      85.3535887
0.674805858            0.1257178       88.351874      0.954298859     -169.477274      0.954205321     -169.477493      0.149707704       85.235886
0.678390682          0.125104906      88.1889668      0.954415641     -169.537416      0.954316006     -169.537827      0.148966524      85.1180454
0.68199455           0.124495428      88.0260976      0.954530898     -169.597267      0.954425136     -169.597871      0.148229484      85.0000635
0.685617563          0.123894817      87.8639542      0.954655326     -169.657068      0.954553318     -169.657178      0.147487472      84.8859308
0.689259823          0.123299403      87.7020876      0.954781887      -169.71666      0.954686982     -169.716045      0.146746467      84.7730645
0.692921432          0.122707336      87.5402654      0.954907026     -169.775968      0.954819264     -169.774623      0.146009486      84.6601374
0.696602492          0.122118712      87.3783476      0.955030457     -169.834977      0.954949522     -169.832931      0.145276718       84.547087
0.700303108          0.121537604      87.2112969      0.955141394     -169.893178      0.955053756      -169.89159      0.144555831      84.4316859
0.704023383           0.12095992      87.0442246      0.955250908     -169.951097      0.955156521     -169.949968       0.14383895      84.3161774
0.707763422          0.120385643      86.8771272      0.955359006     -170.008735      0.955257826     -170.008067      0.143126057      84.2005588
0.711523329          0.119809667      86.7105408      0.955467331     -170.066011      0.955363535     -170.065567      0.142414505      84.0854761
0.71530321           0.119228499      86.5448067      0.955577002     -170.122869      0.955477655     -170.122251       0.14170249      83.9713821
0.719103171          0.118650594      86.3790117      0.955685312     -170.179448      0.955590447     -170.178656      0.140994366      83.8572003
0.722923319          0.118075936      86.2131516       0.95579227     -170.235751      0.955701921     -170.234784      0.140290116      83.7429285
0.726763761          0.117501367       86.048735      0.955901804     -170.292284      0.955804835     -170.291511      0.139594789      83.6271654
0.730624605          0.116929146      85.8846771      0.956011085     -170.348678      0.955904518     -170.348199      0.138904655      83.5109146
0.73450596           0.116360078       85.720582      0.956119103     -170.404804      0.956002875     -170.404619      0.138218373      83.3945369
0.738407933          0.115796222      85.5581944      0.956224949     -170.460402      0.956101725      -170.46049      0.137537926      83.2783097
0.742330636          0.115240903      85.4003843      0.956327143     -170.515051      0.956204024     -170.515351      0.136866547      83.1626904
0.746274177          0.114688685      85.2426186      0.956428081     -170.569431      0.956305077     -170.569945      0.136199005      83.0469512
0.750238667          0.114139553      85.0848947      0.956527772     -170.623545      0.956404892     -170.624272      0.135535282        82.93109
0.754224219          0.113604383      84.9223369      0.956627211     -170.677678      0.956513218     -170.678056      0.134859684      82.8073192
0.758230943          0.113074669      84.7587352      0.956725633     -170.731609      0.956622437     -170.731518      0.134184459      82.6816478
0.762258953           0.11254811      84.5951091      0.956822837     -170.785281      0.956730508     -170.784718      0.133512884      82.5557003
0.766308361          0.112016893      84.4313413      0.956919495     -170.838903      0.956828723     -170.838103      0.132851717      82.4355607
0.770379281          0.111478688      84.2673767      0.957015839     -170.892536        0.9569145     -170.891803      0.132202972      82.3231429
0.774471827          0.110943508      84.1033523      0.957111036     -170.945914      0.956999059     -170.945249      0.131557924      82.2106558
0.778586114          0.110410303      83.9390237      0.957204389     -170.998946      0.957082617     -170.998353      0.130914921      82.0968856
0.782722258          0.109871489      83.7725884      0.957290715      -171.05095      0.957166704     -171.050467      0.130261956       81.972878
0.786880375          0.109335649       83.606009      0.957375866     -171.102702      0.957249605     -171.102328       0.12961254      81.8486204
0.791060581          0.108802768      83.4392812      0.957459847     -171.154202      0.957331327     -171.153938      0.128966656      81.7241091
0.795262994          0.108277612      83.2738758      0.957546479     -171.205691      0.957412259     -171.205405      0.128327254      81.6013199
0.799487732          0.107767691      83.1121918      0.957641824     -171.257545      0.957493034     -171.256895      0.127699019      81.4834297
0.803734913          0.107260702      82.9504805      0.957736129     -171.309156      0.957572686     -171.308139      0.127074326      81.3653865
0.808004657          0.106756632      82.7887395      0.957829401     -171.360524      0.957651222     -171.359139      0.126453157       81.247188
0.812297083          0.106255465      82.6269661      0.957921647      -171.41165      0.957728649     -171.409896      0.125835497      81.1288322
0.816612313          0.105751806      82.4669913         0.958001     -171.462242      0.957814109      -171.46069       0.12521749      81.0116981
0.820950466          0.105250092      82.3072974      0.958077324     -171.512544      0.957900046     -171.511292      0.124602303      80.8946535
0.825311666          0.104751194      82.1475812      0.958152576     -171.562607      0.957984967     -171.561656      0.123990548      80.7774707
0.829696034          0.104255097      81.9878402      0.958226765     -171.612433      0.958068879     -171.611784      0.123382208      80.6601478
0.834103693          0.103762161      81.8252005      0.958302833     -171.662033      0.958152866     -171.661495      0.122780075      80.5389349
0.838534767          0.103272354       81.660008      0.958380405     -171.711408      0.958236803     -171.710814      0.122183753      80.4142842
0.842989381          0.102785354      81.4947013      0.958456979     -171.760551      0.958319778     -171.759901      0.121590827      80.2893794
0.847467659          0.102301148      81.3292769      0.958532564     -171.809464        0.9584018     -171.808757      0.121001282      80.1642176
0.851969728          0.101825512      81.1640275      0.958610629     -171.858037      0.958481513     -171.857333      0.120412605      80.0395012
0.856495714          0.101365279      80.9993356      0.958695288     -171.906144      0.958557317     -171.905568      0.119821822      79.9160763
0.861045743           0.10090789      80.8345776      0.958779042     -171.954021      0.958632168     -171.953576      0.119234326      79.7924189
0.865619944          0.100453331      80.6697518      0.958861898     -172.001671       0.95870607     -172.001356      0.118650099      79.6685264
0.870218444         0.0999968388      80.5039095      0.958941502     -172.049227      0.958780108     -172.048962       0.11807135      79.5450186
0.874841374         0.0995220745      80.3337249      0.959009746     -172.097145      0.958858007     -172.096572      0.117505716      79.4240585
0.879488862         0.0990500081       80.163327      0.959077059     -172.144842      0.958935033      -172.14396      0.116943371      79.3029103
0.88416104          0.0985806266      79.9927121      0.959143448      -172.19232      0.959011192     -172.191128        0.1163843      79.1815721
0.888858037         0.0981167136      79.8224598      0.959210509     -172.239513      0.959085709     -172.238029      0.115826953      79.0601003
0.893579988         0.0976724099      79.6555765      0.959286307     -172.286074      0.959154637     -172.284427      0.115263545      78.9387892
0.898327022         0.0972308253      79.4885774      0.959361264     -172.332417      0.959222683     -172.330606      0.114703301      78.8172864
0.903099275         0.0967919471      79.3214606      0.959435385     -172.378544      0.959289854     -172.376567      0.114146208      78.6955899
0.90789688          0.0963544304      79.1567908       0.95950742     -172.424537      0.959355499     -172.422551      0.113592196      78.5727332
0.912719972         0.0959135962      79.0034986      0.959573051     -172.470675      0.959417371     -172.469387      0.113041076       78.445355
0.917568686         0.0954752748      78.8502845      0.959637838     -172.516602      0.959478375     -172.516017      0.112493064      78.3176963
0.922443158         0.0950394528       78.697148      0.959701785     -172.562322      0.959538517     -172.562443      0.111948144      78.1897544
0.927343525         0.0946058795      78.5367927      0.959763787     -172.607894      0.959598302      -172.60837      0.111407005       78.065391
0.932269924         0.0941743764      78.3598675      0.959822457     -172.653396      0.959658369     -172.653428      0.110870511      77.9495603
0.937222495         0.0937455349      78.1826653      0.959880294     -172.698693      0.959717605     -172.698278      0.110337064      77.8336327
0.942201375         0.0933193433      78.0051827      0.959937302     -172.743786      0.959776016     -172.742922      0.109806649      77.7176074
0.947206705         0.0928976217      77.8362185      0.959995324     -172.788239        0.9598374     -172.786965      0.109277083      77.5942639
0.952238626         0.0924802006      77.6756298      0.960054315     -172.832066      0.959901662     -172.830421      0.108748424      77.4637018
0.957297277         0.0920652734      77.5149949      0.960112516     -172.875691      0.959965167      -172.87367      0.108222747      77.3328202
0.962382803         0.0916528277      77.3543128      0.960169934     -172.919114      0.960027921     -172.916716      0.107700036      77.2016163
0.967495344         0.0912291867      77.1910191      0.960229505      -172.96256      0.960085323     -172.960356      0.107192646      77.0763594
0.972635045         0.0908042141      77.0268985      0.960289144     -173.005869       0.96014072     -173.004017      0.106691631      76.9525975
0.977802051         0.0903816118      76.8626373       0.96034806      -173.04898       0.96019537     -173.047483      0.106193615      76.8286346
0.982996505         0.0899643095      76.6974447      0.960406881      -173.09183      0.960250156     -173.090661      0.105697651      76.7036228
0.988218554          0.089568371      76.5270226      0.960469006     -173.134064      0.960309885      -173.13305      0.105198642      76.5729074
0.993468345         0.0891749307      76.3564284      0.960530447     -173.176101      0.960368919     -173.175244      0.104702562      76.4418888
0.998746025         0.0887839772      76.1856602      0.960591211     -173.217944      0.960427263     -173.217244      0.104209396      76.3105648
1.00405174          0.0883842724      76.0137713      0.960644909     -173.260265      0.960482252     -173.259358      0.103710365      76.1815573
1.00938564          0.0879778593      75.8408822      0.960692706     -173.302944      0.960534374      -173.30153      0.103207041      76.0544157
1.01474788          0.0875738068      75.6677399      0.960739775     -173.345438      0.960585792     -173.343514      0.102706494      75.9270242
1.02013861          0.0871728085      75.4945059      0.960786637     -173.387695      0.960636595     -173.385294      0.102209491      75.7993767
1.02555797          0.0867925617      75.3253614      0.960846335     -173.428404      0.960688956     -173.426443      0.101735705      75.6713698
1.03100612          0.0864147078      75.1560642      0.960905408     -173.468923      0.960740651     -173.467407      0.101264771      75.5431187
1.03648322          0.0860392353       74.986613      0.960963861     -173.509255      0.960791686     -173.508184      0.100796676      75.4146218
1.04198941          0.0856669858      74.8139581      0.961015024     -173.549292      0.960841859      -173.54858      0.100317875      75.2812637
1.04752485          0.0852977504      74.6389382      0.961060802     -173.589068      0.960891232     -173.588651     0.0998322341      75.1442876
1.0530897           0.0849309296      74.4636924      0.961105906     -173.628659       0.96093995     -173.628539     0.0993492833      75.0069243
1.05868411          0.0845620467      74.2917495      0.961151039     -173.668241      0.960989855     -173.668345      0.098873267      74.8702645
1.06430824          0.0841771583      74.1340995      0.961198399     -173.708355      0.961046656     -173.708377     0.0984173583       74.737739
1.06996225          0.0837943723       73.976404      0.961245148     -173.748291       0.96110289     -173.748231     0.0979642057      74.6049198
1.07564629          0.0834136768       73.818662      0.961291291     -173.788051      0.961158561     -173.787909     0.0975137963      74.4718054
1.08136053          0.0830479631       73.644525      0.961337803     -173.828088      0.961207418     -173.827494     0.0970586539      74.3437933
1.08710513          0.0826864959      73.4676473       0.96138386     -173.868024      0.961254733     -173.866917     0.0966050317      74.2163879
1.09288024          0.0823273077      73.2905115      0.961429315     -173.907789      0.961301463     -173.906167     0.0961540529       74.088769
1.09868603          0.0819705084       73.113596      0.961474487     -173.947361       0.96134764     -173.945242     0.0957055499       73.960751
1.10452267          0.0816188279       72.948078      0.961526668     -173.986197      0.961393901     -173.984077     0.0952559358      73.8280368
1.11039031          0.0812693175      72.7824705      0.961578307     -174.024863      0.961439592     -174.022743     0.0948089142      73.6950333
1.11628912          0.0809219665      72.6167732      0.961629408     -174.063359      0.961484716     -174.061238     0.0943644723      73.5617389
1.12221927          0.0805767639      72.4509859      0.961679976     -174.101687      0.961529277     -174.099566     0.0939225974      73.4281518
1.12818093          0.0802324237      72.2805324       0.96172448     -174.140064       0.96157288     -174.137831     0.0934916472      73.3034914
1.13417425          0.0798894636      72.1070841      0.961765032      -174.17841      0.961615695     -174.175994     0.0930684313      73.1844059
1.14019941          0.0795486681      71.9334409      0.961805041     -174.216592      0.961657977     -174.213992      0.092647785       73.065256
1.14625659          0.0792100271      71.7596018      0.961844511     -174.254611       0.96169973     -174.251827     0.0922296953      72.9460428
1.15234593          0.0788718647      71.5867931      0.961882748     -174.292549      0.961740046     -174.289692     0.0918087312      72.8200067
1.15846763          0.0785318815      71.4167011      0.961918798     -174.330515      0.961777681     -174.327853     0.0913775359      72.6777921
1.16462185          0.0781939592       71.246457      0.961954291     -174.368324      0.961814769     -174.365858      0.090948817      72.5351637
1.17080876          0.0778580874      71.0760599      0.961989232     -174.405978      0.961851313     -174.403709     0.0905225628      72.3921184
1.17702854          0.0775249328      70.9056004       0.96202457     -174.443381      0.961888536     -174.441353      0.090099869      72.2487985
1.18328136          0.0772021601      70.7361227      0.962071049      -174.47945      0.961940283     -174.478191     0.0896932867      72.1068649
1.1895674           0.0768814405       70.566517      0.962117073     -174.515359      0.961991603     -174.514873      0.089289209      71.9645548
1.19588683           0.076562764      70.3967833      0.962162645      -174.55111      0.962042497     -174.551401     0.0888876248      71.8218663
1.20223983          0.0762461203      70.2269215       0.96220777     -174.586703      0.962092971     -174.587775     0.0884885229      71.6787978
1.20862659          0.0759265577      70.0533691      0.962250019     -174.622625      0.962131286     -174.623602     0.0880851718      71.5418182
1.21504727          0.0756087256      69.8794131      0.962291667     -174.658423       0.96216843     -174.659252     0.0876838246      71.4049252
1.22150206          0.0752929061      69.7052615      0.962332861     -174.694068      0.962205098     -174.694748     0.0872848647      71.2677381
1.22799114          0.0749790894      69.5309137      0.962373604     -174.729562      0.962241293     -174.730093     0.0868882802      71.1302559
1.23451469          0.0746596039      69.3569552      0.962416775     -174.765392      0.962278351     -174.765669     0.0865019273       70.990974
1.2410729           0.0743412117      69.1828439      0.962459848     -174.801129      0.962315108      -174.80114      0.086118834      70.8512202
1.24766595          0.0740247339       69.008514      0.962502516     -174.836721      0.962351423     -174.836464     0.0857381353      70.7111567
1.25429403           0.073710161      68.8339642      0.962544781     -174.872168      0.962387299     -174.871642     0.0853598201      70.5707829
1.26095731          0.0734190406      68.6531638      0.962572613     -174.907576       0.96242318     -174.906811     0.0849686037      70.4352166
1.26765599          0.0731312544      68.4718063      0.962599129     -174.942848      0.962458652     -174.941844     0.0845787403      70.2996963
1.27439026          0.0728455203      68.2902503      0.962625162     -174.977979      0.962493693     -174.976734     0.0841911208      70.1639194
1.2811603           0.0725606361      68.1090711      0.962651383     -175.012912      0.962528086     -175.011438     0.0838065526      70.0275076
1.28796631          0.0722612741      67.9356205      0.962686367     -175.046909      0.962559019     -175.045365      0.083435533      69.8856024
1.29480848          0.0719637902      67.7619925      0.962720948     -175.080763      0.962589525      -175.07915     0.0830668066      69.7433753
1.30168699          0.0716681749      67.5881868       0.96275513     -175.114477      0.962619608     -175.112794     0.0827003625      69.6008256
1.30860204          0.0713759159      67.4142392      0.962788466     -175.148177      0.962650901     -175.146543     0.0823364693      69.4575873
1.31555383          0.0710895773      67.2402351      0.962820179     -175.182084      0.962686217     -175.180825      0.081975601      69.3130237
1.32254255          0.0708050934      67.0660908      0.962851487     -175.215854      0.962721145     -175.214973     0.0816169927      69.1681183
1.3295684           0.0705224551       66.891807      0.962882392     -175.249489      0.962755688     -175.248988     0.0812606338      69.0228704
1.33663157          0.0702403676      66.7198073      0.962914073     -175.282739      0.962788677     -175.282287     0.0809054333      68.8802309
1.34373226           0.069959014      66.5497131      0.962946355     -175.315645       0.96282031     -175.314965     0.0805515391      68.7397606
1.35087067          0.0696794477      66.3795163      0.962978267     -175.348416      0.962851566     -175.347508     0.0801998334      68.5990197
1.35804701          0.0694016593      66.2092177      0.963009811     -175.381055      0.962882447     -175.379916     0.0798503054      68.4580081
1.36526147          0.0691251445      66.0286213      0.963038867     -175.414526      0.962920151     -175.413224     0.0794921912      68.3193878
1.37251425          0.0688503831      65.8465915      0.963067287     -175.447984      0.962958374     -175.446525     0.0791348933      68.1808324
1.37980557          0.0685774278      65.6643247      0.963095323     -175.481316      0.962996272       -175.4797      0.078779666      68.0420288
1.38713562          0.0683072518      65.4846537       0.96312437     -175.514103      0.963033683      -175.51256     0.0784286186      67.8967889
1.39450461          0.0680410053      65.3110603      0.963156129      -175.54584      0.963070411     -175.544878     0.0780843599      67.7374989
1.40191274          0.0677765063       65.137349      0.963187548     -175.577447      0.963106825     -175.577071     0.0777422506      67.5776873
1.40936023          0.0675137458      64.9635209      0.963218628     -175.608927      0.963142925     -175.609138     0.0774022815       67.417352
1.41684729          0.0672451552      64.7777287      0.963254383     -175.641276      0.963167146     -175.641366     0.0770637076      67.2793928
1.42437412          0.0669763994       64.588599      0.963291115     -175.673757      0.963188047     -175.673543     0.0767269706      67.1471044
1.43194093          0.0667094004      64.3991259      0.963327556     -175.706117       0.96320857     -175.705598     0.0763922361      67.0146956
1.43954794          0.0664506657      64.2162286       0.96335955     -175.737969      0.963235193     -175.737238     0.0760634882      66.8755349
1.44719537          0.0662059828      64.0463052      0.963383353      -175.76896       0.96327377     -175.768202     0.0757443648      66.7235418
1.45488342          0.0659630078      63.8763744      0.963406816      -175.79983      0.963312084     -175.799043     0.0754273394      66.5711845
1.46261231          0.0657217317      63.7064388      0.963429941     -175.830578      0.963350138     -175.829762     0.0751124025       66.418463
1.47038226          0.0654665152      63.5302954      0.963455621     -175.861701       0.96337261       -175.8609     0.0747966461       66.273677
1.47819348           0.065212227      63.3537258      0.963481117     -175.892729      0.963394057     -175.891944     0.0744827812      66.1290138
1.48604621          0.0649595651      63.1770082      0.963506303      -175.92364      0.963415173     -175.922871     0.0741709279       65.984101
1.49394065          0.0647083722      62.9947823      0.963532973     -175.954423      0.963442701     -175.953335     0.0738581499      65.8410878
1.50187702          0.0644587426      62.8091259      0.963560413     -175.985085      0.963473949     -175.983475      0.073545595       65.699133
1.50985556          0.0642107663      62.6232007      0.963587564     -176.015632      0.963504927     -176.013498     0.0732349845      65.5569684
1.51787649          0.0639644353      62.4370067      0.963614427     -176.046066      0.963535636     -176.043405     0.0729263082      65.4145949
1.52594002          0.0637189685      62.2569947      0.963636586     -176.076595      0.963559347     -176.073839     0.0726205676      65.2578039
1.53404639          0.0634748853      62.0784301      0.963657327     -176.107065      0.963581067     -176.104324     0.0723170611      65.0970325
1.54219583          0.0632323648      61.8997105      0.963677756     -176.137428       0.96360248       -176.1347     0.0720155341      64.9358114
1.55038855          0.0629913986      61.7208368      0.963697874     -176.167682      0.963623587     -176.164969      0.071715978        64.77414
1.5586248            0.062758677      61.5367972      0.963715619     -176.197405       0.96364119     -176.194904     0.0714134525      64.6133658
1.56690481          0.0625386285      61.3443218      0.963729651     -176.226319      0.963653207     -176.224359     0.0711047252      64.4543632
1.5752288             0.06232031      61.1516182       0.96374335     -176.255121      0.963664883     -176.253705     0.0707978573      64.2949215
1.58359701          0.0621037142      60.9586885      0.963756718     -176.283813      0.963676219     -176.282943     0.0704928397      64.1350395
1.59200968          0.0618878641      60.7662669      0.963770358     -176.312446      0.963688233     -176.312087     0.0701899502      63.9750053
1.60046703          0.0616580272      60.5854298      0.963793362     -176.341807      0.963716318     -176.341327     0.0698935093      63.8192256
1.60896932          0.0614296999      60.4044347      0.963816097     -176.371064      0.963744162     -176.370463     0.0695988971      63.6630849
1.61751677          0.0612028743      60.2232825      0.963838565     -176.400217      0.963771767     -176.399494     0.0693061046       63.506583
1.62610964          0.0609775422      60.0419744      0.963860768     -176.429268      0.963799135     -176.428423     0.0690151227      63.3497195
1.63474815          0.0607570914      59.8595524      0.963882983     -176.457956      0.963821692     -176.457067     0.0687416068      63.1962934
1.64343255          0.0605388207      59.6767933      0.963905014     -176.486489      0.963843102     -176.485573     0.0684730525      63.0433589
1.65216308          0.0603220545      59.4938888       0.96392681      -176.51492       0.96386427     -176.513977     0.0682063645      62.8901765
1.66094             0.0601067852      59.3108402      0.963948374     -176.543251        0.9638852      -176.54228      0.067941534      62.7367481
1.66976354          0.0598943893      59.1268571      0.963969206       -176.5718      0.963908629     -176.570656     0.0676747123      62.5838782
1.67863395          0.0596840663      58.9424017      0.963989589     -176.600386       0.96393299     -176.599006     0.0674080893      62.4311034
1.68755149          0.0594752285      58.7578087      0.964009735     -176.628876      0.963957135     -176.627259      0.067143264      62.2780885
1.6965164           0.0592678682        58.57308      0.964029645     -176.657271      0.963981068     -176.655416     0.0668802275      62.1248349
1.70552894          0.0590651059      58.3915357      0.964052703     -176.685174      0.963996745     -176.683419     0.0666079035      61.9672477
1.71458936          0.0588654062      58.2116285      0.964077278     -176.712776      0.964008043     -176.711298     0.0663316375       61.807221
1.7236979           0.0586671622      58.0316795      0.964101647     -176.740282      0.964019063     -176.739083      0.066057068      61.6468271
1.73285484           0.058470366      57.8516914      0.964125811     -176.767693      0.964029807     -176.766774     0.0657841864      61.4860657
1.74206042          0.0582697557      57.6788472      0.964140316     -176.795446      0.964047178     -176.794638     0.0655220517      61.3252245
1.7513149           0.0580682824      57.5090639      0.964150588     -176.823292      0.964067228     -176.822523     0.0652654567      61.1641761
1.76061855          0.0578681311      57.3393396      0.964160596      -176.85105      0.964087066      -176.85032     0.0650105916      61.0028075
1.76997162          0.0576692937      57.1696771      0.964170339     -176.878719      0.964106695     -176.878029     0.0647574481      60.8411197
1.77937438           0.057467686      56.9816605      0.964192141     -176.906485      0.964124956     -176.905574     0.0645023638      60.6785452
1.78882709          0.0572666165      56.7895961      0.964216319     -176.934204      0.964142758     -176.933016     0.0642482036      60.5155138
1.79833002          0.0570669354       56.597295      0.964240316     -176.961837      0.964160344     -176.960371     0.0639957184      60.3521429
1.80788343          0.0568687875      56.4046463       0.96426406     -176.989386      0.964177889     -176.987644     0.0637450008      60.1888717
1.81748759          0.0566770685      56.2080418      0.964285192     -177.016863      0.964200983      -177.01495     0.0634992638      60.0399135
1.82714277           0.056486767      56.0111904      0.964306142     -177.044256      0.964223907     -177.042173      0.063255138      59.8908282
1.83684924          0.0562978762      55.8140936      0.964326913     -177.071568      0.964246661     -177.069313     0.0630126145      59.7416185
1.84660728          0.0561120756      55.6249067      0.964342837      -177.09851      0.964266067     -177.096166     0.0627692182      59.5887982
1.85641716          0.0559314303      55.4542187      0.964347929     -177.124716      0.964278051     -177.122474     0.0625218068      59.4278224
1.86627915          0.0557520668      55.2836419      0.964352761     -177.150836      0.964289811     -177.148697      0.062275971      59.2665522
1.87619353          0.0555739773        55.11318      0.964357334     -177.176873       0.96430135     -177.174837     0.0620317025      59.1049885
1.88616058          0.0554012903      54.9316092      0.964373872     -177.203008      0.964315519      -177.20116     0.0617939467      58.9446821
1.89618057          0.0552321425      54.7440963      0.964396698     -177.229159      0.964330998     -177.227542     0.0615603834      58.7849504
1.9062538           0.0550643626      54.5565452      0.964419375     -177.255229      0.964346286     -177.253845     0.0613283936      58.6249869
1.91638054           0.054895758      54.3692239       0.96444116     -177.281262      0.964361498     -177.280102     0.0610985904      58.4638617
1.92656108          0.0547003461      54.1851905      0.964453205     -177.307768      0.964377975     -177.306697      0.060878375      58.2904735
1.9367957           0.0545060967      54.0009878      0.964465055       -177.3342      0.964394282     -177.333218     0.0606598093      58.1167269
1.9470847           0.0543130026      53.8166159      0.964476712     -177.360558      0.964410422     -177.359666     0.0604428862      57.9426236
1.95742835           0.054142712      53.6337966      0.964484709      -177.38617      0.964419109     -177.385496      0.060215513      57.7755994
1.96782695          0.0539909526      53.4523937      0.964489725     -177.411169      0.964421771     -177.410816     0.0599800183      57.6142053
1.97828079          0.0538405342      53.2711036      0.964494509     -177.436089      0.964424188     -177.436059     0.0597459706      57.4525479
1.98879016          0.0536876834      53.0882991      0.964500169     -177.461136      0.964428246     -177.461311     0.0595143344      57.2900504
1.99935537          0.0535042491      52.8915931      0.964515005     -177.487845      0.964448055     -177.487207     0.0592923934      57.1223856
2.0099767           0.0533220111      52.6946045      0.964529672     -177.514487      0.964467723     -177.513033     0.0590719463      56.9544252
2.02065446          0.0531409628      52.4973332      0.964544172     -177.541064      0.964487253     -177.538789     0.0588529852      56.7861706
2.03138894          0.0529919843      52.2990282      0.964569119     -177.566665      0.964502934     -177.564413     0.0586366202      56.6120728
2.04218044          0.0528565985      52.1003862      0.964598167     -177.591836      0.964516989     -177.589944     0.0584222045        56.43541
2.05302928          0.0527226229      51.9017489      0.964627133     -177.616937      0.964530883     -177.615406     0.0582092953      56.2583644
2.06393575          0.0525723673      51.7109104      0.964642172     -177.641821      0.964540932     -177.640455     0.0580016044      56.0853706
2.07490016          0.0523953001      51.5323568      0.964635095     -177.666402      0.964544965     -177.664883     0.0578012909      55.9191384
2.08592281          0.0522192892      51.3537451      0.964627759     -177.690913      0.964548798     -177.689242     0.0576024639      55.7527137
2.09700402          0.0520443274      51.1750763      0.964620164     -177.715355      0.964552429      -177.71353     0.0574051159      55.5860993
2.1081441           0.0518810993      50.9860262      0.964621899     -177.739911      0.964558884     -177.737814     0.0572023811      55.4161007
2.11934336          0.0517274669       50.788732      0.964630986     -177.764543      0.964567536     -177.762079     0.0569956845      55.2433073
2.13060211          0.0515750583      50.5912972      0.964639901      -177.78911      0.964576015     -177.786277     0.0567904034      55.0702085
2.14192068          0.0514238673      50.3937245      0.964648648     -177.813612      0.964584323     -177.810409     0.0565865306       54.896806
2.15329937          0.0512735784      50.1983539      0.964657191     -177.838103      0.964593809     -177.834656     0.0563849727      54.7225761
2.16473851          0.0511225043      50.0174822      0.964665349     -177.862859      0.964611538     -177.859966     0.0561905191      54.5447717
2.17623842          0.0509725096      49.8366611      0.964673342     -177.887556      0.964629153     -177.885218     0.0559975041      54.3666529
2.18779942          0.0508235874      49.6558934      0.964681172     -177.912192      0.964646654     -177.910414     0.0558059205       54.188222
2.19942184          0.0506757308      49.4751822      0.964688838      -177.93677      0.964664043     -177.935554     0.0556157618      54.0094813
2.211106             0.050527592      49.2857886      0.964696726     -177.961039      0.964663167     -177.960025     0.0554136939      53.8404147
2.22285223          0.0503802638      49.0944022      0.964704536     -177.985194      0.964658046       -177.9843     0.0552099553      53.6733262
2.23466086          0.0502340425      48.9029524      0.964712186     -178.009289      0.964652693     -178.008518     0.0550074811      53.5060107
2.24653223           0.050088922      48.7114418      0.964719674     -178.033327      0.964647111     -178.032677     0.0548062637      53.3384699
2.25846666          0.0499562357      48.5215491      0.964730647     -178.057197      0.964657325     -178.056543     0.0546236653       53.167006
2.27046449          0.0498324165       48.332863      0.964743979     -178.080935      0.964678341     -178.080191     0.0544542719      52.9928493
2.28252605          0.0497097583      48.1442785      0.964757203     -178.104616      0.964699287     -178.103782     0.0542862945      52.8185324
2.29465169          0.0495882548      47.9557999      0.964770319     -178.128241      0.964720164     -178.127317     0.0541197263      52.6440594
2.30684175          0.0494630502      47.7631851      0.964778607     -178.152298      0.964736766     -178.151028     0.0539487136      52.4759306
2.31909657          0.0493333847      47.5656693      0.964781298     -178.176868       0.96474841     -178.174953     0.0537722578      52.3152301
2.33141649          0.0492048473      47.3681159      0.964783825      -178.20139      0.964759942     -178.198826     0.0535970671      52.1544922
2.34380185          0.0490774321      47.1705285      0.964786189     -178.225863      0.964771361     -178.222648     0.0534231342      51.9937207
2.35625301          0.0489462022      46.9826628      0.964789564     -178.249667      0.964774662     -178.246486     0.0532453196      51.8260221
2.36877032          0.0488091989      46.8082577       0.96479439     -178.272567      0.964766793     -178.270369     0.0530617108      51.6486593
2.38135413          0.0486731273      46.6339909      0.964799064     -178.295412      0.964758706     -178.294204     0.0528793381      51.4710186
2.39400478          0.0485379807      46.4598653      0.964803586     -178.318205      0.964750399      -178.31799     0.0526981943      51.2931017
2.40672264          0.0484099986      46.2794695      0.964809126     -178.341499       0.96475153     -178.341551     0.0525282023      51.1125485
2.41950806          0.0482902385      46.0917712      0.964815879     -178.365386      0.964763682     -178.364859     0.0523709956      50.9290321
2.4323614           0.0481715142      45.9041686      0.964822505     -178.389228      0.964775734      -178.38812     0.0522151351      50.7452983
2.44528302          0.0480538196      45.7166655      0.964829002     -178.413027      0.964787688     -178.411333     0.0520606146      50.5613509
2.45827329          0.0479310851      45.5252734      0.964837421     -178.436445      0.964799726     -178.434466     0.0518962597      50.3744368
2.47133257          0.0478050995      45.3310646      0.964847163     -178.459582      0.964811791     -178.457529     0.0517253299       50.185255
2.48446122          0.0476801092       45.136812      0.964856795     -178.482673      0.964823756     -178.480547      0.051555641      49.9957095
2.49765962          0.0475561083      44.9425182      0.964866317      -178.50572      0.964835622      -178.50352     0.0513871869      49.8058021
2.51092813          0.0474351256      44.7650789      0.964876226     -178.528658      0.964836181     -178.526666     0.0512320887      49.6281286
2.52426713          0.0473155822      44.5923365       0.96488617     -178.551534      0.964833593     -178.549827     0.0510814625      49.4537001
2.537677             0.047196919      44.4198099      0.964896016     -178.574367      0.964830843     -178.572947     0.0509320649      49.2791857
2.5511581           0.0470790898      44.2464759      0.964904977     -178.597175      0.964828174     -178.596031     0.0507826663      49.1044728
2.56471081           0.046961602      44.0587042      0.964902601     -178.620175      0.964828791     -178.619144     0.0506170668      48.9279576
2.57833553          0.0468450489      43.8709979      0.964900063     -178.643136      0.964829263     -178.642218      0.050452584      48.7512489
2.59203262          0.0467294246      43.6833599      0.964897363     -178.666057      0.964829591     -178.665253     0.0502892113      48.5743488
2.60580248          0.0466139606      43.4909668      0.964898719     -178.689135      0.964833489     -178.688303     0.0501369728      48.3991629
2.61964549          0.0464983664      43.2917283      0.964905919     -178.712453      0.964842531     -178.711391     0.0500000859      48.2266087
2.63356204          0.0463837267      43.0924277      0.964913021     -178.735736      0.964851483     -178.734444     0.0498643986      48.0540531
2.64755251          0.0462700362      42.8930673      0.964920026     -178.758985      0.964860345     -178.757462     0.0497299044      47.8815008
2.66161731          0.0461614022      42.7166137      0.964927927     -178.781323      0.964865361     -178.780127     0.0495776427      47.6949521
2.67575683          0.0460544426      42.5450194      0.964935932     -178.803445      0.964869504     -178.802693     0.0494226949      47.5053027
2.68997146          0.0459483135      42.3736843      0.964943841      -178.82553       0.96487353     -178.825224     0.0492688719      47.3153511
2.70426161          0.0458457843      42.1952633      0.964949762     -178.847708      0.964876792     -178.847702     0.0491188908      47.1290239
2.71862767          0.0457501605      42.0011672      0.964951494     -178.870132      0.964878541     -178.870107     0.0489758873      46.9509848
2.73307005           0.045655508      41.8071881      0.964953105     -178.892522      0.964880168     -178.892479     0.0488339827      46.7728415
2.74758915          0.0455618216        41.61333      0.964954596     -178.914879      0.964881675     -178.914817     0.0486931708      46.5945976
2.76218538           0.045448099      41.4336681      0.964959267     -178.937589      0.964885622     -178.937285      0.048552773      46.4101422
2.77685916          0.0453318771      41.2562907      0.964964345     -178.960328      0.964889856     -178.959748     0.0484133745      46.2245672
2.79161088          0.0452163911      41.0790158      0.964969321      -178.98304      0.964893983     -178.982182     0.0482750753      46.0388181
2.80644098          0.0451176858      40.8956724      0.964978157      -179.00567      0.964897814     -179.004588     0.0481358526      45.8604336
2.82134985           0.045037508      40.7057558       0.96499128     -179.028215      0.964901336     -179.026969     0.0479954381      45.6902689
2.83633793           0.044958289      40.5160842      0.965004353     -179.050732       0.96490476     -179.049321     0.0478560175       45.520092
2.85140563          0.0448758105      40.3286678      0.965015228     -179.073236      0.964907824     -179.071702     0.0477195084      45.3514142
2.86655338          0.0447697693      40.1530651      0.965013573     -179.095801      0.964909277     -179.094387     0.0475951371      45.1915628
2.88178159          0.0446644543      39.9776331      0.965011797      -179.11834      0.964910625     -179.117047     0.0474717722      45.0318898
2.89709071            0.04455986      39.8023738      0.965009901     -179.140855      0.964911868     -179.139684      0.047349407         44.8724
2.91248115          0.0444608366      39.6225662      0.965010874      -179.16329      0.964915247     -179.162152      0.047225861      44.7032563
2.92795335           0.044372952      39.4328673      0.965018116      -179.18558      0.964923307     -179.184287     0.0470987319      44.5131274
2.94350774          0.0442859213      39.2433173      0.965025282     -179.207847      0.964931297     -179.206398     0.0469726674      44.3228297
2.95914477          0.0441997392      39.0539196      0.965032373     -179.230091      0.964939217     -179.228486      0.046847662      44.1323665
2.97486487          0.0441144005      38.8646774       0.96503939     -179.252313      0.964947068     -179.250551     0.0467237101       43.941741
2.99066848          0.0440205311      38.6959048       0.96503703     -179.274456      0.964946991       -179.2726     0.0465949912      43.7508061
3.00655604          0.0439262911      38.5297195      0.965033492     -179.296571      0.964945912     -179.294629      0.046466626      43.5596559
3.022528            0.0438327254      38.3638369      0.965029825     -179.318667      0.964944717     -179.316636      0.046339264      43.3683076
3.03858481          0.0437398282      38.1982594       0.96502603     -179.340742      0.964943405     -179.338623     0.0462128998      43.1767637
3.05472692          0.0436524202      38.0232717      0.965028469     -179.362885      0.964949383       -179.3607     0.0460932032      42.9939441
3.07095479          0.0435692736      37.8414329      0.965035468     -179.385074      0.964960702     -179.382837     0.0459786203       42.817611
3.08726886          0.0434868896      37.6598068      0.965042403     -179.407246       0.96497198     -179.404957     0.0458650072      42.6413177
3.1036696           0.0434052629      37.4783962      0.965049275       -179.4294      0.964983218      -179.42706     0.0457523578      42.4650682
3.12015747          0.0433208113      37.2972869      0.965052805      -179.45108      0.964989292     -179.448824     0.0456392378      42.2845472
3.13673293          0.0432305832      37.1164962      0.965050281     -179.471905      0.964985966     -179.469984     0.0455244939      42.0961301
3.15339644          0.0431410578      36.9358501      0.965047644     -179.492709      0.964982523     -179.491124     0.0454107243      41.9076165
3.17014847            0.04305223      36.7553506      0.965044895     -179.513491      0.964978963     -179.512244     0.0452979235      41.7190097
3.1869895           0.0429673264      36.5718639      0.965044308     -179.534567      0.964977884     -179.533596     0.0451861361      41.5301097
3.20391999          0.0428943739      36.3776706      0.965051522     -179.556716      0.964985716     -179.555797      0.045075483      41.3404147
3.22094043          0.0428222298      36.1836267      0.965058679     -179.578853      0.964993494     -179.577987     0.0449657865      41.1506286
3.23805128          0.0427508896      35.9897352      0.965065778     -179.600979      0.965001219     -179.600165     0.0448570414      40.9607548
3.25525304          0.0426778895      35.7979757      0.965071356      -179.62303      0.965006913     -179.622238     0.0447490212      40.7737663
3.27254617          0.0425945397      35.6152688      0.965070255     -179.644783      0.965003618     -179.643866     0.0446409037      40.6001668
3.28993118          0.0425118646      35.4327094       0.96506906     -179.666524      0.965000215     -179.665482     0.0445336496      40.4266494
3.30740853          0.0424298594       35.250299      0.965067769     -179.688254      0.964996705     -179.687086     0.0444272533      40.2532178
3.32497874          0.0423481932      35.0696828      0.965065502     -179.709934      0.964993075     -179.708642     0.0443234256      40.0793575
3.34264228          0.0422660349      34.8949457      0.965060077     -179.731465      0.964989295     -179.730058     0.0442264221      39.9038096
3.36039967          0.0421844941      34.7204184      0.965054539     -179.752986      0.964985411     -179.751465     0.0441303084      39.7283822
3.37825138          0.0421035658      34.5461025      0.965048888     -179.774498      0.964981421     -179.772861     0.0440350787      39.5530795
3.39619793          0.0420278652      34.3724338      0.965045414     -179.796131      0.964979428     -179.794409     0.0439345921      39.3735342
3.41423982          0.0419614794      34.1998716      0.965046143     -179.817999      0.964981292      -179.81625     0.0438234328      39.1857536
3.43237755          0.0418957514      34.0276406      0.965046786     -179.839862       0.96498308     -179.838086     0.0437130966      38.9978651
3.45061164          0.0418306763      33.8557435      0.965047344     -179.861719      0.964984791     -179.859916     0.0436035783      38.8098707
3.46894259          0.0417634428       33.675673      0.965048754     -179.883622      0.964982626     -179.881657     0.0435025338      38.6274004
3.48737093          0.0416945802      33.4888239      0.965050863      -179.90556       0.96497724     -179.903325     0.0434086112      38.4496001
3.50589716          0.0416263965      33.3021442      0.965052907     -179.927497      0.964971748     -179.924988     0.0433155243      38.2718982
3.52452181          0.0415588873       33.115636      0.965054886     -179.949432      0.964966148     -179.946648     0.0432232677      38.0942982
3.54324541          0.0414929658       32.932749      0.965056018     -179.971135      0.964963236     -179.968312      0.043125978      37.9123858
3.56206847          0.0414278937      32.7508041      0.965056912     -179.992788       0.96496082     -179.989975     0.0430282557      37.7295594
3.58099152          0.0413634719      32.5690795      0.965057734       179.98556      0.964958312      179.988363     0.0429313303      37.5467454
3.6000151            0.041297418      32.3926021      0.965057329      179.963828      0.964955198      179.966542     0.0428349113      37.3653216
3.61913974          0.0412211058       32.240236      0.965051367      179.941707      0.964949548      179.943954     0.0427379057      37.1904658
3.63836598          0.0411452399      32.0882537      0.965045298      179.919583      0.964943795      179.921362     0.0426416428      37.0156983
3.65769436           0.041069815      31.9366564      0.965039122      179.897456      0.964937939      179.898764     0.0425461171      36.8410217
3.67712542          0.0410063664      31.7711383      0.965038664      179.875895      0.964934067      179.877043     0.0424569696      36.6737367
3.6966597           0.0409514577      31.5961004      0.965042154      179.854725      0.964931544      179.855929      0.042372442      36.5117127
3.71629775          0.0408971809        31.42138      0.965045593      179.833556      0.964928937      179.834815     0.0422886431      36.3499647
3.73604013          0.0408430687       31.249047      0.965047323        179.8124      0.964925453      179.813746     0.0422060766      36.1879748
3.75588739          0.0407839465      31.1019692      0.965029018      179.791421      0.964912344      179.793213     0.0421303733      36.0199988
3.77584008          0.0407253126      30.9553994      0.965010551      179.770441        0.9648991      179.772682     0.0420554388      35.8522953
3.79589878          0.0406671624      30.8093395      0.964991921      179.749459      0.964885722      179.752152     0.0419812678      35.6848684
3.81606403          0.0406395045      30.6452715      0.965011038      179.729137      0.964908964      179.731406     0.0419209962      35.4983155
3.8363364           0.0406305629      30.4707481      0.965052922      179.709213      0.964954305      179.710528     0.0418695267      35.3003551
3.85671647          0.0406224504      30.2968741      0.965094964       179.68929      0.964999822      179.689646     0.0418190395      35.1025797
3.87720481          0.0405996482      30.1165047      0.965128674      179.668443      0.965035174      179.668068     0.0417558384      34.8949375
3.89780199          0.0405274671      29.9132566      0.965135026      179.644599      0.965037178      179.644245     0.0416493702      34.6544846
3.91850859          0.0404558669      29.7099018      0.965141325      179.620735      0.965039104      179.620403      0.041543762      34.4133231
3.93932519          0.0403848442      29.5064402       0.96514757      179.596851      0.965040954       179.59654     0.0414390119      34.1714515
3.96025237          0.0403140289      29.3165578      0.965136573      179.573988      0.965028045      179.574063     0.0413429218      34.0006824
3.98129073          0.0402436971      29.1280828      0.965123688      179.551216      0.965013495      179.551716     0.0412482035      33.8373753
4.00244085          0.0401738803      28.9396208      0.965110671      179.528428      0.964998802      179.529355     0.0411540399      33.6742283
4.02370333          0.0401055553      28.7534816      0.965098414      179.505729      0.964985702      179.507046      0.041061708      33.5111787
4.04507877          0.0400490296      28.5941933      0.965096378      179.484253       0.96499255      179.485498     0.0409847702      33.3475999
4.06656775          0.0399929586      28.4352443      0.965094273      179.462764      0.964999376      179.463939     0.0409084616      33.1842814
4.0881709           0.0399373381      28.2766353      0.965092098      179.441264      0.965006181      179.442368     0.0408327772       33.021226
4.10988881           0.039882164      28.1183671      0.965089854      179.419752      0.965012965      179.420783     0.0407577118      32.8584363
4.13172209          0.0398265083      27.9583619      0.965087758      179.397957      0.965011896      179.399199      0.040691155      32.6708408
4.15367137          0.0397708152       27.797599      0.965085706      179.376007       0.96500669      179.377606     0.0406294721      32.4703133
4.17573724          0.0397155603      27.6371523      0.965083585       179.35404      0.965001398      179.355999     0.0405685999      32.2698202
4.19792033          0.0396607395      27.4770225      0.965081393      179.332055      0.964996021      179.334376     0.0405085344      32.0693652
4.22022128          0.0396083603      27.3123343      0.965077568      179.310148       0.96498902       179.31255     0.0404440195      31.8826735
4.24264069           0.039560398      27.1383898      0.965070601      179.288413      0.964978912      179.290341     0.0403698813      31.7230087
4.2651792           0.0395129453      26.9647006      0.965063543       179.26666      0.964968696      179.268113     0.0402963063      31.5636265
4.28783744          0.0394659984      26.7912676      0.965056393      179.244889      0.964958371      179.245864     0.0402232897      31.4045293
4.31061606          0.0394185364      26.6209671      0.965049605      179.223045      0.964948474      179.223599     0.0401521293      31.2426254
4.33351568          0.0393636695      26.4731127       0.96504622      179.200766       0.96494261      179.201344     0.0400916209      31.0571311
4.35653696          0.0393091568      26.3256445      0.965042763      179.178465       0.96493666      179.179066     0.0400318081      30.8717758
4.37968053          0.0392549939      26.1785629      0.965039236       179.15614      0.964930624      179.156765     0.0399726869      30.6865625
4.40294705           0.039201177      26.0318681      0.965035637      179.133792      0.964924502      179.134441     0.0399142531      30.5014938
4.42633717           0.039164373      25.8653771      0.965039486      179.111945      0.964925022      179.113275     0.0398525446      30.3218226
4.44985155          0.0391283413      25.6989099      0.965043426      179.090083      0.964925603       179.09211     0.0397914119      30.1423995
4.47349084          0.0390928103      25.5327933      0.965047335      179.068199      0.964926137      179.070926     0.0397309142      29.9631421
4.49725572          0.0390577765      25.3670283      0.965051214      179.046291      0.964926623      179.049722     0.0396710475      29.7840527
4.52114684          0.0390146959      25.1977295      0.965042425      179.024165      0.964917188      179.027012      0.039605552      29.6111249
4.54516488          0.0389715407       25.028454      0.965032754      179.002001       0.96490704      179.004181     0.0395402343       29.438746
4.56931052          0.0389288352        24.85944      0.965022983      178.979811      0.964896789      178.981321     0.0394754758      29.2665465
4.59358442           0.038886576      24.6906881      0.965013111      178.957594      0.964886433       178.95843     0.0394112721      29.0945281
4.61798728          0.0388433691      24.5145238      0.965002497      178.935936      0.964878164      178.937254     0.0393502854      28.9228474
4.64251978          0.0388006112      24.3384209      0.964991769      178.914263      0.964869838      178.916084     0.0392899026      28.7513734
4.6671826           0.0387583221      24.1625044      0.964980936      178.892564      0.964861421      178.894891     0.0392300759      28.5801055
4.69197644          0.0387166801       23.989065       0.96497183      178.870767      0.964854358      178.873527     0.0391721977      28.4085281
4.71690199          0.0386769613      23.8349097      0.964977868      178.848349      0.964859242      178.850911        0.0391265      28.2329006
4.74195996          0.0386376208      23.6811093      0.964983893      178.825899      0.964864108      178.828262     0.0390814313      28.0575419
4.76715104          0.0385986551      23.5276638      0.964989906      178.803418      0.964868956       178.80558     0.0390369874      27.8824545
4.79247595          0.0385598245      23.3729608      0.964990944       178.78097      0.964868213      178.782953     0.0389863436      27.7083971
4.8179354           0.0385208459       23.214987      0.964980822      178.758637      0.964854934      178.760489     0.0389209931      27.5362119
4.84353009          0.0384822502      23.0573335      0.964970602      178.736272      0.964841539      178.737991     0.0388561297      27.3641612
4.86926076          0.0384440341      22.9000003      0.964960281      178.713874      0.964828027       178.71546     0.0387917494      27.1922458
4.89512811          0.0384071276       22.746598      0.964951302      178.691314      0.964819621      178.693023     0.0387286111      27.0155541
4.92113289           0.038371244      22.5961123      0.964943252      178.668628      0.964814827      178.670643     0.0386665162      26.8354766
4.9472758           0.0383357172      22.4460009      0.964935115      178.645906      0.964809963      178.648228     0.0386049286      26.6554755
4.97355761          0.0383005438      22.2962636       0.96492689      178.623148      0.964805028      178.625779     0.0385438446      26.4755513
4.99997902          0.0382608931      22.1347677      0.964919392       178.60012      0.964794682      178.602347     0.0384931475      26.2986851
5.0265408           0.0382212621      21.9726635      0.964911867      178.577037      0.964783861      178.578806     0.0384436848      26.1222108
5.05324369          0.0381819875      21.8107994      0.964904259      178.553913       0.96477294      178.555223      0.038394759      25.9459239
5.08008843          0.0381486075       21.645558      0.964901258      178.531023      0.964768032      178.531929     0.0383528151      25.7664133
5.10707578           0.038125854      21.4739364      0.964906853      178.508599      0.964774331      178.509206     0.0383233515      25.5808642
5.1342065           0.0381035717      21.3026036      0.964912435      178.486137      0.964780621      178.486444      0.038294545      25.3955791
5.16148135           0.038081758      21.1315602      0.964918005      178.463636      0.964786902      178.463642     0.0382663924      25.2105608
5.18890109          0.0380494468      20.9703508      0.964915584       178.44058      0.964777164      178.440797     0.0382169215      25.0469463
5.2164665           0.0380153598      20.8112728      0.964911552       178.41738      0.964764206       178.41791     0.0381636102       24.887719
5.24417834           0.037981623      20.6524627       0.96490746      178.394136      0.964751142      178.394982     0.0381107206      24.7287577
5.2720374           0.0379504237      20.4959669      0.964900357      178.370989      0.964742515      178.371775     0.0380596947      24.5636612
5.30004446          0.0379230648      20.3430523      0.964888462      178.348022      0.964741059      178.348147     0.0380114344      24.3885628
5.3282003           0.0378960579      20.1904828      0.964876464      178.325011      0.964739555      178.324472     0.0379636546      24.2136276
5.35650571          0.0378694002       20.038258      0.964864362      178.301956      0.964738002      178.300749     0.0379163518      24.0388566
5.3849615           0.0378401795      19.8854403      0.964871595      178.277674      0.964734242      178.277464     0.0378783581      23.8718742
5.41356845          0.0378112755       19.732933      0.964878895      178.253335      0.964730416      178.254134     0.0378408873      23.7052084
5.44232737          0.0377826952      19.5807387      0.964886198      178.228944      0.964726533      178.230756     0.0378039057      23.5388343
5.47123907          0.0377458741      19.4388685      0.964882865      178.205287      0.964720877      178.207167     0.0377658755      23.3679409
5.50030437           0.037705009      19.3023196       0.96487416      178.181974      0.964714299      178.183447     0.0377275726      23.1948833
5.52952406          0.0376643489      19.1661003      0.964865372      178.158613      0.964707649      178.159676     0.0376897609      23.0220512
5.55889899          0.0376238906      19.0302097      0.964856501      178.135203      0.964700928      178.135854      0.037652437      22.8494454
5.58842996          0.0375981571      18.8928897       0.96485239      178.111343      0.964693299      178.112016     0.0376162262      22.6685626
5.61811781          0.0375754796      18.7556534      0.964849147      178.087355      0.964685432      178.088134     0.0375806514      22.4862209
5.64796338          0.0375530903      18.6188436       0.96484585      178.063313      0.964677487      178.064199     0.0375455927       22.304039
5.6779675           0.0375309862      18.4824597      0.964842498      178.039217      0.964669463       178.04021     0.0375110471      22.1220181
5.70813101          0.0375058994      18.3326719      0.964836392      178.015209       0.96465966      178.016256     0.0374757412      21.9483099
5.73845476          0.0374766042      18.1638947      0.964826455      177.991347      0.964647402       177.99237       0.03743912      21.7861749
5.7689396           0.0374476559      17.9952638       0.96481643      177.967429      0.964635045      177.968429     0.0374029227      21.6243204
5.79958639          0.0374190522      17.8267784      0.964806319      177.943457      0.964622589      177.944434      0.037367146      21.4627469
5.83039599          0.0373914636      17.6616371      0.964796963      177.919498      0.964611056      177.920421     0.0373322213       21.301597
5.86136926          0.0373703423      17.5260983      0.964795272      177.896106      0.964608832      177.896706     0.0373017048       21.142054
5.89250707          0.0373494922      17.3909625      0.964793541      177.872662      0.964606564      177.872935     0.0372716196      20.9828368
5.9238103           0.0373289107      17.2562288      0.964791769      177.849164      0.964604253      177.849109     0.0372419623      20.8239461
5.95527982          0.0373085951      17.1218965      0.964789956      177.825611      0.964601898      177.825227       0.03721273      20.6653824
5.98691652          0.0372868264      16.9771724      0.964776782      177.800958      0.964589893      177.800712     0.0371665926      20.5005704
6.01872128          0.0372650915       16.831227      0.964761884      177.776094      0.964576414      177.776055     0.0371183197        20.33496
6.05069501          0.0372436343      16.6855956      0.964746873      177.751168       0.96456283      177.751337      0.037070378      20.1694773
6.08283859          0.0372224521       16.540277      0.964731749      177.726178      0.964549141      177.726556     0.0370227643      20.0041214
6.11515293          0.0371986516      16.3941096      0.964725456      177.701262       0.96454031      177.701771     0.0369952712      19.8341597
6.14763893          0.0371741139      16.2478164      0.964722182      177.676329      0.964533114      177.676942     0.0369750494      19.6628323
6.18029752          0.0371498292      16.1017899      0.964718859      177.651332      0.964525848      177.652048     0.0369553087      19.4917873
6.21312959           0.037125795      15.9560286      0.964715487      177.626269      0.964518513       177.62709     0.0369360463      19.3210255
6.24613609           0.037104132      15.8377175      0.964722326      177.599463      0.964521695      177.600299     0.0369254184       19.168493
6.27931793          0.0370835314      15.7314663       0.96473355      177.571868      0.964529381      177.572678     0.0369187208      19.0240769
6.31267604          0.0370630725      15.6257535      0.964744807      177.544191       0.96453708      177.544977     0.0369124787      18.8801808
6.34621136          0.0370427526      15.5205781      0.964756099      177.516434      0.964544794      177.517194     0.0369066894      18.7368049
6.37992484          0.0370152347      15.3866349      0.964749899      177.490775      0.964541976       177.49149     0.0368842127      18.5867972
6.41381741           0.036985384      15.2428543      0.964737591      177.465798      0.964535476      177.466461     0.0368562021      18.4346642
6.44789003           0.036955731      15.0992789      0.964725188      177.440754      0.964528912      177.441364     0.0368285412      18.2828403
6.48214367          0.0369262732      14.9559069      0.964712691      177.415641      0.964522286      177.416198     0.0368012272      18.1313254
6.51657926          0.0369064723      14.8002172       0.96470344      177.390175      0.964509889      177.390691     0.0367774405      17.9694561
6.5511978           0.0368884025      14.6428069      0.964694623      177.364595      0.964496522      177.365071     0.0367545326      17.8062187
6.58600024          0.0368706233      14.4855859       0.96468573      177.338942      0.964483054      177.339379     0.0367320183       17.643238
6.62098756          0.0368528534       14.329656      0.964676797       177.31323      0.964469874      177.313635     0.0367091841       17.480771
6.65616075          0.0368315701      14.1888053      0.964668283      177.287635      0.964461864      177.288112     0.0366771282      17.3219938
6.6915208           0.0368105015      14.0482071      0.964659694      177.261966      0.964453782      177.262516     0.0366453929      17.1634225
6.72706869          0.0367896454      13.9078599      0.964651032      177.236223      0.964445629      177.236846     0.0366139755      17.0050563
6.76280542          0.0367715696      13.7690097      0.964644348      177.210324      0.964438754       177.21092     0.0365857284      16.8399755
6.798732            0.0367585832      13.6328174      0.964641494      177.184197      0.964434375      177.184572     0.0365632687      16.6619526
6.83484944          0.0367458278      13.4969432      0.964638595      177.157992      0.964429942      177.158145     0.0365412249      16.4840591
6.87115874          0.0367333014      13.3613857      0.964635649      177.131709      0.964425456      177.131638     0.0365195949      16.3062948
6.90766094          0.0367166915      13.2205573      0.964627688       177.10538      0.964411986      177.105491     0.0365017108      16.1435163
6.94435705           0.036698404      13.0775099      0.964617462      177.078987      0.964394475      177.079459     0.0364856709      15.9875561
6.9812481           0.0366803338      12.9346887      0.964607158      177.052513      0.964376845      177.053349     0.0364699987      15.8318979
7.01833513          0.0366626432      12.7926007      0.964595513         177.026      0.964359535      177.027121     0.0364529981      15.6752221
7.05561918          0.0366464629      12.6547827      0.964573782      176.999734      0.964345581      177.000508     0.0364229308      15.5083006
7.0931013           0.0366304879      12.5172256      0.964551906      176.973387      0.964331522      176.973812      0.036393179      15.3414916
7.13078254          0.0366147163      12.3799278      0.964529884       176.94696      0.964317359      176.947033     0.0363637402      15.1747939
7.16866395          0.0366013642      12.2430461       0.96451838      176.920338      0.964305994      176.920409     0.0363370496       15.014958
7.2067466           0.0365897247      12.1065442      0.964514012      176.893556      0.964296509      176.893863     0.0363123041       14.859877
7.24503157          0.0365783011      11.9703177      0.964509595       176.86669      0.964286947      176.867234      0.036287852      14.7050089
7.28351992          0.0365655885      11.8334849      0.964504518      176.839795      0.964277405      176.840492     0.0362649855      14.5503288
7.32221273          0.0365442528      11.6916997      0.964495799      176.813147       0.96426835      176.813493     0.0362500283      14.3957541
7.36111109          0.0365230907      11.5500748      0.964487009      176.786414       0.96425922      176.786407     0.0362354054       14.241452
7.4002161           0.0365021002      11.4086083      0.964478147      176.759596      0.964250016      176.759234     0.0362211149      14.0874217
7.43952885           0.036483305      11.2693837      0.964463029      176.732409      0.964239341      176.732131     0.0362021942      13.9402577
7.47905044          0.0364653339        11.13102       0.96444581      176.705043      0.964228135       176.70499     0.0361819548      13.7954961
7.51878198          0.0364475338      10.9928489      0.964428476      176.677587      0.964216847      176.677762     0.0361619839       13.651015
7.5587246           0.0364400168       10.857488      0.964417513      176.649836      0.964205356      176.650233     0.0361460926      13.4907249
7.5988794           0.0364463045      10.7259665      0.964415185      176.621717      0.964193619      176.622331     0.0361356915      13.3090229
7.63924752          0.0364528628      10.5948255      0.964412818      176.593503      0.964181791      176.594335     0.0361257105      13.1274352
7.6798301           0.0364596901      10.4640637       0.96441041      176.565194      0.964169873      176.566245      0.036116148      12.9459614
7.72062826          0.0364549309      10.3235978      0.964401954      176.537056      0.964159449      176.538282     0.0360993047      12.7848978
7.76164316          0.0364424812      10.1765956      0.964389407      176.509001      0.964150005      176.510373      0.036077603      12.6375842
7.80287594          0.0364302415      10.0297392       0.96437677      176.480852      0.964140488       176.48237     0.0360561453      12.4904931
7.84432777            0.03641821      9.88302665      0.964364042      176.452608      0.964130896      176.454272     0.0360349294      12.3436232
7.88599981          0.0364054407      9.73748791      0.964350663      176.424301      0.964121076      176.426022      0.036015558      12.1942114
7.92789322          0.0363885009      9.59683829      0.964334597      176.396055      0.964110463      176.397418     0.0360038673      12.0322828
7.97000919          0.0363717192       9.4563238       0.96431842      176.367713      0.964099769      176.368715     0.0359925032      11.8705389
8.01234889          0.0363550938      9.31594226      0.964302133      176.339272      0.964088992      176.339912      0.035981464      11.7089785
8.05491352          0.0363386232      9.17569144      0.964285733      176.310733      0.964078133      176.311009     0.0359707481      11.5476007
8.09770427          0.0363308964      9.03617808      0.964276531      176.282023      0.964063691       176.28202     0.0359566977      11.3891384
8.14072234          0.0363247853       8.8969607      0.964268465      176.253201      0.964048569      176.252932     0.0359423346      11.2312948
8.18396893          0.0363188746      8.75794227      0.964260332      176.224277      0.964033343       176.22374     0.0359282582      11.0736165
8.22744527          0.0363131626      8.61912097      0.964252132       176.19525      0.964018012      176.194445     0.0359144667      10.9161022
8.27115257          0.0363089133      8.48214808      0.964241314      176.165922       0.96400473      176.165024     0.0359016467       10.757209
8.31509206          0.0363055893      8.34634036      0.964228945      176.136375      0.963992595      176.135485     0.0358895126       10.597587
8.35926498          0.0363024622      8.21075054      0.964216486       176.10672      0.963980372      176.105839     0.0358776689      10.4381201
8.40367256          0.0362995306      8.07537679      0.964203937      176.076959       0.96396806      176.076087     0.0358661141       10.278807
8.44831604          0.0362991277      7.94828859      0.964193546      176.046787      0.963959255      176.046139     0.0358560566      10.1228446
8.49319669          0.0363011999       7.8294407      0.964185297      176.016205      0.963953928      176.015996     0.0358474726      9.97021987
8.53831577          0.0363034433      7.71091815      0.964176982       175.98551       0.96394855      175.985743     0.0358391689       9.8177972
8.58367453          0.0363058564      7.59271918      0.964168601      175.954701      0.963943122      175.955378     0.0358311439      9.66557526
8.62927426           0.036302785      7.45564438      0.964154431      175.924287      0.963935244      175.925164     0.0358228347       9.5109929
8.67511622          0.0362933281      7.29626964      0.964133467      175.894354      0.963924497      175.895145     0.0358141534      9.35359488
8.72120172          0.0362840933      7.13690219      0.964112367      175.864311      0.963913668      175.865016     0.0358057558      9.19635535
8.76753205          0.0362750793      6.97753987      0.964091131      175.834157      0.963902758      175.834774     0.0357976404      9.03927289
8.81410849          0.0362629269      6.83319825      0.964078188      175.803593      0.963889311      175.804296     0.0357914358      8.88627885
8.86093237          0.0362475931      6.70373662      0.964073479      175.772621      0.963873347      175.773582     0.0357871118      8.73735959
8.908005             0.036232352      6.57439788      0.964068723      175.741532      0.963857277      175.742753     0.0357830611      8.58865776
8.95532769          0.0362172018      6.44517958       0.96406392      175.710325      0.963841101      175.711806     0.0357792822      8.44017192
9.00290178          0.0362150766      6.31227414      0.964048446      175.679237      0.963823454      175.680719     0.0357744142      8.28455058
9.0507286           0.0362208207      6.17731549      0.964026542      175.648173       0.96380488      175.649498     0.0357690247      8.12471492
9.09880949          0.0362267771       6.0425814      0.964004502      175.616989      0.963786185      175.618158     0.0357639235      7.96501222
9.14714581          0.0362329445      5.90807013      0.963982323      175.585687      0.963767369      175.586697     0.0357591092      7.80544099
9.19573891          0.0362271718      5.76855526       0.96397955      175.553938      0.963758945      175.554898      0.035762101      7.64774877
9.24459015          0.0362190448      5.62805066      0.963980779      175.521998      0.963752626      175.522932     0.0357669642      7.49061363
9.29370091          0.0362110612      5.48761861      0.963981994      175.489934      0.963746252      175.490841     0.0357721511      7.33368018
9.34307257           0.036208665      5.32081249      0.963970676      175.460134      0.963725626       175.46102     0.0357768283      7.15051765
9.3927065             0.03625355      4.93008692      0.963853021      175.450497      0.963584361      175.451415     0.0357755795      6.74306451
9.44260411          0.0363004703      4.53921066      0.963734681      175.440853      0.963442285      175.441804     0.0357761041      6.33445137
9.4927668            0.036349436      4.14822217      0.963615651      175.431202      0.963299394      175.432186      0.035778417      5.92470771
9.54319596          0.0363806664      3.87679034      0.963544713      175.411184      0.963215425      175.412286     0.0357781592       5.6295216
9.59389303          0.0363888095      3.74924188      0.963532134      175.378624      0.963202948      175.379947     0.0357733209      5.47308216
9.64485942          0.0363971283      3.62191666      0.963519468      175.345935      0.963190385      175.347479     0.0357687295      5.31675246
9.69609656          0.0364056216      3.49481265      0.963506714      175.313116      0.963177734      175.314883     0.0357643837      5.16053066
9.74760589          0.0364136797      3.35697995      0.963494824      175.280245      0.963161598      175.281962     0.0357645343      5.00253572
9.79938886          0.0364218482      3.21769724      0.963482991      175.247254      0.963144856      175.248881     0.0357655814      4.84439178
9.85144692          0.0364302168      3.07856287      0.963471076      175.214131      0.963128004      175.215668     0.0357669028      4.68637461
9.90378154          0.0364339847      2.94078129      0.963456895      175.180876      0.963110759      175.182366     0.0357686819       4.5291431
9.95639417          0.0364292402      2.80527162      0.963438677      175.147487      0.963092888      175.149013     0.0357710654      4.37323529
10.0092863          0.0364246098      2.66983917      0.963420341      175.113964        0.9630749      175.115525     0.0357737215      4.21746135
10.0624594          0.0364200995       2.5344807      0.963401883      175.080305      0.963056793      175.081902     0.0357766471       4.0618144
10.115915            0.036420368      2.39860869      0.963384154      175.046648      0.963039034       175.04813     0.0357854345      3.90678113
10.1696546          0.0364212638      2.26276579        0.9633664      175.012869      0.963021209      175.014219     0.0357950998      3.75197242
10.2236796          0.0364223009      2.12701261      0.963348532      174.978953      0.963003271       174.98017     0.0358050616      3.59733865
10.2779917          0.0364257253      1.99307372      0.963329611       174.94476      0.962985584      174.945964     0.0358077388      3.44124785
10.3325923          0.0364314021      1.86087193      0.963309687      174.910299      0.962968126      174.911602     0.0358035631      3.28371161
10.3874829          0.0364372297      1.72880072      0.963289639      174.875696      0.962950557      174.877098     0.0357996131      3.12622481
10.4426651          0.0364423828      1.59527595      0.963269775      174.840992      0.962932455       174.84247     0.0357967088      2.96932328
10.4981405          0.0364441057       1.4549638      0.963251137      174.806328      0.962912413      174.807774     0.0357976027      2.81482996
10.5539106          0.0364459767      1.31470388      0.963232382      174.771521      0.962892245      174.772934     0.0357987346      2.66042466
10.609977            0.036447995      1.17449392      0.963213507      174.736569       0.96287195       174.73795     0.0358001039      2.50610542
10.6663412          0.0364506646      1.03694216      0.963194729      174.701343      0.962851163      174.702775     0.0358040715      2.34908255
10.7230048          0.0364543696     0.904115892      0.963176219      174.665743      0.962829597      174.667372      0.035812518      2.18718405
10.7799695          0.0364582047      0.77138012       0.96315759      174.629994      0.962807896      174.631821     0.0358212559       2.0253742
10.8372368           0.036462169     0.638732584      0.963138844      174.594094      0.962786061       174.59612     0.0358302848      1.86365137
10.8948083          0.0364662612     0.506171044      0.963119978      174.558043      0.962764091      174.560269     0.0358396041      1.70201392
10.9526856          0.0364685207     0.367518085      0.963100998      174.522269      0.962745033      174.524534      0.035849709      1.55368843
11.0108704           0.036470785     0.228494152        0.9630819      174.486372      0.962726057      174.488665     0.0358601012      1.40638299
11.0693643           0.036473182    0.0895007915      0.963062683      174.450324      0.962706963      174.452645     0.0358707465      1.25922957
11.128169           0.0364757108   -0.0494643625      0.963043347      174.414122       0.96268775      174.416472      0.035881644      1.11222638
11.187286           0.0364769504    -0.186519865      0.963020199      174.377517      0.962665567      174.379916     0.0358889991     0.957574874
11.2467171          0.0364774255    -0.322388049      0.962994625      174.340602      0.962641484       174.34306     0.0358942648     0.798173672
11.3064639          0.0364780072    -0.458233922      0.962968897      174.303528      0.962617254      174.306047     0.0358997826     0.638813646
11.3665281          0.0364786943     -0.59405998      0.962943014      174.266296      0.962592877      174.268876     0.0359055521     0.479492885
11.4269114          0.0364830966    -0.730278659      0.962918307       174.22926      0.962566755      174.231771     0.0359119971     0.318608017
11.4876155          0.0364931726    -0.867070822      0.962895497      174.192612      0.962538023      174.194854     0.0359193549     0.155298143
11.5486421          0.0365034063     -1.00379348      0.962872547      174.155807       0.96250912      174.157778     0.0359269807  -0.00798844785
11.6099928           0.036513797     -1.14044872      0.962849457      174.118843      0.962480045      174.120543     0.0359348741    -0.171253551
11.6716695          0.0365233048     -1.27585254      0.962826767      174.081511      0.962453449      174.083057     0.0359445287    -0.333763726
11.7336738          0.0365300484     -1.40789077      0.962805455       174.04343      0.962434111      174.045161     0.0359586279    -0.494173877
11.7960075          0.0365369089     -1.53987445      0.962784012      174.005183      0.962414652      174.007099     0.0359730149    -0.654516368
11.8586724          0.0365438855     -1.67180589      0.962762437      173.966769      0.962395072      173.968872     0.0359876892    -0.814792872
11.9216702          0.0365503551     -1.80656514      0.962739835      173.928228      0.962374055      173.930476     0.0360027359    -0.972501598
11.9850026          0.0365547669     -1.95143793      0.962713945      173.889659      0.962348279      173.891905     0.0360183513     -1.12131794
12.0486714          0.0365593129     -2.09634726      0.962687901      173.850921      0.962322349      173.853165     0.0360342246     -1.27001845
12.1126785          0.0365639922     -2.24129557      0.962661702      173.812013      0.962296265      173.814256     0.0360503555     -1.41860495
12.1770257          0.0365708249     -2.38250097      0.962635994      173.772953      0.962270892      173.775172     0.0360666697     -1.56923629
12.2417146          0.0365834284      -2.5131162      0.962611942      173.733774      0.962247785      173.735911     0.0360830477      -1.7257997
12.3067473          0.0365961644     -2.64365715      0.962587745      173.694421       0.96222454      173.696477     0.0360997022     -1.88229322
12.3721254          0.0366090318     -2.77412597      0.962563404      173.654895      0.962201155      173.656868     0.0361166331      -2.0387186
12.4378508          0.0366177626     -2.90480728      0.962538729      173.615024      0.962179068      173.616946     0.0361337437     -2.19098128
12.5039253          0.0366198364     -3.03591877      0.962513607      173.574708      0.962159128      173.576629     0.0361509577     -2.33667337
12.5703509          0.0366219796     -3.16703901      0.962488337      173.534212      0.962139068      173.536133     0.0361684183     -2.48225907
12.6371294          0.0366241909     -3.29817057      0.962462919      173.493536      0.962118887      173.495456     0.0361861252     -2.62774027
12.7042626           0.036634067     -3.43176644      0.962436163       173.45275      0.962095316      173.454778     0.0362005448     -2.77784174
12.7717524          0.0366493725     -3.56703636      0.962408419      173.411832      0.962069319      173.414043     0.0362127367     -2.93119438
12.8396008           0.036664823     -3.70225979      0.962380513      173.370731      0.962043169      173.373126     0.0362251634     -3.08452037
12.9078096          0.0366804175     -3.83743877      0.962352444      173.329446      0.962016865      173.332025     0.0362378244     -3.23782168
12.9763808          0.0366937143     -3.97133183      0.962326774      173.288275      0.961989183      173.290897     0.0362580336     -3.39725511
13.0453162          0.0367067581     -4.10500354      0.962301351      173.246966      0.961961149      173.249609     0.0362796718     -3.55759766
13.1146179          0.0367199258     -4.23864998      0.962275777      173.205471       0.96193295      173.208135     0.0363016077     -3.71789358
13.1842877          0.0367327652     -4.37353652      0.962249504      173.163739      0.961904598      173.166429     0.0363230789     -3.87710537
13.2543276          0.0367440737     -4.51306001      0.962221063      173.121641      0.961876126      173.124373     0.0363420308     -4.03246616
13.3247396           0.036755507     -4.65260494      0.962192457      173.079351      0.961847487      173.082125     0.0363612482     -4.18779164
13.3955257          0.0367670642     -4.79217359      0.962163684       173.03687      0.961818682      173.039686     0.0363807309     -4.34308361
13.4666878          0.0367807742     -4.93053603      0.962134666      172.994457      0.961787354      172.997127     0.0364012558     -4.50030895
13.5382279          0.0367957979     -5.06818398      0.962105433      172.952004      0.961754471      172.954416     0.0364225105     -4.65865043
13.6101481          0.0368109553     -5.20583102      0.962076031      172.909358      0.961721399       172.91151      0.036444046      -4.8169666
13.6824504          0.0368255983     -5.34392712      0.962046732      172.866514      0.961688671       172.86844     0.0364659193     -4.97411066
13.7551367          0.0368354632     -5.48544704      0.962019342      172.823455      0.961659802      172.825421     0.0364884923     -5.12251817
13.8282092          0.0368454404     -5.62702871      0.961991794        172.7802      0.961630766      172.782204     0.0365113227      -5.2708641
13.9016699          0.0368555289      -5.7686745      0.961964086      172.736745      0.961601563       172.73879     0.0365344102     -5.41915026
13.9755208          0.0368706389     -5.91094622      0.961930872       172.69317      0.961569183      172.695292     0.0365564316     -5.58685587
14.0497641          0.0368883623     -6.05352877      0.961894773      172.649433      0.961535101      172.651651     0.0365781073     -5.76439988
14.1244017          0.0369062382     -6.19613532      0.961858467      172.605495      0.961500822       172.60781     0.0366001151     -5.94202009
14.1994359           0.036923521     -6.33864571      0.961824001      172.561301      0.961465454        172.5637     0.0366211994     -6.11356541
14.2748687           0.036938994     -6.48087514      0.961794718      172.516763      0.961427549      172.519214     0.0366392717      -6.2690503
14.3507022          0.0369545999     -6.62315171      0.961765265      172.472019       0.96138943      172.474523     0.0366575863     -6.42455511
14.4269385          0.0369703379     -6.76547762      0.961735644      172.427067      0.961351096      172.429625     0.0366761432     -6.58008173
14.5035799          0.0369840136     -6.89901099      0.961703189      172.381866      0.961319702      172.384518     0.0367039339     -6.73875693
14.5806284          0.0369976592     -7.03207733        0.9616704      172.336453       0.96128853      172.339203     0.0367325276     -6.89758481
14.6580862          0.0370113951     -7.16517194      0.961637425      172.290828       0.96125718      172.293676      0.036761424     -7.05639117
14.7359555          0.0370253506     -7.30003767      0.961603514      172.244994      0.961225004      172.247926     0.0367900266     -7.21508829
14.8142385          0.0370403817     -7.44777757      0.961563885      172.198968      0.961187865      172.201872     0.0368145243      -7.3731269
14.8929373          0.0370555461     -7.59560786      0.961524033      172.152726      0.961150518      172.155603     0.0368392969     -7.53117855
14.9720542          0.0370708432     -7.74353075      0.961483958      172.106269      0.961112959      172.109118     0.0368643446     -7.68924491
15.0515914           0.037086272     -7.89154845      0.961443658      172.059594       0.96107519      172.062415     0.0368896678     -7.84732767
15.1315512          0.0371037768      -8.0325148      0.961407566      172.012846      0.961041282      172.015599     0.0369190013     -8.00902227
15.2119357          0.0371224402     -8.16970419      0.961373649      171.965956      0.961009367       171.96862     0.0369506459     -8.17264346
15.2927473          0.0371412181     -8.30693169      0.961339539      171.918847      0.960977271      171.921421     0.0369826121     -8.33626692
15.3739881          0.0371601094     -8.44419946      0.961305237      171.871515      0.960944993      171.873999     0.0370149003     -8.49989401
15.4556606          0.0371788598     -8.58146729      0.961270219       171.82375      0.960912441      171.826194     0.0370455109     -8.66127097
15.5377669          0.0371970865     -8.71867622      0.961233697      171.775232      0.960879478      171.777763     0.0370714298      -8.8170557
15.6203094          0.0372154153     -8.85593483      0.961196972      171.726485      0.960846332      171.729103     0.0370976129     -8.97286733
15.7032904           0.037233845     -8.99324531      0.961160043      171.677508      0.960812999      171.680213     0.0371240605      -9.1287076
15.7867122          0.0372524823     -9.13061643       0.96112293      171.628311       0.96077935      171.631101      0.037150912     -9.28469649
15.8705772          0.0372763675     -9.26834025      0.961086689      171.579474      0.960739315      171.582247     0.0371846849     -9.44633835
15.9548877          0.0373003809     -9.40608768      0.961050246      171.530405      0.960699058      171.533161     0.0372187754     -9.60798958
16.0396461          0.0373245216     -9.54386068      0.961013599      171.481104      0.960658577      171.483842      0.037253184     -9.76965161
16.1248548          0.0373487882     -9.68166121      0.960976748      171.431568       0.96061787      171.434288     0.0372879111     -9.93132581
16.2105161          0.0373699176     -9.82730593      0.960935106      171.381707      0.960577067      171.384442     0.0373157982     -10.0928328
16.2966325           0.037390595     -9.97443376      0.960892415      171.331593       0.96053606      171.334348     0.0373426872     -10.2543727
16.3832064          0.0374114013     -10.1216589      0.960849487      171.281239      0.960494826      171.284015     0.0373698509     -10.4159834
16.4702401          0.0374323355     -10.2689833      0.960806323      171.230646      0.960453363      171.233442     0.0373972897     -10.5776666
16.5577363          0.0374554338     -10.4198627      0.960761686      171.180128      0.960414036      171.182781     0.0374306249     -10.7396825
16.6456972          0.0374793014     -10.5718946      0.960716428      171.129466       0.96037521      171.131924     0.0374659778      -10.901811
16.7341255          0.0375033225     -10.7240326       0.96067092      171.078562      0.960336168      171.080824     0.0375016475     -11.0639691
16.8230235          0.0375274959     -10.8762788      0.960625161      171.027414       0.96029691      171.029479     0.0375376344     -11.2261584
16.9123938          0.0375548261     -11.0298748      0.960582917      170.976368      0.960254281      170.978533     0.0375743789      -11.392841
17.0022388          0.0375832208     -11.1839295      0.960541554      170.925181      0.960210482      170.927535     0.0376115897     -11.5608892
17.0925611          0.0376117944     -11.3380757      0.960499962      170.873747      0.960166441      170.876291     0.0376491399      -11.728988
17.1833633          0.0376405462      -11.492315      0.960458139      170.822067      0.960122156      170.824802     0.0376870302     -11.8971387
17.2746478          0.0376641544     -11.6388125      0.960417239      170.769651      0.960081256      170.772356     0.0377208094      -12.071747
17.3664173          0.0376870102     -11.7841352      0.960376302      170.716902      0.960040723      170.719542     0.0377541973     -12.2475139
17.4586742          0.0377099776     -11.9295664      0.960335139        170.6639      0.959999967      170.666474     0.0377879217     -12.4233983
17.5514213          0.0377331394     -12.0752385      0.960293572      170.610638      0.959958936      170.613153     0.0378222476     -12.5989577
17.6446611          0.0377595015     -12.2257861      0.960245328      170.556994      0.959915882       170.55975     0.0378665757     -12.7583506
17.7383962          0.0377860029     -12.3764428      0.960196822       170.50309      0.959872593      170.506089     0.0379112451     -12.9177414
17.8326293          0.0378126423     -12.5272106      0.960148051      170.448926      0.959829067      170.452168     0.0379562565     -13.0771313
17.927363           0.0378393783     -12.6780072       0.96009964      170.394546      0.959785164      170.397954     0.0380004229     -13.2399575
18.0225999          0.0378661393     -12.8286905       0.96005266      170.340029      0.959740642      170.343392     0.0380417311     -13.4121214
18.1183428          0.0378930332     -12.9794895      0.960005423      170.285248      0.959695875      170.288566     0.0380833988     -13.5843585
18.2145943          0.0379200585     -13.1304059      0.959957927      170.230201      0.959650863      170.233472      0.038125427     -13.7566697
18.3113571          0.0379480359     -13.2826384      0.959912326      170.174965       0.95960469      170.178167     0.0381685159     -13.9292039
18.4086339          0.0379767323      -13.435835      0.959867997      170.119514      0.959557619      170.122631     0.0382124648     -14.1019116
18.5064275          0.0380055703     -13.5891545      0.959823425      170.063793       0.95951029      170.066825     0.0382567829     -14.2746874
18.6047407          0.0380345487     -13.7425987      0.959778609      170.007801      0.959462703      170.010747     0.0383014711     -14.4475323
18.7035761          0.0380585367     -13.8844733       0.95972857      169.950751      0.959419287      169.953902      0.038353199     -14.5992162
18.8029366          0.0380824586      -14.026149      0.959678129      169.893401      0.959375757      169.896767      0.038405452     -14.7502982
18.9028249          0.0381064498     -14.1679419      0.959627416       169.83577      0.959331993      169.839351     0.0384580511     -14.9013486
19.0032439          0.0381326697     -14.3180526      0.959577995      169.778051      0.959286098      169.781677     0.0385102199      -15.062708
19.1041963           0.038161895     -14.4792312      0.959530392      169.720309      0.959237421       169.72375     0.0385617432     -15.2378593
19.205685           0.0381912712     -14.6405734      0.959482529      169.662283       0.95918848      169.665539     0.0386136734     -15.4130559
19.3077129           0.038220797     -14.8020811      0.959434404      169.603972      0.959139271      169.607042     0.0386660113     -15.5882984
19.4102827          0.0382560015        -14.9597      0.959382695      169.545948      0.959086788      169.548858     0.0387119611     -15.7538122
19.5133975           0.038291669     -15.1172147      0.959330528      169.487669      0.959033861      169.490421     0.0387578932     -15.9188691
19.61706            0.0383275033     -15.2748418      0.959278079      169.429104      0.958980649      169.431697     0.0388041696      -16.083993
19.7212733          0.0383631177      -15.434923      0.959225865      169.370588      0.958926884      169.373226      0.038857111      -16.262342
19.8260401          0.0383985707     -15.5971898       0.95917382      169.312082      0.958872593      169.314945     0.0389160511     -16.4522882
19.9313636           0.038434203     -15.7595956       0.95912149      169.253287      0.958818004      169.256376     0.0389754796     -16.6422843
20.0372465          0.0384697318     -15.9212195       0.95906852      169.194045      0.958763366        169.1973     0.0390334557     -16.8307575
20.1436919          0.0385041072     -16.0786865      0.959013616      169.133775      0.958709595      169.136904     0.0390828282      -17.011992
20.2507029          0.0385386255     -16.2362891      0.958958415      169.073207      0.958655533      169.076211     0.0391326036     -17.1933343
20.3582823          0.0385732851      -16.394029      0.958902915      169.012341      0.958601179      169.015217     0.0391827832     -17.3747849
20.4664332          0.0386101756     -16.5553096       0.95884978      168.951217      0.958547259      168.954208      0.039240204     -17.5481092
20.5751586          0.0386475157     -16.7171934      0.958796723      168.889797      0.958493149      168.892936     0.0392989771     -17.7203436
20.6844616          0.0386850194     -16.8792159       0.95874338      168.828072      0.958438747      168.831361     0.0393581679     -17.8926116
20.7943453          0.0387226566     -17.0412778      0.958689674      168.766046      0.958383889      168.769475     0.0394176427     -18.0650604
20.9048127          0.0387599291     -17.2016447      0.958634308      168.703786      0.958325757      168.707174     0.0394750804     -18.2402266
21.015867           0.0387973491     -17.3621496      0.958578643      168.641217      0.958267313      168.644563     0.0395329347     -18.4154525
21.1275112          0.0388349149      -17.522794      0.958522679      168.578338      0.958208554      168.581642     0.0395912065     -18.5907387
21.2397486           0.038872625     -17.6835795      0.958466415      168.515146      0.958149481      168.518409     0.0396498967     -18.7660855
21.3525821          0.0389081475     -17.8468022      0.958409632       168.45185      0.958091356      168.454957     0.0397105816     -18.9422732
21.4660151          0.0389424431     -18.0115458      0.958352417      168.388361      0.958033662      168.391246     0.0397726222     -19.1189677
21.5800507          0.0389768726     -18.1764764      0.958294895      168.324557      0.957975658      168.327219     0.0398351008     -19.2957106
21.6946921          0.0390114341     -18.3415956      0.958237064      168.260435      0.957917342      168.262872     0.0398980183     -19.4725023
21.8099425          0.0390471851      -18.506754      0.958177809       168.19569      0.957860085      168.198071     0.0399609297     -19.6458706
21.9258052          0.0390854221     -18.6717518      0.958115761      168.129946      0.957805571      168.132648     0.0400232648     -19.8115768
22.0422834          0.0391237988     -18.8369167      0.958053384      168.063873      0.957750766      168.066898     0.0400859989     -19.9773173
22.1593803          0.0391623131     -19.0022502      0.957990674       167.99747       0.95769567       168.00082     0.0401491327     -20.1430927
22.2770993          0.0392009559     -19.1677073      0.957927728      167.930803      0.957639423      167.934449     0.0402125315     -20.3106032
22.3954437          0.0392396552     -19.3328504      0.957865468      167.864503      0.957573895      167.868138     0.0402749475     -20.4959274
22.5144168           0.039278487     -19.4981606      0.957802874      167.797871      0.957508016      167.801495     0.0403378215     -20.6813411
22.6340219           0.039317449     -19.6636395      0.957739944      167.730906      0.957441784      167.734519     0.0404011547     -20.8668445
22.7542624          0.0393565393     -19.8292885      0.957676677      167.663606      0.957375198      167.667208     0.0404649482     -21.0524375
22.8751416          0.0393995675     -19.9985649      0.957611458      167.596115      0.957311323       167.59973     0.0405383624      -21.240313
22.996663           0.0394429278     -20.1681568      0.957545815      167.528292      0.957247245      167.531921     0.0406127112     -21.4283158
23.11883            0.0394864453     -20.3379076      0.957479819      167.460129      0.957182823      167.463773     0.0406875802     -21.6163446
23.241646           0.0395301181     -20.5078185      0.957413468      167.391624      0.957118055      167.395282     0.0407629704     -21.8043992
23.3651144          0.0395723181     -20.6819277      0.957345192      167.323111      0.957052233      167.326593     0.0408355144     -21.9888238
23.4892387           0.039614524     -20.8566047      0.957276402      167.254286      0.956985991      167.257572     0.0409082364     -22.1729488
23.6140224          0.0396568869     -21.0314717      0.957207244      167.185115      0.956919395      167.188205     0.0409814533     -22.3571187
23.739469           0.0396994048     -21.2065301      0.957137716      167.115595      0.956852443      167.118488      0.041055166     -22.5413336
23.8655821          0.0397491737     -21.3778846       0.95707442      167.045399      0.956788625      167.048236     0.0411305896     -22.7268492
23.9923651          0.0397994381     -21.5491898      0.957011088      166.974834      0.956724625      166.977621     0.0412065748     -22.9124619
24.1198216          0.0398498715     -21.7206233      0.956947416      166.903913      0.956660282       166.90665     0.0412830674     -23.0981139
24.2479552           0.039901024     -21.8928793      0.956882895      166.832634      0.956595442      166.835332     0.0413594691     -23.2835582
24.3767695          0.0399587415     -22.0732322      0.956812147       166.76098      0.956528483      166.763772     0.0414294521       -23.46622
24.5062681           0.040016691     -22.2536855      0.956741022      166.688965      0.956461166      166.691851     0.0414998958     -23.6489619
24.6364547          0.0400748701     -22.4342398      0.956669517      166.616586       0.95639349      166.619567     0.0415708013     -23.8317837
24.7673329            0.04012978     -22.6158458      0.956598397      166.543887      0.956323851      166.546992     0.0416451767     -24.0175572
24.8989063          0.0401759584     -22.8000465      0.956528856      166.470936      0.956249741      166.474241     0.0417277509     -24.2107057
25.0311787          0.0402223085     -22.9844552      0.956458943      166.397616      0.956175233      166.401122      0.041810882     -24.4038794
25.1641538           0.040268828     -23.1690727      0.956388655      166.323925      0.956100326      166.327634     0.0418945711     -24.5970779
25.2978353          0.0403225374     -23.3428938      0.956318808      166.249915      0.956028522      166.253768     0.0419788577     -24.7936439
25.432227           0.0403819683     -23.5080973      0.956249238      166.175571      0.955959115      166.179524     0.0420637523     -24.9928868
25.5673326          0.0404415548     -23.6733679      0.956179294       166.10085      0.955889335      166.104904     0.0421492305     -25.1921599
25.7031559          0.0405012938     -23.8387064      0.956108975       166.02575      0.955819181      166.029906     0.0422352935     -25.3914623
25.8397008          0.0405480211     -24.0271167      0.956035593      165.950319      0.955744023      165.954372     0.0423252256     -25.5810073
25.9769711          0.0405935561     -24.2181312      0.955961542      165.874509      0.955667984      165.878439      0.042416065     -25.7695403
26.1149706          0.0406392521     -24.4093905      0.955887093      165.798315      0.955591539       165.80212      0.042507474     -25.9580668
26.2537032          0.0406877907     -24.6018559      0.955811052      165.721788      0.955515619      165.725504     0.0425987103     -26.1440325
26.3931728          0.0407421116     -24.7965294      0.955732112      165.644983      0.955441244      165.648684      0.042688946     -26.3246774
26.5333833           0.040796645     -24.9913933      0.955652752      165.567788      0.955366472      165.571474     0.0427797149     -26.5053181
26.6743387          0.0408513882     -25.1864479      0.955572968      165.490201      0.955291302      165.493872     0.0428710179     -26.6859541
26.8160429          0.0409068283     -25.3761388      0.955494921      165.412099      0.955207872       165.41578     0.0429667145     -26.8846328
26.9584998          0.0409625645     -25.5646854      0.955416966      165.333572      0.955122136      165.337268     0.0430639524     -27.0875547
27.1017136          0.0410184757     -25.7533957      0.955338591      165.254645       0.95503594      165.258357     0.0431618329     -27.2904612
27.2456881          0.0410752597     -25.9425153       0.95525981      165.175427      0.954951299      165.179111     0.0432575793     -27.4916847
27.3904275          0.0411334789     -26.1322331      0.955180636      165.096006      0.954869836      165.099585       0.04334895     -27.6899343
27.5359358          0.0411918777     -26.3221065      0.955101037      165.016181      0.954787937      165.019654      0.043440907     -27.8882122
27.6822171          0.0412504527     -26.5121359      0.955021012      164.935949      0.954705599      164.939315     0.0435334513     -28.0865174
27.8292756          0.0413126649     -26.6988608      0.954941103      164.855137       0.95462935      164.858414      0.043625888      -28.291145
27.9771152          0.0413751599      -26.885597      0.954860782      164.773907      0.954552902      164.777096     0.0437189121     -28.4960125
28.1257402          0.0414378231     -27.0724553       0.95478003      164.692263      0.954476043      164.695362     0.0438125471     -28.7009169
28.2751548          0.0415004477     -27.2653949       0.95470013      164.610212      0.954401749      164.613434     0.0439090105     -28.9044223
28.4253631          0.0415631501     -27.4618377      0.954620526      164.527747      0.954328739      164.531214     0.0440073428     -29.1071342
28.5763694           0.041626048     -27.6584306      0.954540495      164.444861      0.954255335      164.448574      0.044106297     -29.3098555
28.7281779          0.0416891377     -27.8551738      0.954460033      164.361551      0.954181535      164.365511      0.044205874      -29.512585
28.8807928           0.041752726     -28.0526932       0.95437855      164.278047      0.954106864      164.281997     0.0443003744     -29.7157692
29.0342185          0.0418165766     -28.2505076      0.954296492      164.194168      0.954031682      164.198051     0.0443941501     -29.9191051
29.1884593          0.0418806144     -28.4484722      0.954213994      164.109861      0.953956096      164.113674      0.044488518     -30.1224923
29.3435194          0.0419448356      -28.646587      0.954131054      164.025122      0.953880105      164.028867     0.0445834788     -30.3259294
29.4994033          0.0420096094     -28.8442211      0.954047695      163.940041      0.953800206      163.943681     0.0446845882     -30.5291004
29.6561153          0.0420751394     -29.0410098      0.953963928      163.854667       0.95371441      163.858146     0.0447950024      -30.731764
29.8136598          0.0421408393     -29.2379318       0.95387971      163.768856      0.953628152      163.772173     0.0449060847     -30.9343817
29.9720412           0.042206705      -29.434987      0.953795039      163.682605       0.95354143      163.685759     0.0450178361     -31.1369523
30.131264           0.0422729762     -29.6329261      0.953709439      163.595908      0.953454126      163.598907      0.045130216     -31.3399912
30.2913327          0.0423426479     -29.8408572      0.953617148      163.508726      0.953364836      163.511674     0.0452427414     -31.5497662
30.4522517          0.0424125404     -30.0489151      0.953524358      163.421097      0.953275062      163.423993      0.045355964      -31.759493
30.6140256          0.0424826494     -30.2570996      0.953431066      163.333018      0.953184804      163.335862     0.0454698844     -31.9691701
30.7766589          0.0425529708     -30.4654103      0.953337271      163.244487      0.953094058      163.247279     0.0455845032     -32.1787961
30.9401561          0.0426238788     -30.6687965      0.953245676      163.155352      0.953001046      163.158196     0.0457005086     -32.3836147
31.1045219          0.0426950342     -30.8713826      0.953154077      163.065733      0.952907213      163.068647       0.04581732     -32.5875178
31.2697609          0.0427663619     -31.0740767      0.953061985      162.975652      0.952812875      162.978638     0.0459348126     -32.7913601
31.4358777           0.042837857     -31.2768784      0.952969397      162.885108       0.95271803      162.888166     0.0460529867     -32.9951403
31.602877           0.0429106827     -31.4785603      0.952874355      162.794246      0.952622107      162.797437     0.0461712346     -33.2090037
31.7707634           0.042984133     -31.6798513      0.952778023      162.702976      0.952525441      162.706325     0.0462899722     -33.4268253
31.9395418          0.0430577409     -31.8812346       0.95268117      162.611235      0.952428253      162.614743     0.0464094487     -33.6445878
32.1092167          0.0431315014     -32.0827101      0.952583792      162.519022      0.952330538       162.52269     0.0465296646     -33.8622893
32.279793           0.0432046736     -32.2958783      0.952485823      162.426366      0.952234026      162.430071      0.046654419     -34.0695868
32.4512755          0.0432776929     -32.5147845      0.952387294      162.333247      0.952137833      162.336929     0.0467817237     -34.2717883
32.6236689          0.0433509217     -32.7338224      0.952288233      162.239648       0.95204112      162.243308     0.0469097358     -34.4738899
32.7969782          0.0434243552     -32.9529912      0.952188636      162.145566      0.951943883      162.149203     0.0470384556     -34.6758903
32.9712081          0.0435015808     -33.1673588      0.952092038      162.051244      0.951846735      162.054903     0.0471652534     -34.8882289
33.1463637          0.0435804203     -33.3798587      0.951996322      161.956532      0.951749304      161.960232     0.0472917513     -35.1046171
33.3224497          0.0436594444     -33.5924365      0.951900085      161.861332      0.951651343      161.865072      0.047418997     -35.3209203
33.4994711          0.0437386473     -33.8050916      0.951803326       161.76564      0.951552851      161.769421     0.0475469904     -35.5371368
33.677433           0.0438138963     -34.0235049      0.951698043      161.669378      0.951447691      161.673085     0.0476791052     -35.7554922
33.8563403          0.0438885321     -34.2431189       0.95159066      161.572605      0.951340787      161.576214     0.0478126446     -35.9741568
34.036198           0.0439633362      -34.462853      0.951482692      161.475332      0.951233302      161.478843     0.0479469684     -36.1927019
34.2170111          0.0440386822      -34.682804      0.951374534      161.377562      0.951125571      161.380978     0.0480822272     -36.4107832
34.3987848          0.0441229846      -34.905095      0.951274973      161.279414      0.951025092      161.282799     0.0482217333     -36.6208182
34.5815242          0.0442074968     -35.1274378       0.95117487      161.180759      0.950924065      161.184112     0.0483620043     -36.8307115
34.7652343          0.0442922127     -35.3498314      0.951074221      161.081594      0.950822487      161.084915     0.0485030401     -37.0404617
34.9499204          0.0443780438     -35.5699895      0.950971553      160.981993      0.950720901       160.98523     0.0486434915      -37.254464
35.1355876          0.0444660226     -35.7852745       0.95086516      160.882045       0.95061993      160.885085     0.0487818411     -37.4777604
35.3222411          0.0445541683     -36.0005746      0.950758187      160.781579      0.950518407      160.784421     0.0489209947      -37.700927
35.5098862           0.044642474     -36.2158889       0.95065063      160.680594      0.950416329      160.683236     0.0490609522     -37.9239618
35.6985282          0.0447279972     -36.4400451      0.950541583      160.579097      0.950307498      160.581718     0.0492041982     -38.1451992
35.8881723          0.0448122363     -36.6686698      0.950431487       160.47708      0.950194965      160.479769     0.0493494991     -38.3654506
36.0788238            0.04489666     -36.8973545       0.95032079      160.374536      0.950081818      160.377292     0.0494956138     -38.5855423
36.2704882          0.0449813429      -37.125763      0.950210006      160.271456      0.949968598      160.274279     0.0496426031     -38.8056744
36.4631707          0.0450670705     -37.3505971      0.950104258      160.167799      0.949860684      160.170675      0.049791075     -39.0278305
36.6568769          0.0451529442       -37.57548       0.94999793      160.063604      0.949752179      160.066534     0.0499403724     -39.2498179
36.8516121          0.0452389564     -37.8004105      0.949891019       159.95887       0.94964308      159.961853     0.0500904947     -39.4716345
37.0473818          0.0453275234     -38.0234847      0.949779994      159.853708       0.94953126      159.856739     0.0502397294     -39.6955513
37.2441915          0.0454180551     -38.2451293      0.949665682      159.748088      0.949417216      159.751163     0.0503884943     -39.9210231
37.4420467            0.04550871     -38.4667744      0.949550744      159.641921      0.949302548      159.645039     0.0505380855     -40.1463298
37.640953           0.0455992471     -38.6908354      0.949435786      159.535208      0.949187382      159.538358     0.0506895557     -40.3703207
37.840916           0.0456882065     -38.9329832      0.949324761      159.427988      0.949072566      159.431067     0.0508497267     -40.5855383
38.0419413          0.0457773636     -39.1751738      0.949213124      159.320212       0.94895712      159.323219     0.0510107273     -40.8005463
38.2440345          0.0458667106     -39.4174057      0.949100873      159.211875      0.948841038      159.214812     0.0511725567     -41.0153429
38.4472012          0.0459597481     -39.6477434       0.94898571      159.103004      0.948724809      159.106096     0.0513320029     -41.2450629
38.6514473          0.0460542147     -39.8736294      0.948869055      158.993579       0.94860812       158.99691     0.0514911436     -41.4802007
38.8567784          0.0461487887     -40.0994932      0.948751755      158.883585      0.948490787      158.887157     0.0516511817     -41.7151238
39.0632003          0.0462425404      -40.329923      0.948634681      158.773155      0.948373316      158.776908     0.0518129019     -41.9460729
39.2707188          0.0463350306     -40.5672476      0.948518275      158.662358      0.948255967      158.666199     0.0519766765     -42.1711566
39.4793397          0.0464276484     -40.8045773      0.948401227      158.550984      0.948137971      158.554913     0.0521413142     -42.3960197
39.6890689          0.0465203845     -41.0419107      0.948283532      158.439031      0.948019323      158.443049     0.0523068138     -42.6206601
39.8999123          0.0466155226     -41.2855771      0.948164996      158.326459      0.947899259      158.330418     0.0524732793     -42.8502629
40.1118757          0.0467125429     -41.5339641      0.948045657      158.213274      0.947777957      158.217061     0.0526407164     -43.0835101
40.3249651          0.0468097388     -41.7823283      0.947925655        158.0995      0.947655981      158.103115     0.0528090541      -43.316516
40.5391866           0.046907101     -42.0306677      0.947804985      157.985135      0.947533327      157.988576     0.0529782908     -43.5492782
40.7545461          0.0470057874     -42.2774967      0.947683151      157.870218      0.947410564      157.873544     0.0531488602     -43.7812577
40.9710497          0.0471111919     -42.5158976      0.947557854      157.754957       0.94729035      157.758499     0.0533227767     -44.0099579
41.1887034          0.0472167234     -42.7541955      0.947431862      157.639094      0.947169467      157.642855     0.0534975866      -44.238396
41.4075134          0.0473223714     -42.9923887       0.94730517      157.522629      0.947047911      157.526609     0.0536732884     -44.4665699
41.6274857          0.0474281255     -43.2304755      0.947177775      157.405556      0.946925679      157.409757       0.05384988     -44.6944776
41.8486267          0.0475287165     -43.4736874      0.947052753      157.287814      0.946800932      157.291854     0.0540258356     -44.9269033
42.0709424          0.0476283181     -43.7179078      0.946927664      157.169446      0.946675116      157.173246      0.054202383     -45.1600371
42.2944392          0.0477279908     -43.9620732      0.946801879      157.050461        0.9465486       157.05402     0.0543798319     -45.3929016
42.5191232          0.0478277234     -44.2061815      0.946675394      156.930856       0.94642138      156.934173     0.0545581803     -45.6254945
42.7450009          0.0479293512     -44.4538965      0.946549793      156.810712       0.94629384      156.814067     0.0547400142     -45.8596043
42.9720785          0.0480322562     -44.7039087      0.946424519      156.689995      0.946165838      156.693571     0.0549244475     -46.0945745
43.2003625          0.0481352443     -44.9538431      0.946298544      156.568648      0.946037121      156.572447     0.0551098122       -46.32924
43.4298591          0.0482383039     -45.2036976      0.946171862      156.446669      0.945907683      156.450691     0.0552961058     -46.5635984
43.660575           0.0483419756     -45.4524454      0.946044032       156.32414      0.945778225      156.328171     0.0554824235     -46.8008396
43.8925165          0.0484462957     -45.6999736      0.945914999      156.201067      0.945648815      156.204869     0.0556686911     -47.0412782
44.1256901          0.0485506423     -45.9474027      0.945785243      156.077352       0.94551868      156.080924      0.055855904     -47.2814037
44.3601025          0.0486550029     -46.1947307      0.945654759      155.952991      0.945387815      155.956332     0.0560440594     -47.5212137
44.5957601          0.0487617072     -46.4439734      0.945520808      155.828063      0.945256011      155.831359      0.056233797     -47.7585987
44.8326697          0.0488715017     -46.6957133      0.945382529       155.70259      0.945123199      155.706085     0.0564252998      -47.992914
45.0708378          0.0489813355      -46.947304      0.945243477      155.576461      0.944989642      155.580158     0.0566177227     -48.2269054
45.3102711          0.0490911954     -47.1987432      0.945103646      155.449674      0.944855336      155.453572     0.0568110626     -48.4605707
45.5509764          0.0492002027     -47.4517633      0.944967387      155.322298      0.944721155      155.326203     0.0570071221     -48.6967718
45.7929604          0.0493082647     -47.7065525      0.944835162      155.194337      0.944587187      155.198035     0.0572061134     -48.9357719
46.0362299          0.0494163219     -47.9612071       0.94470219      155.065707      0.944452464      155.069197     0.0574060594     -49.1744115
46.2807918          0.0495243605     -48.2157247      0.944568469      154.936405      0.944316981      154.939686     0.0576069566     -49.4126885
46.5266529          0.0496316314     -48.4741825      0.944432535      154.806331      0.944179928      154.809645     0.0578054954     -49.6516441
46.7738201          0.0497383934     -48.7352304      0.944294862      154.675511      0.944041565      154.679023     0.0580027592      -49.890949
47.0223003          0.0498451291     -48.9961466      0.944156413      154.544009      0.943902423      154.547719     0.0582009461     -50.1299095
47.2721005          0.0499518237     -49.2569285      0.944017184      154.411819      0.943762497      154.415728     0.0584000523     -50.3685227
47.5232278            0.05006326     -49.5182905      0.943879125      154.279198      0.943625531      154.282942     0.0586049961     -50.6063131
47.7756892          0.0501758506     -49.7796526       0.94374077      154.145949       0.94348872      154.149435     0.0588120952     -50.8436086
48.0294917          0.0502883955     -50.0408301      0.943601632      154.012004      0.943351135       154.01523     0.0590201287     -51.0805212
48.2846425          0.0504010456     -50.3016294      0.943461639      153.877355      0.943212345      153.880356     0.0592291155     -51.3182429
48.5411488          0.0505155868     -50.5599664      0.943320057      153.741972      0.943067729      153.745174     0.0594393516     -51.5696769
48.7990178          0.0506300321     -50.8180878      0.943177668      153.605881      0.942922292      153.609284     0.0596505959     -51.8206904
49.0582566          0.0507443649     -51.0759908      0.943034469      153.469078      0.942776028      153.472684     0.0598628436     -52.0712806
49.3188726          0.0508592028     -51.3380377      0.942892598      153.331776      0.942632063       153.33544     0.0600754056      -52.316786
49.5808731          0.0509748027     -51.6057318      0.942752808      153.194046      0.942491497      153.197573      0.060287994      -52.555624
49.8442655          0.0510903176     -51.8732042      0.942612223      153.055596      0.942350132      153.058984     0.0605015046     -52.7940639
50.1090571          0.0512057301     -52.1404523      0.942470839      152.916421      0.942207963      152.919671     0.0607159324     -53.0321032
50.3752553          0.0513214406     -52.4077222       0.94232456       152.77626      0.942062834      152.779643     0.0609315381     -53.2752193
50.6428678          0.0514370932     -52.6747989      0.942176695      152.635317      0.941916482      152.638885     0.0611481319     -53.5189233
50.9119018          0.0515525933     -52.9416326      0.942027988      152.493636      0.941769296       152.49739     0.0613656619     -53.7622021
51.1823651          0.0516714469     -53.2098724      0.941878475       152.35133      0.941620891      152.355176     0.0615845266     -54.0048438
51.4542652           0.051797359     -53.4811741       0.94172819      152.208513      0.941470859      152.212263     0.0618051439     -54.2466268
51.7276097          0.0519231566     -53.7521385      0.941577045      152.064949      0.941319969      152.068601     0.0620266861     -54.4879734
52.0024063          0.0520488206     -54.0227625      0.941425038      151.920633      0.941168217      151.924187     0.0622491472     -54.7288806
52.2786628          0.0521705244     -54.2887184      0.941269398      151.775479      0.941014629       151.77906     0.0624767557     -54.9764126
52.5563868          0.0522914739     -54.5537553      0.941112483      151.629552      0.940860027      151.633179     0.0627059243     -55.2244445
52.8355862          0.0524121743     -54.8184729      0.940954672      151.482862       0.94070454      151.486533     0.0629360627     -55.4719891
53.1162689          0.0525314986       -55.08863      0.940800029      151.335536      0.940550792      151.339143     0.0631653231     -55.7191731
53.3984426          0.0526494267     -55.3645132      0.940648768      151.187577       0.94039892      151.191006     0.0633936005     -55.9660153
53.6821153          0.0527671128     -55.6401038      0.940496641      151.038844      0.940246176      151.042092     0.0636228084     -56.2123832
53.967295           0.0528850902     -55.9154611      0.940343216      150.889325      0.940092308      150.892442     0.0638525787     -56.4579167
54.2539897          0.0530057192     -56.1908325      0.940186668       150.73899      0.939936245      150.742238     0.0640813491     -56.7010964
54.5422074          0.0531260665     -56.4658708      0.940029225      150.587868      0.939779289      150.591247     0.0643110075     -56.9438064
54.8319562          0.0532461098     -56.7405727      0.939870882      150.435953      0.939621437      150.439465     0.0645415466     -57.1860435
55.1232443          0.0533669527     -57.0137439      0.939712073      150.283304      0.939463408      150.286958     0.0647766653     -57.4311604
55.4160799           0.053489708     -57.2841581      0.939553234      150.129978      0.939305935      150.133795     0.0650201837     -57.6825054
55.710471           0.0536120852     -57.5541983      0.939393479      149.975849      0.939147552      149.979829     0.0652646743     -57.9333007
56.0064261          0.0537340607     -57.8238609      0.939232803      149.820911      0.938988255      149.825056     0.0655101292     -58.1835438
56.3039535          0.0538556108      -58.093142        0.9390712      149.665162      0.938828039      149.669472     0.0657565404     -58.4332318
56.6030613          0.0539787156     -58.3724894      0.938910076      149.508895      0.938666164      149.513033     0.0659975449     -58.6800597
56.9037582          0.0541016357     -58.6524656      0.938748163      149.351838      0.938503286       149.35577     0.0662388209      -58.926136
57.2060525          0.0542241542     -58.9320421      0.938585319      149.193958      0.938339472      149.197683     0.0664809805     -59.1716847
57.5099527          0.0543462462     -59.2112147      0.938421538       149.03525      0.938174716      149.038767     0.0667240153     -59.4167027
57.8154673          0.0544689503     -59.4892854      0.938256804      148.875696      0.938009662      148.879126     0.0669714099      -59.667128
58.122605           0.0545919146     -59.7664513      0.938091109      148.715295      0.937844105      148.718724     0.0672221511      -59.921096
58.4313742          0.0547143758     -60.0431861      0.937924457      148.554053      0.937677591       148.55748     0.0674738267     -60.1744769
58.7417838          0.0548363073     -60.3194855      0.937756842      148.391965      0.937510115      148.395391     0.0677264274     -60.4272675
59.0538424           0.054958994     -60.5975328       0.93758963      148.229092      0.937342639      148.232587     0.0679798496     -60.6769515
59.3675587          0.0550834005     -60.8788922      0.937423822      148.065476      0.937175866      148.069164     0.0682339901     -60.9217233
59.6829416          0.0552072599     -61.1597852      0.937257056      147.901002       0.93700813      147.904884     0.0684889899     -61.1659157
60                  0.0553305443      -61.440207      0.937089326      147.735664      0.936839425      147.739742     0.0687448392     -61.4095254
