! Created with skrf 1.12.0 (http://scikit-rf.org).
! Data is not renormalized
! S-parameter uses the power definition
# Hz S RI R
!freq ReS11 ImS11 ReS21 ImS21 ReS12 ImS12 ReS22 ImS22
300000.0 -0.7883755782326287 -0.10290213580508721 0.03784880707603503 -0.05250819332948692 0.03837158019855432 -0.05177024119019637 -0.8791914656541708 -0.06944848294353122
! Port Impedance 100.00000000000000 0.00000000000000 100.00000000000000 0.00000000000000
332946.0 -0.766025315449162 0.06582870764937603 0.13251583483739773 0.059716780827404864 0.133558076602576 0.059184367228386124 -0.846677640106362 0.11180187025921028
! Port Impedance 100.00000000000000 0.00000000000000 100.00000000000000 0.00000000000000
365892.0 -0.6962912551187637 0.18900387992361775 0.19405068136117395 0.20635931458721976 0.1956203356569943 0.20534010187980947 -0.7651908636116286 0.24233204122968938
! Port Impedance 100.00000000000000 0.00000000000000 100.00000000000000 0.00000000000000
398838.0 -0.6100288620545282 0.26694210155118303 0.3124430246302139 0.32809663715860393 0.31439617595225483 0.3262039194608551 -0.6680964522690239 0.323128013301755
! Port Impedance 100.00000000000000 0.00000000000000 100.00000000000000 0.00000000000000
431784.0 -0.5652529715945005 0.3579120823373808 0.3676330268552741 0.4394352544747535 0.3689379723618886 0.4388777653046452 -0.620269642672143 0.41205656296319815
! Port Impedance 100.00000000000000 0.00000000000000 100.00000000000000 0.00000000000000
464730.0 -0.48896888992598964 0.3840278098033246 0.453602292759408 0.4628843895072837 0.45450798785384044 0.4622767992109954 -0.5360806322446199 0.4380079556273878
! Port Impedance 100.00000000000000 0.00000000000000 100.00000000000000 0.00000000000000
497676.0 -0.4223922046612353 0.39514169245016056 0.5260672283094248 0.4690683622309907 0.5271105949215094 0.46814415240423474 -0.4630707012144118 0.4482661677195725
! Port Impedance 100.00000000000000 0.00000000000000 100.00000000000000 0.00000000000000
530622.0 -0.36720276381871764 0.3958683289338615 0.5872441273479874 0.46532371635635295 0.5881227400794982 0.4643062207028699 -0.4022684441353226 0.4471555335457137
! Port Impedance 100.00000000000000 0.00000000000000 100.00000000000000 0.00000000000000
563568.0 -0.32123981688486997 0.3903270952111147 0.6379277869443759 0.4556911073405104 0.6387031929600702 0.454716694180405 -0.35196123215369424 0.439604233629161
! Port Impedance 100.00000000000000 0.00000000000000 100.00000000000000 0.00000000000000
596514.0 -0.28231042462568473 0.38263903982519953 0.6803965708454889 0.44292009042578406 0.6811026935413591 0.4416417485990829 -0.30923244932976557 0.43009950738947267
! Port Impedance 100.00000000000000 0.00000000000000 100.00000000000000 0.00000000000000
629460.0 -0.24910255769161788 0.3722135930726643 0.7151332129920176 0.4277237600466593 0.7156333725488105 0.42680997017435757 -0.2728509222840474 0.41772618568813885
! Port Impedance 100.00000000000000 0.00000000000000 100.00000000000000 0.00000000000000
662406.0 -0.2215151212254891 0.3606013498190768 0.7444898435764782 0.4128223986263567 0.7448932035688811 0.4120199366187913 -0.24299089273693958 0.40395870106958887
! Port Impedance 100.00000000000000 0.00000000000000 100.00000000000000 0.00000000000000
695352.0 -0.19782659454045376 0.3494115478883846 0.7695704557154234 0.39844894176954804 0.7698609988236551 0.3971358098668642 -0.21733810724942498 0.39110128086016505
! Port Impedance 100.00000000000000 0.00000000000000 100.00000000000000 0.00000000000000
728298.0 -0.17812697462751312 0.33755416511767405 0.7930335878888989 0.38227724854011347 0.7915995468069739 0.38305870550689364 -0.19577991967558167 0.37749027455184075
! Port Impedance 100.00000000000000 0.00000000000000 100.00000000000000 0.00000000000000
761244.0 -0.16090081674704257 0.32647060390336363 0.811368821198087 0.3688180809460718 0.813813981242111 0.36615362466403767 -0.17699830889198062 0.3646635922057435
! Port Impedance 100.00000000000000 0.00000000000000 100.00000000000000 0.00000000000000
794190.0 -0.14577743862289644 0.31593889155392485 0.8278862805926367 0.35523065438160994 0.8300556548113893 0.3528405276623181 -0.1606739103849319 0.3528004872536465
! Port Impedance 100.00000000000000 0.00000000000000 100.00000000000000 0.00000000000000
827136.0 -0.13260135486596325 0.30559875656815366 0.8414351561274369 0.3423784141803007 0.8437992965063057 0.34007650814330825 -0.1463672104850535 0.3411543139125985
! Port Impedance 100.00000000000000 0.00000000000000 100.00000000000000 0.00000000000000
860082.0 -0.12106257820001018 0.29530820228527666 0.854720634921665 0.32887650266359836 0.8551262826777183 0.3282656351096497 -0.13387585347512826 0.3293566059729458
! Port Impedance 100.00000000000000 0.00000000000000 100.00000000000000 0.00000000000000
893028.0 -0.11056668175861734 0.2860754988821063 0.8653641265046741 0.31672551759821205 0.8672060064324192 0.3141122934457242 -0.12246970194820153 0.31912075655171346
! Port Impedance 100.00000000000000 0.00000000000000 100.00000000000000 0.00000000000000
925974.0 -0.10221928354704596 0.27747594651827356 0.8767030810924638 0.30458402075225544 0.8770372382338736 0.30368208128369395 -0.11320707343761643 0.3091482822158255
! Port Impedance 100.00000000000000 0.00000000000000 100.00000000000000 0.00000000000000
958920.0 -0.09382158734789725 0.26871692182781337 0.8848942098385046 0.2943039713383137 0.8851050135350448 0.2936961361268979 -0.10422434871592268 0.29945150358064176
! Port Impedance 100.00000000000000 0.00000000000000 100.00000000000000 0.00000000000000
991866.0 -0.08673943546603358 0.26119763246680167 0.8935379584250935 0.2821875399966804 0.8924672327374236 0.28381536484428954 -0.09649844846738084 0.29054226825404317
! Port Impedance 100.00000000000000 0.00000000000000 100.00000000000000 0.00000000000000
1024812.0 -0.08015836269550802 0.25405204183207863 0.9003685078916899 0.2723274811455308 0.9008773475375541 0.27177129199984457 -0.08948252534052192 0.28256999420267753
! Port Impedance 100.00000000000000 0.00000000000000 100.00000000000000 0.00000000000000
1057758.0 -0.0744987072907573 0.24624278631064572 0.9064759061359529 0.2643558549595987 0.9068391499441842 0.26390561306321597 -0.08350532410475506 0.27392696439544
! Port Impedance 100.00000000000000 0.00000000000000 100.00000000000000 0.00000000000000
1090704.0 -0.06878830235768635 0.239969053380932 0.9119019084901365 0.2553466665140908 0.912073881048515 0.25481035086040144 -0.07725775296495613 0.266799729355482
! Port Impedance 100.00000000000000 0.00000000000000 100.00000000000000 0.00000000000000
1123650.0 -0.06431139342186601 0.23361680203667995 0.9170533919940316 0.2476907250187913 0.9172146913471269 0.24722844775827635 -0.07231452826889678 0.2598613172014234
! Port Impedance 100.00000000000000 0.00000000000000 100.00000000000000 0.00000000000000
1156596.0 -0.059846484201140415 0.22711590395700826 0.9213452033736449 0.24044821476458597 0.9214886215492896 0.23989223864341816 -0.06719466982172934 0.25272783749637934
! Port Impedance 100.00000000000000 0.00000000000000 100.00000000000000 0.00000000000000
1189542.0 -0.056065862973579184 0.22167545546066117 0.9259418804049606 0.23317560565995912 0.9263237866698926 0.23262752666251674 -0.06352451895472788 0.2462905143335328
! Port Impedance 100.00000000000000 0.00000000000000 100.00000000000000 0.00000000000000
1222488.0 -0.05237119370337445 0.21602780626567597 0.9296389437746041 0.22674570105243919 0.9298389620143438 0.22637867095857847 -0.05945769174779947 0.24003215676253825
! Port Impedance 100.00000000000000 0.00000000000000 100.00000000000000 0.00000000000000
1255434.0 -0.048988029559061286 0.21074392836468464 0.9331353906559886 0.2204419388259104 0.9334975528507619 0.219798489890457 -0.055528323226628123 0.2343018406323395
! Port Impedance 100.00000000000000 0.00000000000000 100.00000000000000 0.00000000000000
1288380.0 -0.045940918672247005 0.20611600955669027 0.9364806232008339 0.2142415865992788 0.9365240570514766 0.2135083086625697 -0.052463087972673794 0.22889681836825007
! Port Impedance 100.00000000000000 0.00000000000000 100.00000000000000 0.00000000000000
1321326.0 -0.042398379537913894 0.20104164857431833 0.9386936334900167 0.20768271848636793 0.9389819956559317 0.20722907316498623 -0.04886042677382141 0.22319876281074863
! Port Impedance 100.00000000000000 0.00000000000000 100.00000000000000 0.00000000000000
1354272.0 -0.04023826845661946 0.196563477186058 0.9420172665757365 0.20224013833647378 0.9421996789508711 0.20158185424948358 -0.046327024238930425 0.21809564704139275
! Port Impedance 100.00000000000000 0.00000000000000 100.00000000000000 0.00000000000000
1387218.0 -0.03774814342987348 0.19214452965362694 0.9441103145375694 0.19717571142850993 0.9446726187697845 0.19672314699463508 -0.04381164914127883 0.21324135473156244
! Port Impedance 100.00000000000000 0.00000000000000 100.00000000000000 0.00000000000000
1420164.0 -0.03531173817585162 0.18810490289591678 0.9468379150718551 0.19150080106948775 0.9469172269703765 0.19099278111493073 -0.04089816638156829 0.20880905706241182
! Port Impedance 100.00000000000000 0.00000000000000 100.00000000000000 0.00000000000000
1453110.0 -0.03362862927168814 0.18406794126667125 0.9491227671275684 0.1867757820699617 0.9495930309375301 0.18648026575900498 -0.03903043273693815 0.204301169150436
! Port Impedance 100.00000000000000 0.00000000000000 100.00000000000000 0.00000000000000
1486056.0 -0.03194214364661152 0.18033823334428312 0.9512923982536439 0.1818901265563315 0.9515235700744502 0.18153280202671235 -0.03738967978514404 0.2001149409704735
! Port Impedance 100.00000000000000 0.00000000000000 100.00000000000000 0.00000000000000
1519002.0 -0.02965196909343848 0.1770627408877582 0.9534284262083176 0.17704287929640802 0.9534457211773388 0.1764193752187541 -0.03481218953515153 0.19631361092598193
! Port Impedance 100.00000000000000 0.00000000000000 100.00000000000000 0.00000000000000
1551948.0 -0.028054273130497298 0.17322152231506538 0.955227776315067 0.17275455704586296 0.9551911510140734 0.17198777236579055 -0.03317562817473313 0.19205643521468915
! Port Impedance 100.00000000000000 0.00000000000000 100.00000000000000 0.00000000000000
1584894.0 -0.02625976362790422 0.16934156420862762 0.9566549768127831 0.16907777297515061 0.9566722490683864 0.16841484352157604 -0.03149172203582462 0.18780507033576244
! Port Impedance 100.00000000000000 0.00000000000000 100.00000000000000 0.00000000000000
1617840.0 -0.025135679235713304 0.16645355511277904 0.9580310154009669 0.16408134097534802 0.9584626021279083 0.16376174665298943 -0.02975583397060738 0.1846496258201054
! Port Impedance 100.00000000000000 0.00000000000000 100.00000000000000 0.00000000000000
1650786.0 -0.02379375304950926 0.16327680558984656 0.9596340410148876 0.16032981465239615 0.9600731392838819 0.1600728368681967 -0.028560817705616998 0.1811134920848285
! Port Impedance 100.00000000000000 0.00000000000000 100.00000000000000 0.00000000000000
1683732.0 -0.022403521853561592 0.16044367736921372 0.9616684511193929 0.15643201044149643 0.9616909615199487 0.15578989561929654 -0.027146400332003467 0.17775164281166406
! Port Impedance 100.00000000000000 0.00000000000000 100.00000000000000 0.00000000000000
1716678.0 -0.021007998169683878 0.15745343801351586 0.9625651711581421 0.15272644635715618 0.9627333331322018 0.15225097307336324 -0.025579711489557733 0.1744286226466185
! Port Impedance 100.00000000000000 0.00000000000000 100.00000000000000 0.00000000000000
1749624.0 -0.019999988525501167 0.15464984012982896 0.9642394888024088 0.14927703509542053 0.9643241559633915 0.14864105195072866 -0.024551681698027406 0.1713547688181075
! Port Impedance 100.00000000000000 0.00000000000000 100.00000000000000 0.00000000000000
1782570.0 -0.01873015242810494 0.15196446223428395 0.965231802941096 0.1455211508996624 0.9654224739029007 0.1451692208015956 -0.023263863964360504 0.16849860262999178
! Port Impedance 100.00000000000000 0.00000000000000 100.00000000000000 0.00000000000000
1815516.0 -0.017788398724005533 0.14928667439127324 0.9658439743560518 0.14214989677872736 0.9661458609008948 0.14167182440439344 -0.021913971778114605 0.16547468700420492
! Port Impedance 100.00000000000000 0.00000000000000 100.00000000000000 0.00000000000000
1848462.0 -0.016426247861815346 0.1469794131098009 0.9669558608069151 0.1386393734461619 0.9670703133791155 0.13794856391140398 -0.020592201642122027 0.16281537493961482
! Port Impedance 100.00000000000000 0.00000000000000 100.00000000000000 0.00000000000000
1881408.0 -0.015271504870401548 0.14423517970671085 0.9676614281446037 0.1356863290146688 0.9679781909170847 0.13511663517016426 -0.01937954403429873 0.15981528740674766
! Port Impedance 100.00000000000000 0.00000000000000 100.00000000000000 0.00000000000000
1914354.0 -0.014936060331120826 0.1420068069551512 0.9691466781228911 0.13259146756509926 0.9693588804036991 0.13195152515258374 -0.01907781502194439 0.15720159634493538
! Port Impedance 100.00000000000000 0.00000000000000 100.00000000000000 0.00000000000000
1947300.0 -0.01407057163006492 0.13996786205287517 0.9702244643062915 0.12911470512494766 0.9704184195908896 0.12886450859235493 -0.01803654165268237 0.15518953400789093
! Port Impedance 100.00000000000000 0.00000000000000 100.00000000000000 0.00000000000000
1980246.0 -0.013344499263156673 0.13765382566441484 0.9710570239436765 0.12657559351739403 0.9712915223987149 0.12615118639914874 -0.017152633810130435 0.1523992741307061
! Port Impedance 100.00000000000000 0.00000000000000 100.00000000000000 0.00000000000000
2013192.0 -0.01252075631235719 0.1355155928529863 0.9721848909533564 0.12356877528998247 0.972160398009512 0.12324412932296584 -0.016551695761588547 0.1499852578004749
! Port Impedance 100.00000000000000 0.00000000000000 100.00000000000000 0.00000000000000
2046138.0 -0.01173057300996061 0.13357554533324106 0.9725463931108449 0.12042378417125396 0.97259752618606 0.12006043842411766 -0.01561260244826812 0.14787175158925772
! Port Impedance 100.00000000000000 0.00000000000000 100.00000000000000 0.00000000000000
2079084.0 -0.01129816427383995 0.13168575573191874 0.9735818265799486 0.11787780935455866 0.9736236355392529 0.11738235866687571 -0.01502003613049585 0.14569066142219622
! Port Impedance 100.00000000000000 0.00000000000000 100.00000000000000 0.00000000000000
2112030.0 -0.010601630507263121 0.12960107702122353 0.9742760237362187 0.11516472015864279 0.9741654408792282 0.11469949438013863 -0.014260554545569237 0.14339814144185137
! Port Impedance 100.00000000000000 0.00000000000000 100.00000000000000 0.00000000000000
2144976.0 -0.009888710693639613 0.12797854075636314 0.9749350669272833 0.11266605902862185 0.9751309232091399 0.11205384003191637 -0.013571006690066362 0.14159743428949653
! Port Impedance 100.00000000000000 0.00000000000000 100.00000000000000 0.00000000000000
2177922.0 -0.00943148087854978 0.1258655153445052 0.9756618059328239 0.11035764451336756 0.9760037748019326 0.10990906391413302 -0.013065464026769669 0.13924929913342057
! Port Impedance 100.00000000000000 0.00000000000000 100.00000000000000 0.00000000000000
2210868.0 -0.008527048232009282 0.12409962830331257 0.9757790584473974 0.10752731757948236 0.9756427516744293 0.10721924857589742 -0.012226112119347599 0.13744837655601747
! Port Impedance 100.00000000000000 0.00000000000000 100.00000000000000 0.00000000000000
2243814.0 -0.008040922600650535 0.12245728005259462 0.9765543596512029 0.10515905390491184 0.9765960125586948 0.10474108253394429 -0.011642985617866447 0.13548938968089433
! Port Impedance 100.00000000000000 0.00000000000000 100.00000000000000 0.00000000000000
2276760.0 -0.00732940889404754 0.12087889775120364 0.9771475284461594 0.10265483466506095 0.9771473300443908 0.10213725921312293 -0.010942959228568389 0.1336945700649434
! Port Impedance 100.00000000000000 0.00000000000000 100.00000000000000 0.00000000000000
2309706.0 -0.006836622805419745 0.11916740578483007 0.9775834909153445 0.10022429057526183 0.9773898068008883 0.09976884990706848 -0.010380723181192292 0.131820161017617
! Port Impedance 100.00000000000000 0.00000000000000 100.00000000000000 0.00000000000000
2342652.0 -0.006824291247784331 0.11768696828243354 0.9788944630614128 0.09808737387507858 0.9788971712578457 0.09768037129502369 -0.010372637278384417 0.13018329852038502
! Port Impedance 100.00000000000000 0.00000000000000 100.00000000000000 0.00000000000000
2375598.0 -0.006098622078613947 0.11608958146936918 0.9787863203523839 0.09552587526580024 0.9789356129896915 0.09522484808434817 -0.009603243408980444 0.12847086069663358
! Port Impedance 100.00000000000000 0.00000000000000 100.00000000000000 0.00000000000000
2408544.0 -0.005889348879100531 0.11457067321137915 0.9793669837330556 0.09344491361005035 0.9794537070818236 0.09301190670129339 -0.009321950668638584 0.12679086228178998
! Port Impedance 100.00000000000000 0.00000000000000 100.00000000000000 0.00000000000000
2441490.0 -0.005004872383634007 0.11322153361463018 0.9797763962251924 0.09109010540113094 0.979905206216085 0.09077336233635305 -0.008425508156022388 0.12524550830714198
! Port Impedance 100.00000000000000 0.00000000000000 100.00000000000000 0.00000000000000
2474436.0 -0.0048678720542814635 0.11173894326072956 0.9800877414401608 0.08897406850348104 0.9800476225321283 0.08852015494665605 -0.008034454221075987 0.12356322326283835
! Port Impedance 100.00000000000000 0.00000000000000 100.00000000000000 0.00000000000000
2507382.0 -0.004659512261945414 0.11015381868994115 0.9804724098559942 0.08731972327121883 0.9805556305195754 0.0869012273861485 -0.007817612134636415 0.12190435405653345
! Port Impedance 100.00000000000000 0.00000000000000 100.00000000000000 0.00000000000000
2540328.0 -0.004023447469582497 0.10898564927857418 0.9809455463870911 0.08507689065084678 0.9810887282375597 0.08469158761467929 -0.007335507742995739 0.12057257181125415
! Port Impedance 100.00000000000000 0.00000000000000 100.00000000000000 0.00000000000000
2573274.0 -0.003615004573891356 0.1075113031348934 0.981179938135979 0.0830966511774193 0.9812281412180057 0.08276798725414869 -0.006780282354339334 0.11881520769526854
! Port Impedance 100.00000000000000 0.00000000000000 100.00000000000000 0.00000000000000
2606220.0 -0.003298019917927525 0.10626168623289547 0.9816576595867902 0.08127213683696809 0.9817147035601025 0.08079284337126759 -0.006660337040146402 0.11741855087061251
! Port Impedance 100.00000000000000 0.00000000000000 100.00000000000000 0.00000000000000
2639166.0 -0.003089135300507251 0.1053342473713178 0.9820442825706195 0.07879285061000042 0.9820898392435264 0.078435957732403 -0.006319801362457855 0.11639207411461369
! Port Impedance 100.00000000000000 0.00000000000000 100.00000000000000 0.00000000000000
2672112.0 -0.0022901937734201017 0.10391031264835474 0.9821718707180758 0.07722594453454068 0.9819690176128387 0.07668110566107243 -0.005632692405972278 0.11492440029149072
! Port Impedance 100.00000000000000 0.00000000000000 100.00000000000000 0.00000000000000
2705058.0 -0.0022672052939371468 0.10275334082767788 0.9826134866320845 0.07543380867330232 0.9828710028235547 0.07511232366247819 -0.0053829615459292934 0.11362430126034935
! Port Impedance 100.00000000000000 0.00000000000000 100.00000000000000 0.00000000000000
2738004.0 -0.0020521362158536227 0.10154704900019604 0.9831030063610499 0.07364145708447695 0.9831426715081828 0.0732532437592924 -0.005354463578657709 0.11238313293850931
! Port Impedance 100.00000000000000 0.00000000000000 100.00000000000000 0.00000000000000
2770950.0 -0.0018431500209775686 0.10045630827110245 0.9834021342619949 0.07172610791520946 0.9834957973727855 0.07150879354934289 -0.005068017237383704 0.11123080593527211
! Port Impedance 100.00000000000000 0.00000000000000 100.00000000000000 0.00000000000000
2803896.0 -0.0012785927266238395 0.09918677535118722 0.9835525398340405 0.07015166277459765 0.9834507650540434 0.06990759881043201 -0.004471392419096304 0.10976934894324253
! Port Impedance 100.00000000000000 0.00000000000000 100.00000000000000 0.00000000000000
2836842.0 -0.0012940022457791078 0.09836738757073486 0.9837798055595077 0.06847082283783892 0.983877609991789 0.06802884165783246 -0.0042687370529575774 0.10861445380776998
! Port Impedance 100.00000000000000 0.00000000000000 100.00000000000000 0.00000000000000
2869788.0 -0.000912155476403248 0.09724697187770989 0.9842853866914943 0.06645389637907902 0.9840534499530528 0.06604077420166114 -0.003930806386307439 0.10737322403344347
! Port Impedance 100.00000000000000 0.00000000000000 100.00000000000000 0.00000000000000
2902734.0 -0.0005502952084263657 0.09633266781399102 0.9846427674167284 0.06476895432453196 0.984480920812945 0.06437078866292018 -0.0036615269626721625 0.10643439414583179
! Port Impedance 100.00000000000000 0.00000000000000 100.00000000000000 0.00000000000000
2935680.0 -0.0008263015943369978 0.09524566559306746 0.984865154288354 0.06293227179218354 0.9850849660810164 0.06259172473471318 -0.003773507141504401 0.1053166901598591
! Port Impedance 100.00000000000000 0.00000000000000 100.00000000000000 0.00000000000000
2968626.0 -0.0002535684086277801 0.09437713005242229 0.9852740339708519 0.06117654033887853 0.9851960736490042 0.06090847282423931 -0.003395998923483051 0.10425904524852095
! Port Impedance 100.00000000000000 0.00000000000000 100.00000000000000 0.00000000000000
3001572.0 0.000450731615381339 0.0931893348041469 0.9848581203824692 0.05991155995008411 0.9850087175356599 0.059552695664070135 -0.0026087866107553648 0.10291432721576071
! Port Impedance 100.00000000000000 0.00000000000000 100.00000000000000 0.00000000000000
3034518.0 0.0005716466723894031 0.09235497148794322 0.985103781091234 0.058272882077163524 0.9848611139543475 0.0578031670593495 -0.002465263904169901 0.1020190958064374
! Port Impedance 100.00000000000000 0.00000000000000 100.00000000000000 0.00000000000000
3067464.0 0.00048660182415516395 0.09119024562650632 0.9856388974657566 0.05674030659224883 0.9857093516503017 0.056376166254712035 -0.0025371985605875946 0.10090474564785584
! Port Impedance 100.00000000000000 0.00000000000000 100.00000000000000 0.00000000000000
3100410.0 0.0007459171679476961 0.0904798214104383 0.9858865416510874 0.05480447681037854 0.9859060379265782 0.05447442031027335 -0.002163566671607775 0.09995199662148047
! Port Impedance 100.00000000000000 0.00000000000000 100.00000000000000 0.00000000000000
3133356.0 0.0009847879297863738 0.08968530102133387 0.9863629301508471 0.05324245532089507 0.9862621314815948 0.0528673257942524 -0.0020401313595278248 0.09905918496554296
! Port Impedance 100.00000000000000 0.00000000000000 100.00000000000000 0.00000000000000
3166302.0 0.0010370520836298913 0.08890974627837722 0.9861926130135039 0.051861536977615 0.9861826190945985 0.05146199236826202 -0.0018191197944228688 0.09807078023806627
! Port Impedance 100.00000000000000 0.00000000000000 100.00000000000000 0.00000000000000
3199248.0 0.0015898558073592917 0.08765327764913866 0.9863450603392223 0.05073836870591922 0.9861137573923696 0.05020028719203094 -0.0014229338222288002 0.0968168234158742
! Port Impedance 100.00000000000000 0.00000000000000 100.00000000000000 0.00000000000000
3232194.0 0.001857035305531607 0.0866339558671511 0.9861586132635491 0.04918735532033108 0.9864468135834913 0.048781467895350775 -0.001177258005618964 0.09605974328282725
! Port Impedance 100.00000000000000 0.00000000000000 100.00000000000000 0.00000000000000
3265140.0 0.0017832386373137499 0.08602663290719953 0.9866656762809309 0.04798695742666248 0.9865112772963969 0.04752467152252581 -0.0010002826704949008 0.09487866665200384
! Port Impedance 100.00000000000000 0.00000000000000 100.00000000000000 0.00000000000000
3298086.0 0.001883611420302328 0.08546611817022548 0.9871521801523782 0.045946640692742347 0.9870378636220255 0.0455302323190403 -0.0010446838202528008 0.09441973242759626
! Port Impedance 100.00000000000000 0.00000000000000 100.00000000000000 0.00000000000000
3331032.0 0.0021391703149050423 0.08448189209929882 0.9867840541957555 0.0448922686336728 0.9865396416242448 0.0444590630020249 -0.0008054134575225524 0.09336522067194647
! Port Impedance 100.00000000000000 0.00000000000000 100.00000000000000 0.00000000000000
3363978.0 0.0025339847179549624 0.0836673071548469 0.9870288629449984 0.043275033098043 0.9867292444574405 0.042965051766270065 -0.0004681380772568744 0.09235063060741222
! Port Impedance 100.00000000000000 0.00000000000000 100.00000000000000 0.00000000000000
3396924.0 0.002782393147374551 0.08300827562973867 0.9868126694740036 0.04205185942100357 0.986834410131161 0.04159425021316376 -0.00033958827682412096 0.09178823211692555
! Port Impedance 100.00000000000000 0.00000000000000 100.00000000000000 0.00000000000000
3429870.0 0.0029885846329496535 0.08225150054063537 0.9876482511365043 0.0402635046081966 0.9870877543834462 0.04001117766359611 -9.117594205038104e-05 0.09093648213784632
! Port Impedance 100.00000000000000 0.00000000000000 100.00000000000000 0.00000000000000
3462816.0 0.0030314255889880015 0.08154647824110552 0.9874837911778835 0.03945461034709126 0.9876260993128995 0.038860866673951173 7.345272033448813e-05 0.09003480874578988
! Port Impedance 100.00000000000000 0.00000000000000 100.00000000000000 0.00000000000000
3495762.0 0.002890330505189581 0.08113003752794257 0.9878923707806142 0.03749067606862649 0.9876172141835087 0.03712552682599842 -1.5056335575081015e-05 0.08944515473591555
! Port Impedance 100.00000000000000 0.00000000000000 100.00000000000000 0.00000000000000
3528708.0 0.0029916641543895617 0.08027934824573882 0.9879212370798733 0.03620896514692858 0.9878710846506138 0.03599214355353546 0.00011595420256393929 0.08859465234625118
! Port Impedance 100.00000000000000 0.00000000000000 100.00000000000000 0.00000000000000
3561654.0 0.003563577527707834 0.07937181781765835 0.987639805000784 0.0348108181481139 0.987702413828304 0.03436617631236403 0.000800991852554167 0.08767982577437723
! Port Impedance 100.00000000000000 0.00000000000000 100.00000000000000 0.00000000000000
3594600.0 0.003562598447511306 0.07845289530425059 0.9878190514916323 0.03404208689075187 0.9878733190508217 0.03367550464748682 0.0009148756840939576 0.0867885546355009
! Port Impedance 100.00000000000000 0.00000000000000 100.00000000000000 0.00000000000000
3627546.0 0.0037864363052906302 0.07815882115777961 0.9880412580613314 0.03245552361180342 0.9880132009437449 0.032051223593765124 0.0005958452798766611 0.08638018187286228
! Port Impedance 100.00000000000000 0.00000000000000 100.00000000000000 0.00000000000000
3660492.0 0.0038753762123161506 0.07753896828476932 0.988084498024856 0.03107013298171353 0.9881749048615374 0.0305751686188435 0.0011401988464712631 0.08553830940349401
! Port Impedance 100.00000000000000 0.00000000000000 100.00000000000000 0.00000000000000
3693438.0 0.0042105327369397205 0.07666073142258567 0.9877624436414335 0.03026687460073955 0.9875862926242648 0.029895224775321177 0.0012184524115648188 0.08463629729543111
! Port Impedance 100.00000000000000 0.00000000000000 100.00000000000000 0.00000000000000
3726384.0 0.004316326191356912 0.0761245841269187 0.9878291182267895 0.028910451933676407 0.9879519504555381 0.028349102992167214 0.0012711092500010401 0.08403213433368263
! Port Impedance 100.00000000000000 0.00000000000000 100.00000000000000 0.00000000000000
3759330.0 0.004121793900614346 0.07556883978795767 0.9886404977107898 0.027387638439060294 0.988626120849259 0.026878366873932295 0.001426883795917211 0.08330404496691601
! Port Impedance 100.00000000000000 0.00000000000000 100.00000000000000 0.00000000000000
3792276.0 0.004314881524556058 0.07507316002953793 0.9887118170833402 0.026135095718062922 0.9885517314678959 0.02579015573325356 0.0012226839535798284 0.08284513286564006
! Port Impedance 100.00000000000000 0.00000000000000 100.00000000000000 0.00000000000000
3825222.0 0.004493931406752305 0.0742512769454061 0.9884517968591373 0.024909707291088226 0.9884344871664439 0.024553862411743226 0.0017949798524430904 0.08202026655422731
! Port Impedance 100.00000000000000 0.00000000000000 100.00000000000000 0.00000000000000
3858168.0 0.004866903698810737 0.07336004708217167 0.988328672253143 0.024263959288921565 0.9880712973561797 0.023759424463037027 0.0016215824761642017 0.08121399077832459
! Port Impedance 100.00000000000000 0.00000000000000 100.00000000000000 0.00000000000000
3891114.0 0.004785781631629765 0.07320667925254912 0.9887466647714329 0.02264104993772268 0.9889813531635763 0.022385426159531967 0.0021947485665095023 0.08062298553249195
! Port Impedance 100.00000000000000 0.00000000000000 100.00000000000000 0.00000000000000
3924060.0 0.005271329390597046 0.0722659873830272 0.988016179636108 0.021591709147988844 0.988086644906836 0.021150157646614893 0.0021700105747837206 0.07998305021421988
! Port Impedance 100.00000000000000 0.00000000000000 100.00000000000000 0.00000000000000
3957006.0 0.004762996882601067 0.07197348926737845 0.9891661393710155 0.02018284441018491 0.9889972351944062 0.019826615634496742 0.0021595571166620475 0.07945109770898863
! Port Impedance 100.00000000000000 0.00000000000000 100.00000000000000 0.00000000000000
3989952.0 0.004824802451478566 0.0713326041440215 0.9892232844598849 0.019091271525892704 0.9890200174147518 0.01893020893002755 0.002011234212523638 0.07886277033928765
! Port Impedance 100.00000000000000 0.00000000000000 100.00000000000000 0.00000000000000
4022898.0 0.005243859560095904 0.0707491120390257 0.9884577992298482 0.018277560488738975 0.9885221638229689 0.01776492262565494 0.0025158885626734018 0.07816403482108893
! Port Impedance 100.00000000000000 0.00000000000000 100.00000000000000 0.00000000000000
4055844.0 0.00528098262702123 0.07010377047490579 0.9888407510089494 0.01694717676768815 0.9885893770866808 0.016562421525662903 0.0023977046918254585 0.07757902715101613
! Port Impedance 100.00000000000000 0.00000000000000 100.00000000000000 0.00000000000000
4088790.0 0.005274853212133529 0.06991096666934793 0.989167798148013 0.015743913948346257 0.9890289829823928 0.01535152077912867 0.0024999749571986696 0.07713076386531365
! Port Impedance 100.00000000000000 0.00000000000000 100.00000000000000 0.00000000000000
4121736.0 0.005683998558628833 0.06942935359368943 0.9889842117097416 0.014319262711447244 0.9887802535543813 0.013693678686138699 0.002902686588487774 0.07665550124097587
! Port Impedance 100.00000000000000 0.00000000000000 100.00000000000000 0.00000000000000
4154682.0 0.005450283527647204 0.06854653520320797 0.9894847943098746 0.013369035085328941 0.9892579677383023 0.013157134304120872 0.002615666348242923 0.07586413712239191
! Port Impedance 100.00000000000000 0.00000000000000 100.00000000000000 0.00000000000000
4187628.0 0.005658360521058031 0.06825354811473616 0.98873194605814 0.012475539273659731 0.9888255805357025 0.011755146121393585 0.0029074085107473058 0.07535431334523623
! Port Impedance 100.00000000000000 0.00000000000000 100.00000000000000 0.00000000000000
4220574.0 0.006090635078913387 0.06771112117820718 0.9890761536239632 0.010936330772258649 0.9887731737928264 0.010587666956698704 0.003241430250659927 0.07475721729431628
! Port Impedance 100.00000000000000 0.00000000000000 100.00000000000000 0.00000000000000
4253520.0 0.0058675468421394705 0.06671607410474073 0.9890323741964788 0.010500717978213414 0.9890882221655926 0.010253115658960006 0.0031153326175555607 0.07384280166861246
! Port Impedance 100.00000000000000 0.00000000000000 100.00000000000000 0.00000000000000
4286466.0 0.006118460841948753 0.06662334388076477 0.9893191831631197 0.0091069553959323 0.9891322497503727 0.008658312303180895 0.003026321235280266 0.07365359624548276
! Port Impedance 100.00000000000000 0.00000000000000 100.00000000000000 0.00000000000000
4319412.0 0.006479661126850195 0.06610833528824749 0.9891638313795243 0.008176629865865464 0.9889023097150886 0.007632076431090016 0.0033459845841012636 0.07309395767651145
! Port Impedance 100.00000000000000 0.00000000000000 100.00000000000000 0.00000000000000
4352358.0 0.006315098714135076 0.06563718787399059 0.9891107495364011 0.006996014623913959 0.9889890383155618 0.006974587772114653 0.003792006873450632 0.07239739216177958
! Port Impedance 100.00000000000000 0.00000000000000 100.00000000000000 0.00000000000000
4385304.0 0.006187620780713027 0.06542344861279097 0.9893541848311549 0.005743313572036562 0.9892009109585416 0.0055566578978926825 0.0036688263313039704 0.07218865854147619
! Port Impedance 100.00000000000000 0.00000000000000 100.00000000000000 0.00000000000000
4418250.0 0.006316246484930926 0.06468364763692566 0.9893911761995633 0.004818872074668952 0.9891607849179633 0.004585055546660338 0.0036019559016055025 0.07144272366704756
! Port Impedance 100.00000000000000 0.00000000000000 100.00000000000000 0.00000000000000
4451196.0 0.006567370031514863 0.06427925694616553 0.9890244050422641 0.003882263369920752 0.9886861871970244 0.0035209516133603465 0.003570772443159287 0.07100902173689151
! Port Impedance 100.00000000000000 0.00000000000000 100.00000000000000 0.00000000000000
4484142.0 0.006814935845601722 0.06356918205141895 0.9890793284433113 0.0029506628152290056 0.9889394052550586 0.002536472174915508 0.003922676631040928 0.07040846929882597
! Port Impedance 100.00000000000000 0.00000000000000 100.00000000000000 0.00000000000000
4517088.0 0.006878996197152709 0.06311130192503421 0.989397913525514 0.001833939318038766 0.9892595201916158 0.0015374924279486874 0.003785836115011071 0.07007502409910615
! Port Impedance 100.00000000000000 0.00000000000000 100.00000000000000 0.00000000000000
4550034.0 0.006857745292274842 0.06279113601086703 0.9890449725652164 0.000760512740190321 0.9889119878302621 0.0004247412136726752 0.004050749185302155 0.06939379247435369
! Port Impedance 100.00000000000000 0.00000000000000 100.00000000000000 0.00000000000000
4582980.0 0.006904853035953479 0.06260996060851681 0.9892946498146242 -0.00033340369651672745 0.9890643160973422 -0.000611240480621941 0.004034307710289037 0.0692060226464117
! Port Impedance 100.00000000000000 0.00000000000000 100.00000000000000 0.00000000000000
4615926.0 0.0071145262193436365 0.06175568509337366 0.9892032190892395 -0.000924754807079983 0.9892992089180697 -0.0012578972064997544 0.004311025921600875 0.06834575043742361
! Port Impedance 100.00000000000000 0.00000000000000 100.00000000000000 0.00000000000000
4648872.0 0.006878892719124868 0.061662364076967235 0.989564939956599 -0.0023203925675051675 0.9893122096178409 -0.002675264897620987 0.003998383569099484 0.06818411011715667
! Port Impedance 100.00000000000000 0.00000000000000 100.00000000000000 0.00000000000000
4681818.0 0.007150181691107121 0.060939962580709994 0.9896089844859095 -0.0030644431769533908 0.9894896931948288 -0.003498564390844168 0.004371028318911174 0.0674160908871681
! Port Impedance 100.00000000000000 0.00000000000000 100.00000000000000 0.00000000000000
4714764.0 0.007383958927933559 0.06092212694115058 0.9885736872798339 -0.004281586513952752 0.988689625187075 -0.004719566646897979 0.0046009524868448615 0.06727959848220628
! Port Impedance 100.00000000000000 0.00000000000000 100.00000000000000 0.00000000000000
4747710.0 0.007405720117046627 0.05999401067489164 0.9893457417724141 -0.005066757642393263 0.9892019014888095 -0.005316998342352988 0.0044955431047811745 0.06647788126350493
! Port Impedance 100.00000000000000 0.00000000000000 100.00000000000000 0.00000000000000
4780656.0 0.007254207887738506 0.06011956500045304 0.9894864160298086 -0.006112825665147727 0.9892396758805262 -0.00647335735556403 0.004449127999769681 0.06652636264444668
! Port Impedance 100.00000000000000 0.00000000000000 100.00000000000000 0.00000000000000
4813602.0 0.007247333675586526 0.059599384832950464 0.9894775938584964 -0.006980486266853958 0.9894512146397461 -0.007288017945322162 0.004508588285038001 0.06584182631736989
! Port Impedance 100.00000000000000 0.00000000000000 100.00000000000000 0.00000000000000
4846548.0 0.007681702507427751 0.058921309480288446 0.9894186371804776 -0.008099386961934659 0.9893726059083499 -0.008363622845891528 0.004903103382573826 0.06527670747152424
! Port Impedance 100.00000000000000 0.00000000000000 100.00000000000000 0.00000000000000
4879494.0 0.007474782008342479 0.058867134512656204 0.9893376015847276 -0.00896433485699659 0.9893285875849934 -0.009258597711920526 0.0046020117239513325 0.06506962686324748
! Port Impedance 100.00000000000000 0.00000000000000 100.00000000000000 0.00000000000000
4912440.0 0.00805944626024191 0.05807183512259629 0.9885040675007444 -0.009454569965888837 0.9886607998581252 -0.01000806241012707 0.005366665705194618 0.06415675941540519
! Port Impedance 100.00000000000000 0.00000000000000 100.00000000000000 0.00000000000000
4945386.0 0.007941226860255335 0.058018539715282536 0.9890123154019932 -0.011081511978405605 0.9888697336428174 -0.011219433372650406 0.0050085913808990135 0.06429327934833541
! Port Impedance 100.00000000000000 0.00000000000000 100.00000000000000 0.00000000000000
4978332.0 0.008009253766752517 0.057524687066229055 0.9893158063269785 -0.01184519684551237 0.9890184505265324 -0.012100685173898758 0.005249102300274311 0.06369574452918633
! Port Impedance 100.00000000000000 0.00000000000000 100.00000000000000 0.00000000000000
5011278.0 0.008226493766691795 0.05718235229336952 0.9891761260185452 -0.012727030043146022 0.9890022163618969 -0.013088557368182433 0.005600532515824097 0.06306136730593648
! Port Impedance 100.00000000000000 0.00000000000000 100.00000000000000 0.00000000000000
5044224.0 0.007806900496331121 0.056770190273728975 0.9893104699747658 -0.013708559597459757 0.9891692904865637 -0.014034454081860225 0.005339859279154091 0.06277116727933167
! Port Impedance 100.00000000000000 0.00000000000000 100.00000000000000 0.00000000000000
5077170.0 0.008400606716843256 0.056435240646059245 0.9887567946671539 -0.014554894042303958 0.9884663407685604 -0.014768565552764856 0.005519794402074202 0.06252142383844969
! Port Impedance 100.00000000000000 0.00000000000000 100.00000000000000 0.00000000000000
5110116.0 0.008278267682532592 0.056129505451091306 0.9887264202888538 -0.015587218234156996 0.9889599703233698 -0.01596457883872902 0.0054664927129631224 0.06217015831803925
! Port Impedance 100.00000000000000 0.00000000000000 100.00000000000000 0.00000000000000
5143062.0 0.008352349559527628 0.0554944750197992 0.9887264172760253 -0.01583398507931101 0.9885409475902682 -0.016237707237481816 0.005537752632906345 0.06125306453576594
! Port Impedance 100.00000000000000 0.00000000000000 100.00000000000000 0.00000000000000
5176008.0 0.00854616533336569 0.055470976902805426 0.9887602100420213 -0.017246430449000483 0.9885457398468387 -0.01749719583009546 0.005792157806099402 0.06124655615376242
! Port Impedance 100.00000000000000 0.00000000000000 100.00000000000000 0.00000000000000
5208954.0 0.008460708613621082 0.055101204116716554 0.988912635706624 -0.01828552658961389 0.9887515819983459 -0.018607346167737134 0.005824899994514465 0.060984397603886506
! Port Impedance 100.00000000000000 0.00000000000000 100.00000000000000 0.00000000000000
5241900.0 0.008514177310438603 0.054728629237177966 0.9884723435587888 -0.01864230241244941 0.9883514127734353 -0.018999118453779808 0.005923589879072322 0.060399359854576645
! Port Impedance 100.00000000000000 0.00000000000000 100.00000000000000 0.00000000000000
5274846.0 0.008812889480026814 0.05396904176627508 0.9887698041830254 -0.019473998381489308 0.9886632207517404 -0.019691473735754347 0.005850721574733292 0.059874619837674184
! Port Impedance 100.00000000000000 0.00000000000000 100.00000000000000 0.00000000000000
5307792.0 0.008538725829568522 0.05372021578592468 0.9887626944570524 -0.020586573512647012 0.9883753864487853 -0.020840127890897734 0.0058018633705308464 0.05959553973493364
! Port Impedance 100.00000000000000 0.00000000000000 100.00000000000000 0.00000000000000
5340738.0 0.00867527752286007 0.05376941287468389 0.9889753206487489 -0.021999666402796967 0.988799362389037 -0.022090829919809492 0.005771943406752772 0.0596168701224138
! Port Impedance 100.00000000000000 0.00000000000000 100.00000000000000 0.00000000000000
5373684.0 0.00850631121060258 0.053349541374658416 0.9889675942248735 -0.022446104128671242 0.9886513617364279 -0.02275619345133454 0.005806361623353129 0.05898983537257111
! Port Impedance 100.00000000000000 0.00000000000000 100.00000000000000 0.00000000000000
5406630.0 0.008794922114751386 0.05272760615508272 0.9892518457685088 -0.023352982925517296 0.9888723732838048 -0.023849163158688527 0.005998774583713007 0.058474030136520624
! Port Impedance 100.00000000000000 0.00000000000000 100.00000000000000 0.00000000000000
5439576.0 0.009025698261254295 0.05253301388124018 0.9889018862906274 -0.024465610892376567 0.9885437597869633 -0.024822670182231277 0.006121066834730876 0.05823497075596894
! Port Impedance 100.00000000000000 0.00000000000000 100.00000000000000 0.00000000000000
5472522.0 0.00876935577909399 0.052403434962785836 0.988563065234981 -0.025401174660046058 0.9884414330851006 -0.0256217057849666 0.006125270773053554 0.058154731410689685
! Port Impedance 100.00000000000000 0.00000000000000 100.00000000000000 0.00000000000000
5505468.0 0.008921412279710522 0.052114648099900726 0.9883839080293686 -0.025967496586435206 0.9884006636881987 -0.026355601926000505 0.006192996945098339 0.057728753997266936
! Port Impedance 100.00000000000000 0.00000000000000 100.00000000000000 0.00000000000000
5538414.0 0.009243612633577453 0.0518316796240684 0.9881178336994794 -0.026750716969939397 0.9881735189000509 -0.027064947423955106 0.006454814782522855 0.057445918741442545
! Port Impedance 100.00000000000000 0.00000000000000 100.00000000000000 0.00000000000000
5571360.0 0.009149273451158901 0.051407960655330424 0.9891071962000013 -0.027743685588234444 0.9887675176680277 -0.028054742173860267 0.0062954400925101794 0.05696673690160761
! Port Impedance 100.00000000000000 0.00000000000000 100.00000000000000 0.00000000000000
5604306.0 0.00893716428069441 0.050980842807541844 0.9885687908709696 -0.02826776372335684 0.9882864092730976 -0.028491904634876473 0.006177119166632078 0.05645388585835575
! Port Impedance 100.00000000000000 0.00000000000000 100.00000000000000 0.00000000000000
5637252.0 0.009667529708533379 0.050465126032590624 0.9882470686304243 -0.02932645816324466 0.9881445155445474 -0.02956493911887184 0.006682472849092597 0.056113800243544024
! Port Impedance 100.00000000000000 0.00000000000000 100.00000000000000 0.00000000000000
5670198.0 0.009121370947026669 0.05078712755269168 0.9885942498336596 -0.030663291739295117 0.9885659813770487 -0.031015939804862676 0.0065708476367293545 0.05622316898868328
! Port Impedance 100.00000000000000 0.00000000000000 100.00000000000000 0.00000000000000
5703144.0 0.009173374763464692 0.04998446833510342 0.9889682085355799 -0.030943733234605336 0.9886511109610971 -0.03128288733747062 0.006163940696104736 0.05552046856474888
! Port Impedance 100.00000000000000 0.00000000000000 100.00000000000000 0.00000000000000
5736090.0 0.009374945128551165 0.049678487394783984 0.9886655358428905 -0.03181247998072352 0.9883336158732506 -0.03208067338674461 0.006524689278647855 0.05517245168989174
! Port Impedance 100.00000000000000 0.00000000000000 100.00000000000000 0.00000000000000
5769036.0 0.009337451297892096 0.04965606839427831 0.9887231893883506 -0.032969239817649 0.9885367113734862 -0.03314166246141479 0.006695989772296379 0.05505260766679779
! Port Impedance 100.00000000000000 0.00000000000000 100.00000000000000 0.00000000000000
5801982.0 0.00945257593883414 0.049272895573254316 0.9887297166156828 -0.033617695138452856 0.9884822256638249 -0.033927584664389825 0.0066313697500842705 0.05470472244464982
! Port Impedance 100.00000000000000 0.00000000000000 100.00000000000000 0.00000000000000
5834928.0 0.00926452333066613 0.048697364277471206 0.9883939127901292 -0.0339870676379523 0.9882685150907545 -0.034105801544756176 0.006642646926550366 0.054048903252540824
! Port Impedance 100.00000000000000 0.00000000000000 100.00000000000000 0.00000000000000
5867874.0 0.009528217477970335 0.04858838724041287 0.9884035926543496 -0.035193070959257715 0.9881236146092431 -0.03543324459893414 0.006858374754478452 0.05384628636018374
! Port Impedance 100.00000000000000 0.00000000000000 100.00000000000000 0.00000000000000
5900820.0 0.00966432506148232 0.04822438960249541 0.9877824043891816 -0.035661180758954955 0.9876476746866741 -0.036075534340737875 0.007051319324000882 0.05344459716715077
! Port Impedance 100.00000000000000 0.00000000000000 100.00000000000000 0.00000000000000
5933766.0 0.009703906432539655 0.048069490127479075 0.9884828488689286 -0.036895409362733445 0.9883447020256366 -0.037153935050635474 0.006985326767956379 0.053393702065375026
! Port Impedance 100.00000000000000 0.00000000000000 100.00000000000000 0.00000000000000
5966712.0 0.009475975044478308 0.047936044919028184 0.9885593846415539 -0.0379760850789942 0.9885934442988176 -0.03811489382413871 0.006718001075525948 0.05332591545516189
! Port Impedance 100.00000000000000 0.00000000000000 100.00000000000000 0.00000000000000
5999658.0 0.009750567445900665 0.047630150420433906 0.9880477609341773 -0.03857442811787813 0.9878924628676846 -0.03882759404921698 0.007214212608706333 0.052936513376126516
! Port Impedance 100.00000000000000 0.00000000000000 100.00000000000000 0.00000000000000
6032604.0 0.00981306214953756 0.04724191718121583 0.9880906235205339 -0.03943565438118346 0.9877868213303973 -0.03958918658558218 0.007035004835078268 0.0525455738134004
! Port Impedance 100.00000000000000 0.00000000000000 100.00000000000000 0.00000000000000
6065550.0 0.010173484320098375 0.046523014810622716 0.987547106248438 -0.03940392209622735 0.9873880335528451 -0.03948886618832858 0.0074409183559645264 0.051606248045907036
! Port Impedance 100.00000000000000 0.00000000000000 100.00000000000000 0.00000000000000
6098496.0 0.010048301900533935 0.04659330278500012 0.9876304253886621 -0.04074404604161114 0.9874683076031691 -0.04077278055624435 0.007276138905189716 0.051686718359250775
! Port Impedance 100.00000000000000 0.00000000000000 100.00000000000000 0.00000000000000
6131442.0 0.009795549530936726 0.046856444476640544 0.9882305243693981 -0.04198228283888315 0.9880708232657 -0.04220079678892886 0.007492651062489475 0.0518045986979884
! Port Impedance 100.00000000000000 0.00000000000000 100.00000000000000 0.00000000000000
6164388.0 0.009978383219404391 0.04617420244725954 0.9880538048454355 -0.04258463709358314 0.98789267850062 -0.04273524553225763 0.007386145901954494 0.051330189104889755
! Port Impedance 100.00000000000000 0.00000000000000 100.00000000000000 0.00000000000000
6197334.0 0.010297368487845016 0.04606597126938478 0.9875537920296694 -0.04332649623999322 0.9873699027535223 -0.04341248994438404 0.007640832063610936 0.05124033217978917
! Port Impedance 100.00000000000000 0.00000000000000 100.00000000000000 0.00000000000000
6230280.0 0.01005129729665849 0.04577644548631499 0.988066869939668 -0.04441603035984465 0.9878308308856256 -0.044514173114128724 0.007468677811576618 0.05096227184764734
! Port Impedance 100.00000000000000 0.00000000000000 100.00000000000000 0.00000000000000
6263226.0 0.009866216773319114 0.04521549554735933 0.9876375925433842 -0.04467734120752219 0.9875996048172186 -0.04480802867500735 0.007389741499678665 0.05042440117294362
! Port Impedance 100.00000000000000 0.00000000000000 100.00000000000000 0.00000000000000
6296172.0 0.010268175311956534 0.045214468478299526 0.9875603408056812 -0.04590501347396052 0.9871492369013797 -0.04596004483080157 0.0077652070959417785 0.050371847531459915
! Port Impedance 100.00000000000000 0.00000000000000 100.00000000000000 0.00000000000000
6329118.0 0.010495528353663297 0.044792514072093434 0.9873961370063364 -0.04644857804096819 0.9872337356822496 -0.046503814278815815 0.00785302849159697 0.050006765113058266
! Port Impedance 100.00000000000000 0.00000000000000 100.00000000000000 0.00000000000000
6362064.0 0.01037114773585171 0.04492285301821183 0.9870901879187046 -0.047146860714617086 0.9869252133280118 -0.04725607651725272 0.007913020021916767 0.04991845788734929
! Port Impedance 100.00000000000000 0.00000000000000 100.00000000000000 0.00000000000000
6395010.0 0.010259987605664794 0.044583641091450465 0.9877203438642033 -0.04852335898268643 0.9873243951377754 -0.048375878653213904 0.007822000408408386 0.049717535826714884
! Port Impedance 100.00000000000000 0.00000000000000 100.00000000000000 0.00000000000000
6427956.0 0.010484402923828212 0.04403316675800634 0.9869019817781746 -0.04884081531563202 0.9866598284977668 -0.04871420505707712 0.008289532394183258 0.04899503159679
! Port Impedance 100.00000000000000 0.00000000000000 100.00000000000000 0.00000000000000
6460902.0 0.010415144923786951 0.04385895960134643 0.987333431761011 -0.04963809891084629 0.9871466229996034 -0.04949661889030803 0.008281180802355709 0.0488935143984459
! Port Impedance 100.00000000000000 0.00000000000000 100.00000000000000 0.00000000000000
6493848.0 0.010523781748561528 0.04364735199946887 0.9870560672742462 -0.05042569572966874 0.9869261262979558 -0.050363057435360195 0.008338290054341502 0.0486111610361131
! Port Impedance 100.00000000000000 0.00000000000000 100.00000000000000 0.00000000000000
6526794.0 0.010499381519232631 0.04338547243740546 0.9869577210562245 -0.05115917004684611 0.9867483257339256 -0.05129519367467748 0.008225945316227223 0.048409621837747364
! Port Impedance 100.00000000000000 0.00000000000000 100.00000000000000 0.00000000000000
6559740.0 0.010601868145543175 0.043216229425551 0.9869563470163918 -0.05214127110991448 0.9868274754513844 -0.05204811480077979 0.008525644764788565 0.0482390896626699
! Port Impedance 100.00000000000000 0.00000000000000 100.00000000000000 0.00000000000000
6592686.0 0.010741835946163347 0.04320563341383478 0.9864894078369155 -0.05292314582733737 0.9863058855841351 -0.052746349789399766 0.00860824177272096 0.04813082510605096
! Port Impedance 100.00000000000000 0.00000000000000 100.00000000000000 0.00000000000000
6625632.0 0.010841543765064743 0.0428365487938905 0.9862411352163466 -0.053957950207430896 0.985875246826352 -0.05372958265114654 0.008934436302038495 0.04767351968405546
! Port Impedance 100.00000000000000 0.00000000000000 100.00000000000000 0.00000000000000
6658578.0 0.010647241188652595 0.04233662076212407 0.9864729043473472 -0.05420623594129287 0.9863435448139868 -0.053972447444236585 0.00876663044252382 0.04729039256759723
! Port Impedance 100.00000000000000 0.00000000000000 100.00000000000000 0.00000000000000
6691524.0 0.011025027312583618 0.042341168370420054 0.9864546679213195 -0.05539882838807136 0.9862489303327286 -0.05500611279627693 0.009151059927915511 0.04713538622577352
! Port Impedance 100.00000000000000 0.00000000000000 100.00000000000000 0.00000000000000
6724470.0 0.010943522540328626 0.04198831610146945 0.9862201953900664 -0.05612446953905513 0.9860613733840033 -0.05575375820538664 0.009257045238573958 0.046755916208612566
! Port Impedance 100.00000000000000 0.00000000000000 100.00000000000000 0.00000000000000
6757416.0 0.010907741011384559 0.04192033837666154 0.9858540161592944 -0.05674764522350494 0.985909036940526 -0.05646575051492346 0.009384005312020882 0.046553587395711846
! Port Impedance 100.00000000000000 0.00000000000000 100.00000000000000 0.00000000000000
6790362.0 0.01071153971037958 0.04152872625814991 0.9855761658210316 -0.057515518649477265 0.9855594295057115 -0.05699607164148293 0.009484102187797439 0.04607100123964529
! Port Impedance 100.00000000000000 0.00000000000000 100.00000000000000 0.00000000000000
6823308.0 0.010962787849931488 0.04102065847173894 0.9850476988714834 -0.05817887995182888 0.9852648532082601 -0.05744855370709366 0.009923957422608543 0.04547738373891537
! Port Impedance 100.00000000000000 0.00000000000000 100.00000000000000 0.00000000000000
6856254.0 0.011115535653653141 0.041143906268603175 0.9852500712155197 -0.05908263859180908 0.9852645419752097 -0.05834080452180638 0.01021750377079969 0.04537693669333647
! Port Impedance 100.00000000000000 0.00000000000000 100.00000000000000 0.00000000000000
6889200.0 0.01106915015608656 0.04077227733743676 0.9849008569395774 -0.0600753304480843 0.9852011085959658 -0.05906471834370025 0.010242055280021423 0.04487598537854798
! Port Impedance 100.00000000000000 0.00000000000000 100.00000000000000 0.00000000000000
6922146.0 0.008922646383240168 0.04174896829435553 0.9906545497838213 -0.07758707694931345 0.9925551501327575 -0.07716122291549025 0.0085832312701635 0.04572870282389802
! Port Impedance 100.00000000000000 0.00000000000000 100.00000000000000 0.00000000000000
6955092.0 0.009043772339504902 0.04148627299029703 0.9898644266867821 -0.07806401994960081 0.99163370287208 -0.07772137938927866 0.008774288756193682 0.04734693298670967
! Port Impedance 100.00000000000000 0.00000000000000 100.00000000000000 0.00000000000000
6988038.0 0.009271177778738898 0.041338120054070185 0.9894074749178834 -0.07861008194682559 0.9912641692939685 -0.078721456112129 0.0089585895982488 0.04762840107615462
! Port Impedance 100.00000000000000 0.00000000000000 100.00000000000000 0.00000000000000
7020984.0 0.008896712321780936 0.04094702375262446 0.9890030640497491 -0.07831953267969592 0.991058519061438 -0.0787645121603895 0.008494677591408484 0.04656791752594959
! Port Impedance 100.00000000000000 0.00000000000000 100.00000000000000 0.00000000000000
7053930.0 0.00923665248816588 0.04063942456201987 0.9886439019118215 -0.07858611126987954 0.9911802608946384 -0.0793112487064606 0.008508627400396984 0.04568110910990281
! Port Impedance 100.00000000000000 0.00000000000000 100.00000000000000 0.00000000000000
7086876.0 0.009194824887132524 0.04066305592996503 0.9886374602425878 -0.07866010513569041 0.9910188315019902 -0.08008273318978269 0.008026132054820612 0.04508957528345533
! Port Impedance 100.00000000000000 0.00000000000000 100.00000000000000 0.00000000000000
7119822.0 0.009248786519107821 0.04065566272172785 0.9887389429778731 -0.07915892204937507 0.9910324102949941 -0.08047943154753387 0.007127965502793737 0.04463659992113906
! Port Impedance 100.00000000000000 0.00000000000000 100.00000000000000 0.00000000000000
7152768.0 0.009502038054242185 0.04020439284110701 0.989364928687434 -0.07907461027729276 0.9911438770187041 -0.0810448808209731 0.0066771123323131065 0.04409110506586673
! Port Impedance 100.00000000000000 0.00000000000000 100.00000000000000 0.00000000000000
7185714.0 0.009421238259672865 0.03983580652855079 0.9897826376092571 -0.07940286852032771 0.9913391283281725 -0.08139185891520055 0.006056046178080532 0.04347362103239008
! Port Impedance 100.00000000000000 0.00000000000000 100.00000000000000 0.00000000000000
7218660.0 0.009579745749201118 0.0399152459464335 0.9896601283707149 -0.0802300716861105 0.9907733931845 -0.0822112883747495 0.0054839330407441544 0.043794074313368334
! Port Impedance 100.00000000000000 0.00000000000000 100.00000000000000 0.00000000000000
7251606.0 0.009504217219747091 0.03947303944467842 0.9904692821048321 -0.08080661861281652 0.9914807702693332 -0.08269462592113735 0.0047767549733802595 0.043623769611006766
! Port Impedance 100.00000000000000 0.00000000000000 100.00000000000000 0.00000000000000
7284552.0 0.009456978999795806 0.03931324889015784 0.9903116786513192 -0.0816079329474885 0.991407196134632 -0.08353342754158542 0.004534951514832963 0.04366791092450693
! Port Impedance 100.00000000000000 0.00000000000000 100.00000000000000 0.00000000000000
7317498.0 0.009822202496177435 0.03929099505199322 0.9904110230127081 -0.0827042197666154 0.9908786691030473 -0.08464058007278755 0.0047422052636909295 0.04396355185190834
! Port Impedance 100.00000000000000 0.00000000000000 100.00000000000000 0.00000000000000
7350444.0 0.009530860210080483 0.03880051157568985 0.9911212323168135 -0.0832183007032462 0.9917425984648459 -0.08506112068503462 0.004301614809812754 0.04359424326814609
! Port Impedance 100.00000000000000 0.00000000000000 100.00000000000000 0.00000000000000
7383390.0 0.01000500808596963 0.0385387555865519 0.9906525634017491 -0.08389197299430476 0.9910291207011435 -0.08580388023291347 0.004560381835341326 0.04375262156433784
! Port Impedance 100.00000000000000 0.00000000000000 100.00000000000000 0.00000000000000
7416336.0 0.009687072584539269 0.03856504696867594 0.9908681087439054 -0.08475340763763128 0.9913426459745289 -0.08670374335229185 0.0041288704106064444 0.043902913331002116
! Port Impedance 100.00000000000000 0.00000000000000 100.00000000000000 0.00000000000000
7449282.0 0.009526380823574543 0.03831947784281824 0.9908109134745464 -0.0855370032799738 0.9912852896677753 -0.0874591489637353 0.004191629040458111 0.04388088538072209
! Port Impedance 100.00000000000000 0.00000000000000 100.00000000000000 0.00000000000000
7482228.0 0.010040158961317519 0.038219473880982804 0.9907143646996988 -0.08657684427286008 0.9908956103006158 -0.08811115079971374 0.004391444927604571 0.044054779135823646
! Port Impedance 100.00000000000000 0.00000000000000 100.00000000000000 0.00000000000000
7515174.0 0.009874186714050243 0.03781639880722046 0.9906789477728026 -0.08709143503510694 0.9907687983213663 -0.08866610202887465 0.0044702883169401575 0.04383469620966922
! Port Impedance 100.00000000000000 0.00000000000000 100.00000000000000 0.00000000000000
7548120.0 0.010003620348982695 0.03764720267048155 0.9906947537281268 -0.08747297835617833 0.9911220322742003 -0.0892856761055531 0.004319082042544525 0.04355392053671078
! Port Impedance 100.00000000000000 0.00000000000000 100.00000000000000 0.00000000000000
7581066.0 0.009868395977381955 0.03759949261274728 0.9905678302640399 -0.08863379698834908 0.9907684269267587 -0.0902401955046452 0.004380782101066266 0.043748176001794134
! Port Impedance 100.00000000000000 0.00000000000000 100.00000000000000 0.00000000000000
7614012.0 0.009990327338682076 0.037537926556571226 0.9905519787434228 -0.08952326830280583 0.9910081105281419 -0.09139138823716225 0.0045176198131285095 0.043714730227560145
! Port Impedance 100.00000000000000 0.00000000000000 100.00000000000000 0.00000000000000
7646958.0 0.009778027356551144 0.03711320790853502 0.9908166923847385 -0.09025885667900431 0.9906070650790579 -0.09134901861302555 0.0042527234443497375 0.043555983036054235
! Port Impedance 100.00000000000000 0.00000000000000 100.00000000000000 0.00000000000000
7679904.0 0.01010796177093412 0.03674935042869037 0.9902416250138519 -0.0908532109595499 0.9906368830267416 -0.09242136611991011 0.004531257800760219 0.043191054491145894
! Port Impedance 100.00000000000000 0.00000000000000 100.00000000000000 0.00000000000000
7712850.0 0.009845946098714864 0.03681848514975998 0.9908510922831634 -0.09164853060255886 0.9906451277481994 -0.09276585708105659 0.004427218454126247 0.043194082017795524
! Port Impedance 100.00000000000000 0.00000000000000 100.00000000000000 0.00000000000000
7745796.0 0.01014983801224384 0.03646277205550955 0.9902358467086823 -0.09241906444668313 0.9900388868839007 -0.09380138442483585 0.004628299432373334 0.042968029723772234
! Port Impedance 100.00000000000000 0.00000000000000 100.00000000000000 0.00000000000000
7778742.0 0.010072857085912351 0.036142269989984835 0.9905912659874417 -0.09256499434974856 0.9909112696534177 -0.09405468295253372 0.004543876169619626 0.04269128721124579
! Port Impedance 100.00000000000000 0.00000000000000 100.00000000000000 0.00000000000000
7811688.0 0.01019349660363808 0.03600967502190289 0.9904859101657929 -0.09329103987080396 0.9906409213901779 -0.09475508828638794 0.004594684997362902 0.04256729791699103
! Port Impedance 100.00000000000000 0.00000000000000 100.00000000000000 0.00000000000000
7844634.0 0.01026654760434223 0.035778565104524575 0.9906061684596907 -0.09412335998777091 0.9903236956909345 -0.09540637798541067 0.00441544902719318 0.04253568187328102
! Port Impedance 100.00000000000000 0.00000000000000 100.00000000000000 0.00000000000000
7877580.0 0.010485125915181082 0.03573457037668985 0.9901629816329552 -0.09482392718101147 0.989957551350114 -0.09618288649448925 0.004688095396271047 0.042491495015069145
! Port Impedance 100.00000000000000 0.00000000000000 100.00000000000000 0.00000000000000
7910526.0 0.010196942162215367 0.035709308080677675 0.989732498584113 -0.09595334901552022 0.9899577234784663 -0.09736011483532407 0.004858065991377364 0.042435507586473666
! Port Impedance 100.00000000000000 0.00000000000000 100.00000000000000 0.00000000000000
7943472.0 0.01031988115861196 0.03543559717335616 0.990239332003263 -0.09648344989284313 0.9900807523791741 -0.09758178958572017 0.00476576079410948 0.04219334552335294
! Port Impedance 100.00000000000000 0.00000000000000 100.00000000000000 0.00000000000000
7976418.0 0.01025388042638603 0.03547832647753519 0.9900402504951649 -0.09755265707566173 0.9900979323479797 -0.09884468140960172 0.0047474046528594716 0.04227329905193099
! Port Impedance 100.00000000000000 0.00000000000000 100.00000000000000 0.00000000000000
8009364.0 0.010646956544164893 0.035075862141626564 0.989538815061911 -0.09792855856835944 0.9892461097372376 -0.09909157236297937 0.0049832804251490614 0.04203896107901166
! Port Impedance 100.00000000000000 0.00000000000000 100.00000000000000 0.00000000000000
8042310.0 0.010592501762810153 0.03500726912327824 0.9895813212582084 -0.09874161616132726 0.9893772181604795 -0.09995479931349624 0.004929168140381163 0.04191833930924844
! Port Impedance 100.00000000000000 0.00000000000000 100.00000000000000 0.00000000000000
8075256.0 0.010541856260540772 0.034646704907701616 0.9897077403892823 -0.09899222660323913 0.9895540837719091 -0.10027765239054194 0.0050416113864523715 0.041331710219072886
! Port Impedance 100.00000000000000 0.00000000000000 100.00000000000000 0.00000000000000
8108202.0 0.010353806021970419 0.03445581156715308 0.9895927631475997 -0.10003730256885912 0.9897436403251643 -0.10119620773206944 0.005026205597760486 0.04120884285445414
! Port Impedance 100.00000000000000 0.00000000000000 100.00000000000000 0.00000000000000
8141148.0 0.010605954721768063 0.03442965451716108 0.9894650864051694 -0.10046605853898867 0.9894736890774869 -0.1015981853574841 0.004957438388808383 0.04142345553695589
! Port Impedance 100.00000000000000 0.00000000000000 100.00000000000000 0.00000000000000
8174094.0 0.010401763832919686 0.03432951101002158 0.9898757625514005 -0.10138559585517572 0.9896811657475156 -0.10246167709701609 0.004855621769384089 0.04119048908393845
! Port Impedance 100.00000000000000 0.00000000000000 100.00000000000000 0.00000000000000
8207040.0 0.010815829921737019 0.03396988034259148 0.9891689386464678 -0.10196568163172015 0.9888497561600492 -0.10299748959836787 0.0051857711726357725 0.04098005278789983
! Port Impedance 100.00000000000000 0.00000000000000 100.00000000000000 0.00000000000000
8239986.0 0.010578960976702384 0.03407679550801286 0.9893174289294966 -0.10261562877817115 0.9891133083909517 -0.10366238799757195 0.004971991929579672 0.041039128132164926
! Port Impedance 100.00000000000000 0.00000000000000 100.00000000000000 0.00000000000000
8272932.0 0.010780492269901909 0.033582595997661654 0.9889765290162387 -0.10312302828121261 0.9891441275908424 -0.10448335495934592 0.005362995813910143 0.04052446221271003
! Port Impedance 100.00000000000000 0.00000000000000 100.00000000000000 0.00000000000000
8305878.0 0.010707038097823779 0.03364042657532218 0.9890709118724282 -0.10405909919741484 0.9888987934077961 -0.10514339266868158 0.0051958517355210065 0.04057553632761371
! Port Impedance 100.00000000000000 0.00000000000000 100.00000000000000 0.00000000000000
8338824.0 0.01075751668022601 0.033450574785089345 0.9892192794254278 -0.10477465866556038 0.9892622867330991 -0.1058765902054607 0.005241566983576362 0.04045054612165046
! Port Impedance 100.00000000000000 0.00000000000000 100.00000000000000 0.00000000000000
8371770.0 0.010591343834660899 0.03329500034043799 0.9891676089019037 -0.10527774986421815 0.9892443954534516 -0.10643792530219466 0.00512434481238172 0.040154298735297515
! Port Impedance 100.00000000000000 0.00000000000000 100.00000000000000 0.00000000000000
8404716.0 0.010819188967195414 0.03310940545376554 0.9885040776086472 -0.10583544080310534 0.9885956814561853 -0.1069902978368159 0.005497552167574499 0.04000257325723399
! Port Impedance 100.00000000000000 0.00000000000000 100.00000000000000 0.00000000000000
8437662.0 0.010733404555884146 0.03300842113589398 0.9891073550575931 -0.10686546385988119 0.9889764876128306 -0.10778425539420688 0.005233078241335676 0.03991767844057022
! Port Impedance 100.00000000000000 0.00000000000000 100.00000000000000 0.00000000000000
8470608.0 0.010639194376851596 0.03274432903668052 0.9890181090264383 -0.10716058538191499 0.9886772230484961 -0.10794058820995718 0.00507775070790234 0.039713816020996245
! Port Impedance 100.00000000000000 0.00000000000000 100.00000000000000 0.00000000000000
8503554.0 0.010814744011856392 0.03245881898700786 0.9884094339610716 -0.10792268477483001 0.9881493241395974 -0.10883130026448319 0.005272357088641183 0.03952486495626804
! Port Impedance 100.00000000000000 0.00000000000000 100.00000000000000 0.00000000000000
8536500.0 0.010767502544057256 0.032421006828189984 0.9888743312693387 -0.10898883990773067 0.9886072401561281 -0.11006254318162201 0.0053626745868230186 0.039375135327279695
! Port Impedance 100.00000000000000 0.00000000000000 100.00000000000000 0.00000000000000
8569446.0 0.010929204536969217 0.03216551103798948 0.9889510924868486 -0.10934549532504206 0.9887328957615086 -0.11039991051536716 0.005366161687140297 0.03907482603644286
! Port Impedance 100.00000000000000 0.00000000000000 100.00000000000000 0.00000000000000
8602392.0 0.011143313279516343 0.0321487269855906 0.9885539368407344 -0.11007477399560503 0.9883761366423726 -0.11118913251245321 0.005642282141934407 0.03910781093345805
! Port Impedance 100.00000000000000 0.00000000000000 100.00000000000000 0.00000000000000
8635338.0 0.010998856670112633 0.031623162311221635 0.9883833863356325 -0.1099553490835044 0.988058024958714 -0.11093187342016703 0.005124493882554065 0.03873507893012652
! Port Impedance 100.00000000000000 0.00000000000000 100.00000000000000 0.00000000000000
8668284.0 0.01097908579452661 0.0316029622077177 0.9882175347330797 -0.11098127862475957 0.9881597136992585 -0.11223186791140109 0.005556729773577435 0.03849176342917865
! Port Impedance 100.00000000000000 0.00000000000000 100.00000000000000 0.00000000000000
8701230.0 0.01090183602704678 0.031498163746529056 0.9881330080718982 -0.11202438399182188 0.9875366082568717 -0.11283102884532277 0.005420471777364322 0.03856511652661616
! Port Impedance 100.00000000000000 0.00000000000000 100.00000000000000 0.00000000000000
8734176.0 0.011082700239174903 0.03145215893421467 0.9875498646238242 -0.11231628067725685 0.9878572772722346 -0.11349949440681661 0.005561937865912581 0.038474751245179975
! Port Impedance 100.00000000000000 0.00000000000000 100.00000000000000 0.00000000000000
8767122.0 0.011159181818827829 0.031246084717146627 0.987737769683326 -0.11292789027866279 0.987867279968214 -0.11398352685886602 0.005577724376642751 0.03821756741912038
! Port Impedance 100.00000000000000 0.00000000000000 100.00000000000000 0.00000000000000
8800068.0 0.01106494685686471 0.03118439900460359 0.9876610384360593 -0.11408686224233537 0.9874610606653024 -0.11500236492056364 0.005439307661068038 0.0382691427247381
! Port Impedance 100.00000000000000 0.00000000000000 100.00000000000000 0.00000000000000
8833014.0 0.011160176407892936 0.030959846201041235 0.9879633338312439 -0.11466729635083152 0.9877099067594285 -0.11562538875468803 0.0054894620151490214 0.03786126666914069
! Port Impedance 100.00000000000000 0.00000000000000 100.00000000000000 0.00000000000000
8865960.0 0.011082730349149694 0.030757249991820772 0.9874673669240204 -0.11469861136997016 0.987380234772173 -0.11577878778177536 0.0052967991901697875 0.03794192554750197
! Port Impedance 100.00000000000000 0.00000000000000 100.00000000000000 0.00000000000000
8898906.0 0.01117268695687959 0.030649841754548685 0.9872513111478853 -0.11557071083362191 0.98736044840721 -0.11645725903501884 0.005461420585531229 0.03775146567920608
! Port Impedance 100.00000000000000 0.00000000000000 100.00000000000000 0.00000000000000
8931852.0 0.011052320354238837 0.030516732337511607 0.9880614475494167 -0.11648775607102352 0.9879099997029623 -0.11750093287856563 0.005392135427902317 0.037370382238696515
! Port Impedance 100.00000000000000 0.00000000000000 100.00000000000000 0.00000000000000
8964798.0 0.011031977996230569 0.030177563310122266 0.9876219173129472 -0.11714764785954543 0.9874615056600228 -0.11819062694027213 0.005375580364756383 0.03721806679501434
! Port Impedance 100.00000000000000 0.00000000000000 100.00000000000000 0.00000000000000
8997744.0 0.011416165980221715 0.030081479701587893 0.9871769245298703 -0.11747000768256607 0.9870898012143676 -0.11853742985325824 0.005854339357068056 0.03707433153252045
! Port Impedance 100.00000000000000 0.00000000000000 100.00000000000000 0.00000000000000
9030690.0 0.011206411335495298 0.029977475489349523 0.9875558413613135 -0.11812560232770156 0.9873316292031257 -0.11893811211388702 0.005556862407218033 0.03693211611668015
! Port Impedance 100.00000000000000 0.00000000000000 100.00000000000000 0.00000000000000
9063636.0 0.011480473399964164 0.029770336795063555 0.9869971393465702 -0.11887157505739385 0.9866795884399352 -0.11981012478645003 0.006030158120519574 0.03676489725720302
! Port Impedance 100.00000000000000 0.00000000000000 100.00000000000000 0.00000000000000
9096582.0 0.011395735695564957 0.029554811893976667 0.9866948523990176 -0.11919028584088336 0.9864992326842739 -0.1202318980130159 0.0058425067606662495 0.03652520501950303
! Port Impedance 100.00000000000000 0.00000000000000 100.00000000000000 0.00000000000000
9129528.0 0.011420727857782947 0.0294816738549773 0.9864350017319353 -0.1198815904257903 0.9862686681921662 -0.12092117583422096 0.0058277334113925605 0.036483168102536837
! Port Impedance 100.00000000000000 0.00000000000000 100.00000000000000 0.00000000000000
9162474.0 0.011442457498891195 0.029534354887653574 0.9867686268360988 -0.12078590454479199 0.9869285138351109 -0.12170480302389791 0.00578830180427381 0.03660483829858795
! Port Impedance 100.00000000000000 0.00000000000000 100.00000000000000 0.00000000000000
9195420.0 0.011584916682748109 0.029330903660424616 0.9865166244308006 -0.12125892490747948 0.9861811270712364 -0.12224370188601957 0.0057341662906323365 0.03628738707767737
! Port Impedance 100.00000000000000 0.00000000000000 100.00000000000000 0.00000000000000
9228366.0 0.011444627220207892 0.028810164574968735 0.9864869378246682 -0.12142701069195065 0.9862115052719843 -0.12244982838931295 0.005880385452464804 0.03588866970798686
! Port Impedance 100.00000000000000 0.00000000000000 100.00000000000000 0.00000000000000
9261312.0 0.011882827802267543 0.02884844665166245 0.9859463348866332 -0.12241811704143638 0.9858434459004455 -0.12364240361357816 0.006081462701111734 0.03580729360019108
! Port Impedance 100.00000000000000 0.00000000000000 100.00000000000000 0.00000000000000
9294258.0 0.011627197156969166 0.028846412671629972 0.9865097706458678 -0.12343412279562548 0.9861834695297652 -0.12448181854530099 0.005860758577066083 0.0358176631043344
! Port Impedance 100.00000000000000 0.00000000000000 100.00000000000000 0.00000000000000
9327204.0 0.011438343303798504 0.028442169119864247 0.9869912987520539 -0.12392516877443177 0.9867226061116501 -0.12493742438508446 0.005797974170698161 0.03555252539873581
! Port Impedance 100.00000000000000 0.00000000000000 100.00000000000000 0.00000000000000
9360150.0 0.011715844868237596 0.02868260675638428 0.986243096347065 -0.12426898648336977 0.9861662179433832 -0.12565391138525212 0.005907172712541792 0.035581490280672576
! Port Impedance 100.00000000000000 0.00000000000000 100.00000000000000 0.00000000000000
9393096.0 0.011559306283209503 0.028514903702318593 0.9860751933324441 -0.1253785583999465 0.9856671741161099 -0.1263454436445999 0.005900197712300159 0.035514057115999406
! Port Impedance 100.00000000000000 0.00000000000000 100.00000000000000 0.00000000000000
9426042.0 0.011634023503997643 0.028195708652978352 0.9860641451305808 -0.12562181874819597 0.9861941294420459 -0.12671756462647932 0.005721896007180566 0.03524567567687179
! Port Impedance 100.00000000000000 0.00000000000000 100.00000000000000 0.00000000000000
9458988.0 0.011716610787866233 0.027956232054906188 0.9858214267296027 -0.1260562048938141 0.9853521821804605 -0.12715508789479932 0.005973180261546113 0.03496394320659568
! Port Impedance 100.00000000000000 0.00000000000000 100.00000000000000 0.00000000000000
9491934.0 0.012022642728551025 0.027795938474531892 0.9858255328666035 -0.12699965130220564 0.9856874833784985 -0.1280135523354309 0.006028101904743816 0.034878846348922306
! Port Impedance 100.00000000000000 0.00000000000000 100.00000000000000 0.00000000000000
9524880.0 0.011742996279317713 0.027905532244863973 0.9854399670369449 -0.12747006059606136 0.9852260320132051 -0.12842243642755713 0.0061981556711666885 0.03490536377378008
! Port Impedance 100.00000000000000 0.00000000000000 100.00000000000000 0.00000000000000
9557826.0 0.011846383723987997 0.027613514853407056 0.985510378260311 -0.12793602463715753 0.9856505099827462 -0.12915328292080952 0.0059695381243099754 0.03464016542636355
! Port Impedance 100.00000000000000 0.00000000000000 100.00000000000000 0.00000000000000
9590772.0 0.011586895921696067 0.027505719752606454 0.9859313755020187 -0.12902663903544473 0.9855892047674351 -0.1299977404256975 0.005840082654433532 0.03468079266242719
! Port Impedance 100.00000000000000 0.00000000000000 100.00000000000000 0.00000000000000
9623718.0 0.01173930744985896 0.027383190406881988 0.9852025265612139 -0.12951261478187137 0.9853009032198671 -0.1304149776802868 0.005883718256196352 0.034491094702558345
! Port Impedance 100.00000000000000 0.00000000000000 100.00000000000000 0.00000000000000
9656664.0 0.01205296278913695 0.027021072721488452 0.9845963845950727 -0.12956075589573518 0.9846325264528325 -0.130768054829195 0.006439979618242886 0.03388204357925234
! Port Impedance 100.00000000000000 0.00000000000000 100.00000000000000 0.00000000000000
9689610.0 0.01194739466821726 0.02695731597680666 0.9851998512751146 -0.13068642306902395 0.984932043862429 -0.13155023177651134 0.006170968837168417 0.033898418891330384
! Port Impedance 100.00000000000000 0.00000000000000 100.00000000000000 0.00000000000000
9722556.0 0.011850277011198729 0.027054127541612304 0.9847781883895967 -0.13090692828888809 0.9848748575694075 -0.1321426655470342 0.006232036583007972 0.033878372605861906
! Port Impedance 100.00000000000000 0.00000000000000 100.00000000000000 0.00000000000000
9755502.0 0.011933398947675006 0.026578615359296877 0.9849377932824994 -0.13161104699430695 0.9848122617824822 -0.1325085295518579 0.006072272932033329 0.03365301966282348
! Port Impedance 100.00000000000000 0.00000000000000 100.00000000000000 0.00000000000000
9788448.0 0.011826097705781052 0.026840128780728948 0.9855362013930902 -0.13251683981091328 0.9852549337879046 -0.13335771445319772 0.0058296788932644394 0.03385080339228715
! Port Impedance 100.00000000000000 0.00000000000000 100.00000000000000 0.00000000000000
9821394.0 0.011868095425874275 0.0263028273773964 0.9845362380207352 -0.13236236083823916 0.9844805681214748 -0.1334223002163299 0.006050266376681129 0.033169847927281775
! Port Impedance 100.00000000000000 0.00000000000000 100.00000000000000 0.00000000000000
9854340.0 0.011814916654628749 0.026359594026391285 0.9846748513797225 -0.13358467930437354 0.9846642570318909 -0.13484084662832635 0.006093890087680742 0.033293072234320584
! Port Impedance 100.00000000000000 0.00000000000000 100.00000000000000 0.00000000000000
9887286.0 0.012263237108700337 0.02621071297563044 0.9843074607976631 -0.1340862617776703 0.9841523362728033 -0.135106666540518 0.006290608405310233 0.033219457433872494
! Port Impedance 100.00000000000000 0.00000000000000 100.00000000000000 0.00000000000000
9920232.0 0.011798436680531238 0.02614144242274729 0.9848073715325963 -0.13512783569293582 0.9845492161609333 -0.13615284128662716 0.00601445015067692 0.03305065251521083
! Port Impedance 100.00000000000000 0.00000000000000 100.00000000000000 0.00000000000000
9953178.0 0.012142931108268862 0.025908140098005707 0.9846507959532859 -0.13579040507026938 0.9842977817519032 -0.13684393312845813 0.0061365205320244864 0.03302763220528382
! Port Impedance 100.00000000000000 0.00000000000000 100.00000000000000 0.00000000000000
9986124.0 0.011798796744382167 0.026103915134949276 0.9846017909874769 -0.13603673622443704 0.9848084100859386 -0.13711309051754378 0.006085270484377542 0.03297175644783338
! Port Impedance 100.00000000000000 0.00000000000000 100.00000000000000 0.00000000000000
10019070.0 0.012300368096989867 0.02555100292059697 0.9844756883131457 -0.13634261061385233 0.9838893692107431 -0.13743103823607955 0.006252083684697013 0.032517151592573776
! Port Impedance 100.00000000000000 0.00000000000000 100.00000000000000 0.00000000000000
10052016.0 0.01215999349058805 0.025338850944358844 0.9837233127471126 -0.13682090529621604 0.983602338856042 -0.13800914550824536 0.006329537042513406 0.03233746046096596
! Port Impedance 100.00000000000000 0.00000000000000 100.00000000000000 0.00000000000000
10084962.0 0.012394194123520164 0.025366019479119255 0.9836222637282466 -0.13779881771652266 0.9835919996505469 -0.13873798243441748 0.00637735845985235 0.032375033079873175
! Port Impedance 100.00000000000000 0.00000000000000 100.00000000000000 0.00000000000000
10117908.0 0.011919139652556976 0.025448278863333437 0.9842654935554584 -0.13861616323404866 0.9839438567038085 -0.13958906726591405 0.006214520140225804 0.03218944989428277
! Port Impedance 100.00000000000000 0.00000000000000 100.00000000000000 0.00000000000000
10150854.0 0.012012438487815885 0.025138443324923054 0.9838832526982629 -0.1393309125220912 0.9838322136493528 -0.14023478745341267 0.005884730079630696 0.03244473891448249
! Port Impedance 100.00000000000000 0.00000000000000 100.00000000000000 0.00000000000000
10183800.0 0.012416966676705193 0.025006721931629963 0.9834144586105713 -0.13944304697604099 0.9835263775033622 -0.1404082334770285 0.006575417949115536 0.032026181008753554
! Port Impedance 100.00000000000000 0.00000000000000 100.00000000000000 0.00000000000000
10216746.0 0.01209994526558597 0.02500434292894954 0.984059965104691 -0.1401761274149511 0.9837329969665514 -0.14120551716044524 0.006129635162244074 0.03189165836168719
! Port Impedance 100.00000000000000 0.00000000000000 100.00000000000000 0.00000000000000
10249692.0 0.012283763079166732 0.024849611061141606 0.9837607192545861 -0.14071377829067214 0.983158832326847 -0.1416217880452661 0.006119274298262867 0.03173662324953161
! Port Impedance 100.00000000000000 0.00000000000000 100.00000000000000 0.00000000000000
10282638.0 0.012422530387374509 0.02453619704481448 0.9832635272219825 -0.14148802781531494 0.9830968037396104 -0.14236910612783485 0.006293725084719509 0.03150731137274121
! Port Impedance 100.00000000000000 0.00000000000000 100.00000000000000 0.00000000000000
10315584.0 0.01227382968217669 0.02453817621898365 0.983211209428871 -0.1418867537176915 0.9832695488760037 -0.14322816096057378 0.006510434164903156 0.03133322689300587
! Port Impedance 100.00000000000000 0.00000000000000 100.00000000000000 0.00000000000000
10348530.0 0.01215261262846784 0.02431711683197369 0.9835018515169933 -0.14280825070403425 0.9831953960048154 -0.14376097729685372 0.006152041404919373 0.0313063734103643
! Port Impedance 100.00000000000000 0.00000000000000 100.00000000000000 0.00000000000000
10381476.0 0.012355945224518883 0.024287066273426937 0.9831298694801075 -0.1433174422940005 0.9829041287214243 -0.14428807672296087 0.00605026062991007 0.03141788584686041
! Port Impedance 100.00000000000000 0.00000000000000 100.00000000000000 0.00000000000000
10414422.0 0.012455567575041904 0.024021839379481286 0.9829371676204726 -0.14353218127314754 0.9827569482352614 -0.14462710020348385 0.006282267754542825 0.030949379503508345
! Port Impedance 100.00000000000000 0.00000000000000 100.00000000000000 0.00000000000000
10447368.0 0.012283090962724813 0.023869224724416833 0.9827293123099924 -0.14411940714271967 0.9824388802462797 -0.14510452999368503 0.006305107393065473 0.030778349320556234
! Port Impedance 100.00000000000000 0.00000000000000 100.00000000000000 0.00000000000000
10480314.0 0.012466468985616458 0.023833938435848842 0.9822486737367493 -0.1448428843079908 0.9822381031008101 -0.14616976716855037 0.006426843545502298 0.03069906985766379
! Port Impedance 100.00000000000000 0.00000000000000 100.00000000000000 0.00000000000000
10513260.0 0.012550885015464641 0.02364715711160112 0.9830702854881542 -0.14562475789508134 0.9827886580218165 -0.1467501012198714 0.006248431015106193 0.030836388314689663
! Port Impedance 100.00000000000000 0.00000000000000 100.00000000000000 0.00000000000000
10546206.0 0.012478405521498759 0.02363965219615905 0.9822450634480303 -0.14588157934389584 0.9821201000414563 -0.1468782847327957 0.006478931310712144 0.030460590651709522
! Port Impedance 100.00000000000000 0.00000000000000 100.00000000000000 0.00000000000000
10579152.0 0.012681249370772307 0.02330509936385036 0.982869702853344 -0.14681969091966673 0.9824252944974483 -0.14776183282000216 0.006311803092985818 0.03036930228905213
! Port Impedance 100.00000000000000 0.00000000000000 100.00000000000000 0.00000000000000
10612098.0 0.012600857577498764 0.02320555415938381 0.9820347659672997 -0.14695500972983844 0.9817529278277526 -0.14803047669477334 0.006355655433808699 0.030103813811652592
! Port Impedance 100.00000000000000 0.00000000000000 100.00000000000000 0.00000000000000
10645044.0 0.012554168751707728 0.0232938830095857 0.9822000340626882 -0.14768320014941014 0.982102743727717 -0.14873238826613996 0.006169836796999839 0.03022266921002891
! Port Impedance 100.00000000000000 0.00000000000000 100.00000000000000 0.00000000000000
10677990.0 0.012478175402207609 0.023122420188792597 0.9819210880715116 -0.14818073384762734 0.9818832729078235 -0.1493790068498571 0.006409451001473776 0.029889891731822823
! Port Impedance 100.00000000000000 0.00000000000000 100.00000000000000 0.00000000000000
10710936.0 0.012481714548648437 0.02289595305802297 0.9818192861834352 -0.1492099409179582 0.9819814199134168 -0.1501517108858184 0.00638730779250693 0.02996493521359958
! Port Impedance 100.00000000000000 0.00000000000000 100.00000000000000 0.00000000000000
10743882.0 0.01260913447529513 0.022769310358725703 0.9819680688138434 -0.14946462751571576 0.9816717964781452 -0.15042127765662716 0.006222924826073145 0.029841838185989695
! Port Impedance 100.00000000000000 0.00000000000000 100.00000000000000 0.00000000000000
10776828.0 0.01280152423826253 0.02236689532664984 0.9820185961971348 -0.15011514023294753 0.9816895013479868 -0.15098041862335587 0.006238551561310812 0.029454376837000446
! Port Impedance 100.00000000000000 0.00000000000000 100.00000000000000 0.00000000000000
10809774.0 0.012508946115248443 0.022727235074232445 0.9813863848787752 -0.15069743385825543 0.9812615865003391 -0.1519444250267943 0.006470411557815109 0.0294501080607577
! Port Impedance 100.00000000000000 0.00000000000000 100.00000000000000 0.00000000000000
10842720.0 0.012614029235412938 0.0224340978074789 0.9815925999000905 -0.15121823373164217 0.9813818788163172 -0.15240206843548815 0.006411272097884696 0.029114607484574208
! Port Impedance 100.00000000000000 0.00000000000000 100.00000000000000 0.00000000000000
10875666.0 0.012855909992924075 0.02223088369739208 0.9817128023654611 -0.15207225789358308 0.9813268430327826 -0.15278036986540916 0.006354094312041064 0.029381844070257263
! Port Impedance 100.00000000000000 0.00000000000000 100.00000000000000 0.00000000000000
10908612.0 0.012531922713593019 0.022040672668257197 0.9813529869540111 -0.15235469784519856 0.981090744695227 -0.15351345835315824 0.0062504866527798575 0.029065508413187363
! Port Impedance 100.00000000000000 0.00000000000000 100.00000000000000 0.00000000000000
10941558.0 0.01284368596554697 0.021719674636594865 0.9814753344853473 -0.15306497775931638 0.9812769301655002 -0.15403152211461096 0.006196420755691462 0.028735168303820217
! Port Impedance 100.00000000000000 0.00000000000000 100.00000000000000 0.00000000000000
10974504.0 0.012782089400366625 0.0217737044919162 0.98129465493958 -0.15364380241309972 0.9810368447624666 -0.15453149867644306 0.006180621200645026 0.028848544511284498
! Port Impedance 100.00000000000000 0.00000000000000 100.00000000000000 0.00000000000000
11007450.0 0.01268694555931743 0.021966976697066425 0.9806587803960336 -0.15404537394232454 0.9806219113609699 -0.15535498348997756 0.006554205426334336 0.028491633842608062
! Port Impedance 100.00000000000000 0.00000000000000 100.00000000000000 0.00000000000000
11040396.0 0.012870312506410797 0.021606331731309127 0.9811958911387341 -0.15517086140875108 0.980980949211881 -0.15627514826360073 0.006315834840330464 0.028675826681589252
! Port Impedance 100.00000000000000 0.00000000000000 100.00000000000000 0.00000000000000
11073342.0 0.01269774314142641 0.02158025823358722 0.9804553622800798 -0.15534959676023075 0.9805050677731051 -0.15621543922990044 0.006546171096146969 0.028439262550967424
! Port Impedance 100.00000000000000 0.00000000000000 100.00000000000000 0.00000000000000
11106288.0 0.013151134672508252 0.021253270085570132 0.9804822200173794 -0.15601156523907359 0.9803265750150004 -0.1568040235976869 0.006750622802160017 0.028280776965460573
! Port Impedance 100.00000000000000 0.00000000000000 100.00000000000000 0.00000000000000
11139234.0 0.012719227894021329 0.021428313566398505 0.9806764323339183 -0.15647318624582124 0.9805043622002236 -0.15760070116040842 0.006079907126246342 0.028496076786236377
! Port Impedance 100.00000000000000 0.00000000000000 100.00000000000000 0.00000000000000
11172180.0 0.012730884237253937 0.021054374013558204 0.9805592042579485 -0.15689286978952194 0.9802475492670705 -0.15812090409821822 0.006345363820848909 0.027852103943616667
! Port Impedance 100.00000000000000 0.00000000000000 100.00000000000000 0.00000000000000
11205126.0 0.013071892513142808 0.020904110551307586 0.9805769191843063 -0.15793198928968472 0.980146706830997 -0.1587951413360474 0.006366892720368528 0.02788891965706094
! Port Impedance 100.00000000000000 0.00000000000000 100.00000000000000 0.00000000000000
11238072.0 0.013049270614389624 0.02104749137680985 0.9798944777779843 -0.15837521145618755 0.9797872348564528 -0.1594446105052936 0.006678160610743389 0.02801377212516433
! Port Impedance 100.00000000000000 0.00000000000000 100.00000000000000 0.00000000000000
11271018.0 0.012948269086420688 0.020925222202754862 0.9800357729879632 -0.15880856237391117 0.9798489616618682 -0.16008251053538752 0.006582622446583392 0.027685207100813063
! Port Impedance 100.00000000000000 0.00000000000000 100.00000000000000 0.00000000000000
11303964.0 0.013152304082850813 0.020589920783978085 0.9796045290550025 -0.15959077056778248 0.9796459471801341 -0.16057941897101274 0.006495678749460526 0.027560209687437477
! Port Impedance 100.00000000000000 0.00000000000000 100.00000000000000 0.00000000000000
11336910.0 0.013229499472201534 0.020494027532992468 0.9796184606951495 -0.15994056487889383 0.9793671810926573 -0.16077951665526563 0.006532779488118284 0.027548433979478794
! Port Impedance 100.00000000000000 0.00000000000000 100.00000000000000 0.00000000000000
11369856.0 0.013173272333585145 0.020512194251711337 0.9798928272368229 -0.16064841673811214 0.9796583638511358 -0.16164795512552532 0.006440938600460161 0.027493867644164508
! Port Impedance 100.00000000000000 0.00000000000000 100.00000000000000 0.00000000000000
11402802.0 0.01280892195309452 0.02047969323759092 0.9796764617583233 -0.16098965347397548 0.9796337625498169 -0.16202389069047762 0.0062339544663128355 0.02742484896971397
! Port Impedance 100.00000000000000 0.00000000000000 100.00000000000000 0.00000000000000
11435748.0 0.012837875692789963 0.020161751793184884 0.9792742462179519 -0.16135151142687193 0.9790530589761982 -0.1622325249207405 0.006464805280171487 0.026921165566056362
! Port Impedance 100.00000000000000 0.00000000000000 100.00000000000000 0.00000000000000
11468694.0 0.013378477094852709 0.019948077396305195 0.9794627971360506 -0.1622860844231671 0.9792354819416139 -0.16328040056259588 0.006517237460648889 0.02689624418329682
! Port Impedance 100.00000000000000 0.00000000000000 100.00000000000000 0.00000000000000
11501640.0 0.013050061268227414 0.019748486498213477 0.9792666660572668 -0.16281440745614642 0.979079112620602 -0.1639379690353149 0.00631976573896692 0.026789255734296663
! Port Impedance 100.00000000000000 0.00000000000000 100.00000000000000 0.00000000000000
11534586.0 0.012908380455510127 0.0203131936946565 0.9790058476799761 -0.16386950166814507 0.9790309050532837 -0.1649890956016808 0.006454844484031663 0.02713672481294474
! Port Impedance 100.00000000000000 0.00000000000000 100.00000000000000 0.00000000000000
11567532.0 0.013498501833740767 0.01963901868464686 0.9790145899269201 -0.16417957786105639 0.978624762946084 -0.16519752870598073 0.006667921269637694 0.026617603777427473
! Port Impedance 100.00000000000000 0.00000000000000 100.00000000000000 0.00000000000000
11600478.0 0.013458537750694693 0.019399409031646865 0.9784827501834201 -0.16413061372108595 0.978392729755641 -0.1650946116439339 0.006769956798977211 0.026158910555351994
! Port Impedance 100.00000000000000 0.00000000000000 100.00000000000000 0.00000000000000
11633424.0 0.013527240327249945 0.01942403933897781 0.9786488388094524 -0.16512433778488306 0.9784713975969092 -0.16599151785118188 0.006582290221870651 0.026452863186577052
! Port Impedance 100.00000000000000 0.00000000000000 100.00000000000000 0.00000000000000
11666370.0 0.013300512862985503 0.01933732340047578 0.9786154254609042 -0.16573799809628495 0.9785663451109516 -0.16681028111768575 0.006563722672212752 0.026304328216643743
! Port Impedance 100.00000000000000 0.00000000000000 100.00000000000000 0.00000000000000
11699316.0 0.013403777266397437 0.01929026563398331 0.9783795211642587 -0.16643007281485206 0.9782661677302947 -0.16750672920014675 0.0067115899191954875 0.026213711420343663
! Port Impedance 100.00000000000000 0.00000000000000 100.00000000000000 0.00000000000000
11732262.0 0.013540615778180609 0.01912110699759199 0.9786623277147044 -0.16704710955307145 0.9785424566064347 -0.1682282102952149 0.006609778904939745 0.025978154422388752
! Port Impedance 100.00000000000000 0.00000000000000 100.00000000000000 0.00000000000000
11765208.0 0.013678151984034631 0.018922083736164042 0.978171577948333 -0.16743434160928983 0.9777141520160127 -0.16849696976954492 0.006651643495808962 0.025953559889282746
! Port Impedance 100.00000000000000 0.00000000000000 100.00000000000000 0.00000000000000
11798154.0 0.013287280825413667 0.018714480410276402 0.9781791462097559 -0.1676629004530024 0.9778524885551159 -0.16856754709061572 0.006266913861295548 0.025626701348962146
! Port Impedance 100.00000000000000 0.00000000000000 100.00000000000000 0.00000000000000
11831100.0 0.013695190053051726 0.01870077425219855 0.977873724428151 -0.1684374627807301 0.9775717067780495 -0.16957483105148288 0.006715019737638023 0.025638972178649543
! Port Impedance 100.00000000000000 0.00000000000000 100.00000000000000 0.00000000000000
11864046.0 0.013284835529379396 0.01893284505627736 0.9777871634162506 -0.1695061607559465 0.9775604247338324 -0.17059007059175674 0.0065189700924666305 0.02571023251428954
! Port Impedance 100.00000000000000 0.00000000000000 100.00000000000000 0.00000000000000
11896992.0 0.013520191401507314 0.018639557203415123 0.9781280773739187 -0.16965701646487102 0.9778007487058851 -0.1708767311711481 0.0065961646339970925 0.02544850786481121
! Port Impedance 100.00000000000000 0.00000000000000 100.00000000000000 0.00000000000000
11929938.0 0.013559573082953358 0.01837149727808112 0.9774872904904454 -0.17027271373947422 0.9773545764371484 -0.1710920379203614 0.006615521505217742 0.025398249177767056
! Port Impedance 100.00000000000000 0.00000000000000 100.00000000000000 0.00000000000000
11962884.0 0.013304940906983975 0.018189639774310203 0.9780151674910654 -0.17095071769413495 0.9775943971545535 -0.1720372627692348 0.0063802749475163345 0.025328429908926486
! Port Impedance 100.00000000000000 0.00000000000000 100.00000000000000 0.00000000000000
11995830.0 0.013388717707119357 0.018583419985804178 0.9776034991196924 -0.17145508691485273 0.9773657425659391 -0.17252666005976805 0.006389480095699035 0.025483661000510263
! Port Impedance 100.00000000000000 0.00000000000000 100.00000000000000 0.00000000000000
12028776.0 0.013486953592732415 0.018055121556243135 0.977138649338667 -0.17207111588489343 0.9768610134240433 -0.17317143707261162 0.00637827336522459 0.025082412870351917
! Port Impedance 100.00000000000000 0.00000000000000 100.00000000000000 0.00000000000000
12061722.0 0.013369977850220371 0.018161734445507453 0.9772431260921598 -0.17301821701407727 0.9769060589747677 -0.17395495612404532 0.006495537139362434 0.025049619267608996
! Port Impedance 100.00000000000000 0.00000000000000 100.00000000000000 0.00000000000000
12094668.0 0.013662024733448436 0.018056159350147188 0.9768377477947054 -0.17352683683390926 0.9766022579234863 -0.17447037138121976 0.006595675832859166 0.025028113690256197
! Port Impedance 100.00000000000000 0.00000000000000 100.00000000000000 0.00000000000000
12127614.0 0.013551712241208463 0.017630957928121513 0.9768515720051006 -0.17369449304998302 0.9768142225602343 -0.17493286458944193 0.006744344222134185 0.024430224979327092
! Port Impedance 100.00000000000000 0.00000000000000 100.00000000000000 0.00000000000000
12160560.0 0.013412864216820808 0.01784692557240889 0.9768936126574863 -0.17436941705141065 0.9765668035922124 -0.17550483844085585 0.0064883311593984805 0.024597112019266173
! Port Impedance 100.00000000000000 0.00000000000000 100.00000000000000 0.00000000000000
12193506.0 0.013672163834432122 0.017556676384970032 0.9766810579352982 -0.17502544287160166 0.97664468975684 -0.17592953182948484 0.006612697989198585 0.02449949318317174
! Port Impedance 100.00000000000000 0.00000000000000 100.00000000000000 0.00000000000000
12226452.0 0.0135677712334831 0.017440949239707598 0.9765853631093249 -0.17511891728462342 0.9764709282471795 -0.17602052175305133 0.006565429730258032 0.024253097503194484
! Port Impedance 100.00000000000000 0.00000000000000 100.00000000000000 0.00000000000000
12259398.0 0.013580799349324574 0.01744149871660535 0.9764389584821371 -0.17620973840468918 0.9762622636500844 -0.17735612684283625 0.0067111944127861145 0.02421606521677291
! Port Impedance 100.00000000000000 0.00000000000000 100.00000000000000 0.00000000000000
12292344.0 0.013640015965618257 0.017233646468110757 0.9767755888590671 -0.1765385939304456 0.9765614474509807 -0.17755541925377277 0.0064638526843676936 0.02396446096268233
! Port Impedance 100.00000000000000 0.00000000000000 100.00000000000000 0.00000000000000
12325290.0 0.013634303282986565 0.01706612902680861 0.9761607124630579 -0.1770472609886407 0.975719584060065 -0.17804784251128902 0.006578013109308667 0.024075870467718676
! Port Impedance 100.00000000000000 0.00000000000000 100.00000000000000 0.00000000000000
12358236.0 0.013788818648357876 0.017084674847423754 0.9759273655846857 -0.17757079384115246 0.9754639836750811 -0.17862811055272348 0.006425593005588509 0.023919783389981443
! Port Impedance 100.00000000000000 0.00000000000000 100.00000000000000 0.00000000000000
12391182.0 0.013731554515514222 0.016856280666718217 0.9760651884101014 -0.17776938370825596 0.9757270092839956 -0.17872446732100838 0.006466243810143352 0.023797674558736034
! Port Impedance 100.00000000000000 0.00000000000000 100.00000000000000 0.00000000000000
12424128.0 0.013533504455059409 0.016726873603122732 0.9757615778692778 -0.17850009874418868 0.9756144472291971 -0.1795810542848931 0.00640741401888964 0.0237180631092324
! Port Impedance 100.00000000000000 0.00000000000000 100.00000000000000 0.00000000000000
12457074.0 0.013662026357832813 0.017149011883533634 0.9757902085702916 -0.17953190900003257 0.9757060364522451 -0.18072364021269166 0.006389635543618433 0.023938327152044508
! Port Impedance 100.00000000000000 0.00000000000000 100.00000000000000 0.00000000000000
12490020.0 0.013584185812947736 0.0166250973992913 0.9761475008638185 -0.18017679565325537 0.975974219474297 -0.18089444226222146 0.006297897237477673 0.023628894981608896
! Port Impedance 100.00000000000000 0.00000000000000 100.00000000000000 0.00000000000000
12522966.0 0.01364787477032775 0.01644153242955652 0.9759499389122033 -0.18063746145866463 0.9757966045463673 -0.18147524907421356 0.006381627841637566 0.023426906018464033
! Port Impedance 100.00000000000000 0.00000000000000 100.00000000000000 0.00000000000000
12555912.0 0.01347874929925827 0.01659568153708683 0.975725228949788 -0.18112510421895622 0.9755219596199681 -0.18203499333444761 0.006310832540622646 0.023444627181384965
! Port Impedance 100.00000000000000 0.00000000000000 100.00000000000000 0.00000000000000
12588858.0 0.013651058458536092 0.016376457657290955 0.9754981741612225 -0.18161046254963648 0.975392498999397 -0.1825018490500972 0.006523905341296654 0.023304651113610277
! Port Impedance 100.00000000000000 0.00000000000000 100.00000000000000 0.00000000000000
12621804.0 0.013500381055068122 0.016306324131777263 0.9755232438438262 -0.18181793404326407 0.9751245620289748 -0.18329933619160182 0.006252937598279912 0.023111418074338308
! Port Impedance 100.00000000000000 0.00000000000000 100.00000000000000 0.00000000000000
12654750.0 0.013885534016449652 0.01606400314708886 0.9753743449209579 -0.18255366558879926 0.975067271638863 -0.18368588615065162 0.006350908671079181 0.023043733934174103
! Port Impedance 100.00000000000000 0.00000000000000 100.00000000000000 0.00000000000000
12687696.0 0.013833583650742609 0.01588356858496521 0.9747665107748471 -0.18295395314384427 0.9746496164516839 -0.18396407019880795 0.006557169982744332 0.022871873480445077
! Port Impedance 100.00000000000000 0.00000000000000 100.00000000000000 0.00000000000000
12720642.0 0.013670840995738842 0.01556126999670257 0.9746706591681255 -0.18357242713597222 0.9745049782779682 -0.18461661998650647 0.006375719864147644 0.02270909671953148
! Port Impedance 100.00000000000000 0.00000000000000 100.00000000000000 0.00000000000000
12753588.0 0.013967274755717352 0.015718655939236763 0.9744866934765164 -0.18405160929415254 0.9743869520581251 -0.1853623406316067 0.006535265169895443 0.022463619240161437
! Port Impedance 100.00000000000000 0.00000000000000 100.00000000000000 0.00000000000000
12786534.0 0.013751769618107368 0.015710068864179014 0.9748517943608498 -0.18530327555531434 0.9747605751626219 -0.18626801938254212 0.00628282255178883 0.02268026396194253
! Port Impedance 100.00000000000000 0.00000000000000 100.00000000000000 0.00000000000000
12819480.0 0.01380030455140513 0.015532698642709935 0.9749210823484632 -0.18568828990794667 0.9748796325595386 -0.18660862979290058 0.0063436481889009855 0.02248003697746373
! Port Impedance 100.00000000000000 0.00000000000000 100.00000000000000 0.00000000000000
12852426.0 0.014018062665535097 0.015426096632899507 0.9741101594236589 -0.18617441195564768 0.973767516241659 -0.187198329567084 0.006553173769477588 0.022542646019376403
! Port Impedance 100.00000000000000 0.00000000000000 100.00000000000000 0.00000000000000
12885372.0 0.013979013290262493 0.015298215741224652 0.9741748887817422 -0.18654201172584434 0.9740169185602712 -0.18739266929537574 0.006547371933261298 0.022323930390775328
! Port Impedance 100.00000000000000 0.00000000000000 100.00000000000000 0.00000000000000
12918318.0 0.013873405854226778 0.014967388015469707 0.9738622727549537 -0.18680278621649377 0.9736206860019644 -0.1877572374676874 0.006403597372790171 0.02205674982818665
! Port Impedance 100.00000000000000 0.00000000000000 100.00000000000000 0.00000000000000
12951264.0 0.013807628910492725 0.0150620144789156 0.9741954550818597 -0.18783191501969454 0.9737494235454033 -0.18882956617744256 0.006309571891244259 0.022073393985073554
! Port Impedance 100.00000000000000 0.00000000000000 100.00000000000000 0.00000000000000
12984210.0 0.014106549172263977 0.01526309100737256 0.9736221207801188 -0.18838608303230453 0.9733983705117779 -0.18966400901125074 0.00659058705911314 0.022029856950729378
! Port Impedance 100.00000000000000 0.00000000000000 100.00000000000000 0.00000000000000
13017156.0 0.01393062818448107 0.01488193880696546 0.9740958225337719 -0.18897589912857113 0.9739327834715943 -0.18972734691603305 0.0062520755586685794 0.021948663454476602
! Port Impedance 100.00000000000000 0.00000000000000 100.00000000000000 0.00000000000000
13050102.0 0.014136266826904997 0.01480010291211565 0.9731882014477649 -0.18907527992611706 0.9729987927580546 -0.19018597136488588 0.006484102747575771 0.021642715841066196
! Port Impedance 100.00000000000000 0.00000000000000 100.00000000000000 0.00000000000000
13083048.0 0.013960181542064382 0.014850182939238524 0.9736272017022983 -0.19014988811761863 0.9735492935976064 -0.19106270690150834 0.006404017998799666 0.021771289707590506
! Port Impedance 100.00000000000000 0.00000000000000 100.00000000000000 0.00000000000000
13115994.0 0.01384003300215117 0.014437988807269625 0.9735139753651647 -0.19019885911261777 0.9732689299900585 -0.19146892687072026 0.006230593749184582 0.021423144652588336
! Port Impedance 100.00000000000000 0.00000000000000 100.00000000000000 0.00000000000000
13148940.0 0.014091796312583338 0.014610600911397712 0.9731976054911011 -0.19107000414572722 0.972941220897261 -0.19228141252399447 0.00655332903046707 0.021393124802287673
! Port Impedance 100.00000000000000 0.00000000000000 100.00000000000000 0.00000000000000
13181886.0 0.014211053872723117 0.014375639924183989 0.9728585632760192 -0.19132900894441374 0.9724382558833115 -0.1925219414655451 0.006564630929975418 0.02123652717013166
! Port Impedance 100.00000000000000 0.00000000000000 100.00000000000000 0.00000000000000
13214832.0 0.014241412918129887 0.014128660406863707 0.9728781648482772 -0.1918308326898372 0.9726279098822902 -0.19273047122635711 0.006395019737143903 0.021173120845637695
! Port Impedance 100.00000000000000 0.00000000000000 100.00000000000000 0.00000000000000
13247778.0 0.013950707036256643 0.014296279675117454 0.9730031835034452 -0.1927380666139888 0.9727134844293095 -0.19374737681093038 0.006316525389787803 0.021102955403642067
! Port Impedance 100.00000000000000 0.00000000000000 100.00000000000000 0.00000000000000
13280724.0 0.014035942773924365 0.014320030404084742 0.9726406146648148 -0.19357481187303183 0.9724132671286494 -0.19468021615025347 0.006438986670642938 0.02132223151715043
! Port Impedance 100.00000000000000 0.00000000000000 100.00000000000000 0.00000000000000
13313670.0 0.014046995354325825 0.013888264408528521 0.9727824894831252 -0.1937113774700257 0.9724322764224336 -0.19441757383088673 0.006179247289615358 0.020900189757032624
! Port Impedance 100.00000000000000 0.00000000000000 100.00000000000000 0.00000000000000
13346616.0 0.014040116546921666 0.013812649280398197 0.9726444892432488 -0.19431897254455455 0.9725512600260792 -0.1955661658711756 0.0063010214279798915 0.020841988735306443
! Port Impedance 100.00000000000000 0.00000000000000 100.00000000000000 0.00000000000000
13379562.0 0.01429798292094872 0.013818285962769655 0.9723606799858239 -0.194772291148384 0.9718520017657077 -0.19596219619150124 0.006572394606485926 0.0206028216366592
! Port Impedance 100.00000000000000 0.00000000000000 100.00000000000000 0.00000000000000
13412508.0 0.01420659008839742 0.013643403629514057 0.9720476281883175 -0.19530120756940983 0.9718348803075263 -0.1965964840273286 0.006330332193362792 0.02050640547241052
! Port Impedance 100.00000000000000 0.00000000000000 100.00000000000000 0.00000000000000
13445454.0 0.013997002802532882 0.013728168234438412 0.9724631635603165 -0.19621801190772295 0.9724146903021975 -0.19700554847455773 0.0062897176318387205 0.020696342094624894
! Port Impedance 100.00000000000000 0.00000000000000 100.00000000000000 0.00000000000000
13478400.0 0.014150262308533279 0.013666969630333238 0.9719825657073369 -0.19657745518156236 0.9718851800879378 -0.19780591221712202 0.006260640034973369 0.020577875130874265
! Port Impedance 100.00000000000000 0.00000000000000 100.00000000000000 0.00000000000000
13511346.0 0.014024171617442016 0.013399861802747593 0.9719082123449627 -0.19730993429813118 0.9715823869161968 -0.19827238726443375 0.006323582067850608 0.020400531388556988
! Port Impedance 100.00000000000000 0.00000000000000 100.00000000000000 0.00000000000000
13544292.0 0.014309410820614682 0.013394289105143058 0.9718313075051456 -0.19765425489378147 0.971733296388316 -0.19874271865890153 0.006617332219469169 0.01627186139920821
! Port Impedance 100.00000000000000 0.00000000000000 100.00000000000000 0.00000000000000
13577238.0 0.014282969093381281 0.013286898932466214 0.9716609641088837 -0.19809781749521488 0.9714485576147348 -0.19867024999661226 0.006653655892369187 0.015848533156354327
! Port Impedance 100.00000000000000 0.00000000000000 100.00000000000000 0.00000000000000
13610184.0 0.014374732328104017 0.013125219588034923 0.9713968325335405 -0.1986845019061857 0.9713081883943039 -0.199454386118362 0.00667960189582284 0.015916941287533203
! Port Impedance 100.00000000000000 0.00000000000000 100.00000000000000 0.00000000000000
13643130.0 0.01438072557105688 0.013073014190060291 0.9711886275852186 -0.19924745237551722 0.9711410175863632 -0.20015592861530457 0.006632301675325913 0.015897350070893507
! Port Impedance 100.00000000000000 0.00000000000000 100.00000000000000 0.00000000000000
13676076.0 0.014380746729947103 0.01272410435707906 0.9711820409061964 -0.19974298422003467 0.9707580656583603 -0.20053233646039204 0.006490205292519008 0.015629296629731296
! Port Impedance 100.00000000000000 0.00000000000000 100.00000000000000 0.00000000000000
13709022.0 0.01428957222599872 0.01257071143923863 0.9709655741414452 -0.20021995298900977 0.9709023123157148 -0.20102826015259206 0.006608244841483091 0.015553917216975015
! Port Impedance 100.00000000000000 0.00000000000000 100.00000000000000 0.00000000000000
13741968.0 0.013936132850954103 0.012593071594667746 0.9711970418141277 -0.20099908688522583 0.9712237812498632 -0.20219514423031917 0.006484581356791669 0.015387400675056513
! Port Impedance 100.00000000000000 0.00000000000000 100.00000000000000 0.00000000000000
13774914.0 0.014174711237526616 0.0123777726244459 0.9709685256599988 -0.2014649687777601 0.9710198719689935 -0.20248522811708314 0.006666624224583251 0.01508947157234948
! Port Impedance 100.00000000000000 0.00000000000000 100.00000000000000 0.00000000000000
13807860.0 0.014313216242152066 0.01260930257924673 0.9710234392946444 -0.20218368747148063 0.970867424997048 -0.20329009969496795 0.006504281935646311 0.015504499497244285
! Port Impedance 100.00000000000000 0.00000000000000 100.00000000000000 0.00000000000000
13840806.0 0.014354858503372842 0.012615098021720103 0.9703538842293485 -0.202593045767427 0.9703040950593306 -0.2035772559894756 0.0065538922272826705 0.015498969205026716
! Port Impedance 100.00000000000000 0.00000000000000 100.00000000000000 0.00000000000000
13873752.0 0.01446655845227482 0.01242823204746523 0.9705646997909203 -0.20342841926343272 0.970734544746406 -0.2043680699438351 0.006464068765576952 0.015096349089230958
! Port Impedance 100.00000000000000 0.00000000000000 100.00000000000000 0.00000000000000
13906698.0 0.014184762387301708 0.012050582380057212 0.9703877172007226 -0.2033667114134134 0.9704334540521468 -0.20456426849759834 0.006542667472919705 0.014930067123766818
! Port Impedance 100.00000000000000 0.00000000000000 100.00000000000000 0.00000000000000
13939644.0 0.014379156227317086 0.01218680427901777 0.9699890537678793 -0.20368959346061044 0.9700902362800499 -0.20463067137271426 0.006464297123086604 0.014902570146861385
! Port Impedance 100.00000000000000 0.00000000000000 100.00000000000000 0.00000000000000
13972590.0 0.014485344261791516 0.011870026404755867 0.9702219582888993 -0.2049232552021274 0.9698744286007245 -0.2059800149551378 0.006703194088634595 0.01482295031075518
! Port Impedance 100.00000000000000 0.00000000000000 100.00000000000000 0.00000000000000
14005536.0 0.014587877041777858 0.011764814208507807 0.9697927414809315 -0.20523388436646253 0.9692367474297967 -0.2061820928534819 0.006507669613066036 0.014845727963565484
! Port Impedance 100.00000000000000 0.00000000000000 100.00000000000000 0.00000000000000
14038482.0 0.014556175859965242 0.011830216811503327 0.9698433185705052 -0.20617778707274703 0.9698375247294978 -0.20700194613117867 0.006442052470570336 0.014415898089317886
! Port Impedance 100.00000000000000 0.00000000000000 100.00000000000000 0.00000000000000
14071428.0 0.01460976605223227 0.011667151481542452 0.9692390195017551 -0.20632006582750548 0.9690050382653284 -0.20719877226569872 0.006495320368435503 0.014565186427972932
! Port Impedance 100.00000000000000 0.00000000000000 100.00000000000000 0.00000000000000
14104374.0 0.014703038728557993 0.011561058028469635 0.9696211098459365 -0.20693541556859454 0.96925275977392 -0.20768803931013952 0.0065955344646580205 0.01436232993539413
! Port Impedance 100.00000000000000 0.00000000000000 100.00000000000000 0.00000000000000
14137320.0 0.01468532876242959 0.011179050721873831 0.9693373384078813 -0.20720688605644477 0.9690912260946946 -0.20802393363798827 0.006550718274411338 0.013960392746333272
! Port Impedance 100.00000000000000 0.00000000000000 100.00000000000000 0.00000000000000
14170266.0 0.014605553984702868 0.011351048635230131 0.9687682300679739 -0.20770368555407298 0.9688329720078009 -0.20868744845317638 0.006423046750107714 0.014156746879079488
! Port Impedance 100.00000000000000 0.00000000000000 100.00000000000000 0.00000000000000
14203212.0 0.01446146747055116 0.011633209769369005 0.9694662735032239 -0.2087907605208736 0.9692814593834751 -0.20988582394567518 0.0064029016719894805 0.014498716779591466
! Port Impedance 100.00000000000000 0.00000000000000 100.00000000000000 0.00000000000000
14236158.0 0.014568169799995673 0.011280141798285119 0.9689469070914587 -0.20892489243093634 0.9687482625361526 -0.20983579898207447 0.006479728236079646 0.014162133327928799
! Port Impedance 100.00000000000000 0.00000000000000 100.00000000000000 0.00000000000000
14269104.0 0.014527187848070722 0.011236615197322976 0.9684117273663753 -0.20953708886368677 0.9685863321847588 -0.21066720544368223 0.006248849971959042 0.01400692021331685
! Port Impedance 100.00000000000000 0.00000000000000 100.00000000000000 0.00000000000000
14302050.0 0.014807964193069234 0.01089305151221397 0.9684449082969673 -0.2104186390640232 0.9681911665800227 -0.21122622294804816 0.00646952725592892 0.01379221267538299
! Port Impedance 100.00000000000000 0.00000000000000 100.00000000000000 0.00000000000000
14334996.0 0.014946680576299887 0.010744323470340489 0.968571222619712 -0.21073207741536085 0.9681794613791781 -0.21148637527776915 0.006519307113576456 0.013544824251252877
! Port Impedance 100.00000000000000 0.00000000000000 100.00000000000000 0.00000000000000
14367942.0 0.014520007661746132 0.011083657538158362 0.9684135597358386 -0.21126227049472046 0.9683767202459789 -0.21241921884313786 0.006304879984244449 0.013926824187109658
! Port Impedance 100.00000000000000 0.00000000000000 100.00000000000000 0.00000000000000
14400888.0 0.014915285534285061 0.010522613784850372 0.9682069866047799 -0.21178455091378368 0.9677962086658598 -0.2125731212513573 0.006601830400707609 0.013592784634175147
! Port Impedance 100.00000000000000 0.00000000000000 100.00000000000000 0.00000000000000
14433834.0 0.014278098649083415 0.010914519328258827 0.9680672539580871 -0.21233658082221793 0.968460227510632 -0.2136558534758815 0.005920534114084858 0.013678926342230238
! Port Impedance 100.00000000000000 0.00000000000000 100.00000000000000 0.00000000000000
14466780.0 0.014982640344162301 0.010453844553490896 0.9678020426563332 -0.2130658056159806 0.9674694532401483 -0.2137343353471382 0.0063851765917894154 0.013427407121264681
! Port Impedance 100.00000000000000 0.00000000000000 100.00000000000000 0.00000000000000
14499726.0 0.014818880754412261 0.010385039660997034 0.9677815000256087 -0.21343880161875256 0.9675542757586304 -0.21434710734128953 0.006405847669488179 0.013333391897800848
! Port Impedance 100.00000000000000 0.00000000000000 100.00000000000000 0.00000000000000
14532672.0 0.014566653978885152 0.010184499254226494 0.9676086143955259 -0.21380151901060068 0.9675295492789571 -0.2147837656305382 0.006208770446983425 0.013161690153199158
! Port Impedance 100.00000000000000 0.00000000000000 100.00000000000000 0.00000000000000
14565618.0 0.0148273293446117 0.010072609767536597 0.967592817910703 -0.21434206006987527 0.9672672970029441 -0.21529616042328412 0.006432397802583728 0.012890975290858503
! Port Impedance 100.00000000000000 0.00000000000000 100.00000000000000 0.00000000000000
14598564.0 0.014785458449223299 0.010231906471647685 0.9671179954811275 -0.21472198092993738 0.9672686969212198 -0.21583319499766718 0.006325884427138828 0.013061267465018928
! Port Impedance 100.00000000000000 0.00000000000000 100.00000000000000 0.00000000000000
14631510.0 0.014811158339405661 0.00978277076569669 0.9674280893935379 -0.21534368769500134 0.9669443605746264 -0.21611664404118308 0.006328973590360332 0.012896762430521874
! Port Impedance 100.00000000000000 0.00000000000000 100.00000000000000 0.00000000000000
14664456.0 0.01435334425152604 0.010228491539310151 0.967260716088699 -0.21607828114635122 0.9677136000473928 -0.21733715863168382 0.005835501802599119 0.012937672921884177
! Port Impedance 100.00000000000000 0.00000000000000 100.00000000000000 0.00000000000000
14697402.0 0.014901028161266677 0.009713000537207705 0.9669836944796113 -0.21662983676949324 0.9665756061296821 -0.21750422535342318 0.006250050147549702 0.012733578234990259
! Port Impedance 100.00000000000000 0.00000000000000 100.00000000000000 0.00000000000000
14730348.0 0.014698317879490136 0.009804930394553806 0.9671669371397378 -0.21744224899669656 0.967066390233858 -0.21846071751886023 0.006187217764711983 0.012614119693380076
! Port Impedance 100.00000000000000 0.00000000000000 100.00000000000000 0.00000000000000
14763294.0 0.014856022759775073 0.009418705270967657 0.9669290048954633 -0.21778870479194978 0.9667067412186087 -0.21860782400794102 0.006210070350754715 0.012394314301204724
! Port Impedance 100.00000000000000 0.00000000000000 100.00000000000000 0.00000000000000
14796240.0 0.015057581664840225 0.009469213065895092 0.9665003463872621 -0.21816530686678592 0.9662008473724468 -0.21879211547606858 0.006424168813677439 0.012366899583781461
! Port Impedance 100.00000000000000 0.00000000000000 100.00000000000000 0.00000000000000
14829186.0 0.01463432173428153 0.009690366694999952 0.966938103707247 -0.21905889969810716 0.966747659900951 -0.2200469857866522 0.006051108374593578 0.012646619625201541
! Port Impedance 100.00000000000000 0.00000000000000 100.00000000000000 0.00000000000000
14862132.0 0.014780697167696255 0.009421155852383487 0.9658910823945848 -0.21903854880304074 0.9660347190731118 -0.21995450718252985 0.00613437985410159 0.012351065487916507
! Port Impedance 100.00000000000000 0.00000000000000 100.00000000000000 0.00000000000000
14895078.0 0.014688071129507319 0.009216650057684576 0.9660146975891598 -0.2195184631906933 0.9661974787301586 -0.2207105356295855 0.006110165857011518 0.012137904810100165
! Port Impedance 100.00000000000000 0.00000000000000 100.00000000000000 0.00000000000000
14928024.0 0.014876591517034632 0.009063275369607375 0.9660671811285871 -0.22049778786671603 0.9658388339851862 -0.22120341603436058 0.006256095627413305 0.011970715062940118
! Port Impedance 100.00000000000000 0.00000000000000 100.00000000000000 0.00000000000000
14960970.0 0.015155060969795575 0.00890057941123136 0.9659096678716134 -0.2209553101693837 0.965716086692385 -0.22161668152458452 0.006427997333045138 0.011836356505304457
! Port Impedance 100.00000000000000 0.00000000000000 100.00000000000000 0.00000000000000
14993916.0 0.014992167342882251 0.009173299078862187 0.9656205715295216 -0.22118731406313658 0.9657248617688522 -0.22213987577219357 0.006013718319409722 0.011954998785906203
! Port Impedance 100.00000000000000 0.00000000000000 100.00000000000000 0.00000000000000
15026862.0 0.01510531243238239 0.008635635652307426 0.9658628271613647 -0.2218910631234087 0.9652344347116362 -0.2226909479719268 0.006224990578343942 0.01188880863151659
! Port Impedance 100.00000000000000 0.00000000000000 100.00000000000000 0.00000000000000
15059808.0 0.015158883526924405 0.008619677707365325 0.9654125145414044 -0.22256423661195854 0.9651690674553245 -0.22346618011941155 0.006108454648141554 0.011727177233725093
! Port Impedance 100.00000000000000 0.00000000000000 100.00000000000000 0.00000000000000
15092754.0 0.015221788309865536 0.00854335755714811 0.965479022242692 -0.22289311561164094 0.9649160378558123 -0.22349238748477734 0.006178450041554845 0.01155886922885542
! Port Impedance 100.00000000000000 0.00000000000000 100.00000000000000 0.00000000000000
15125700.0 0.01501376695253126 0.008479363988766985 0.9654423036629862 -0.22358963347814245 0.9648664914933196 -0.2241627201643291 0.005922464494583696 0.011434729078962216
! Port Impedance 100.00000000000000 0.00000000000000 100.00000000000000 0.00000000000000
15158646.0 0.015050505398475938 0.008445283783790287 0.9652340437970881 -0.22416248677308348 0.9648033029052288 -0.2248024709628366 0.006077019421795726 0.01145266503881117
! Port Impedance 100.00000000000000 0.00000000000000 100.00000000000000 0.00000000000000
15191592.0 0.014825767315361893 0.008802571710873772 0.9650575983768288 -0.2249828442033813 0.9652337595938648 -0.2260574664680512 0.005949732653268952 0.011746203526706737
! Port Impedance 100.00000000000000 0.00000000000000 100.00000000000000 0.00000000000000
15224538.0 0.014931701969880334 0.008772954644002365 0.9647160278990434 -0.22523564630242718 0.9649269685798377 -0.22654422279236075 0.005865376244240855 0.011556871904275297
! Port Impedance 100.00000000000000 0.00000000000000 100.00000000000000 0.00000000000000
15257484.0 0.015244256688113578 0.00812560095902199 0.9645178871093988 -0.22568239766269152 0.9639777708508843 -0.2264084158831249 0.006100671853678824 0.011304828455055281
! Port Impedance 100.00000000000000 0.00000000000000 100.00000000000000 0.00000000000000
15290430.0 0.015246901224045012 0.008016760355460156 0.9641569183560454 -0.22595970096766219 0.9639984124610206 -0.22699027875160838 0.006080766838332419 0.011019226863124607
! Port Impedance 100.00000000000000 0.00000000000000 100.00000000000000 0.00000000000000
15323376.0 0.01476711661716118 0.008169208871054597 0.9646725255722068 -0.22682420579265472 0.9648282771158376 -0.22827578044791547 0.0056572946024255055 0.011159472999329435
! Port Impedance 100.00000000000000 0.00000000000000 100.00000000000000 0.00000000000000
15356322.0 0.01488985991078523 0.007849621850647213 0.9642485046465463 -0.22698080722124553 0.9640818723314419 -0.22792623972699616 0.005784259669264991 0.010845853828359078
! Port Impedance 100.00000000000000 0.00000000000000 100.00000000000000 0.00000000000000
15389268.0 0.015077311998524717 0.007756770427023857 0.9641279659309157 -0.2278164916895677 0.9636062832522364 -0.22852035051173542 0.005899832739736932 0.010841309902754982
! Port Impedance 100.00000000000000 0.00000000000000 100.00000000000000 0.00000000000000
15422214.0 0.014969712046141503 0.008004723402162347 0.96382965972571 -0.22855320148400182 0.9636758269988076 -0.22951874928719004 0.005926346787650222 0.010922663622390305
! Port Impedance 100.00000000000000 0.00000000000000 100.00000000000000 0.00000000000000
15455160.0 0.015291643621156148 0.00763366467026369 0.9636371747976645 -0.22890173744547285 0.9631944427397634 -0.22964123508518783 0.006099393969001193 0.010809158161444891
! Port Impedance 100.00000000000000 0.00000000000000 100.00000000000000 0.00000000000000
15488106.0 0.015007204421702253 0.007905375296483157 0.9636919671698685 -0.22937344791146133 0.9634979083280741 -0.23039586150166833 0.005767230941113116 0.010746959799726681
! Port Impedance 100.00000000000000 0.00000000000000 100.00000000000000 0.00000000000000
15521052.0 0.014951256899880416 0.007520942623181287 0.9634490152195583 -0.2295779241734785 0.9631763941934657 -0.2307749790556791 0.005770191034650901 0.010334256825779896
! Port Impedance 100.00000000000000 0.00000000000000 100.00000000000000 0.00000000000000
15553998.0 0.015175787127150703 0.00763590266832978 0.9631125951434794 -0.23063941301416402 0.9632990071730675 -0.23175321630702087 0.005963131385171766 0.010579722783457327
! Port Impedance 100.00000000000000 0.00000000000000 100.00000000000000 0.00000000000000
15586944.0 0.015181175090681981 0.007357303389971349 0.9631845766841306 -0.23104657015705843 0.9628694521500595 -0.23199139222323234 0.0059950486569911865 0.010361419806846163
! Port Impedance 100.00000000000000 0.00000000000000 100.00000000000000 0.00000000000000
15619890.0 0.015077878276389872 0.007457794613065762 0.9630022792084172 -0.2316673942998963 0.963340867985011 -0.2330327536513832 0.00564067391384479 0.01037754398735563
! Port Impedance 100.00000000000000 0.00000000000000 100.00000000000000 0.00000000000000
15652836.0 0.015607484340148692 0.007136021609867989 0.9625400257357167 -0.2318969892008599 0.9625641855271818 -0.23262986789359974 0.006094216938036329 0.01030627310766187
! Port Impedance 100.00000000000000 0.00000000000000 100.00000000000000 0.00000000000000
15685782.0 0.015121835549988527 0.007056659367275925 0.9628911376696541 -0.23252084283407687 0.9629526094756685 -0.23370111593842258 0.005790312613061593 0.010072790787729033
! Port Impedance 100.00000000000000 0.00000000000000 100.00000000000000 0.00000000000000
15718728.0 0.01534379140560771 0.006823101508156779 0.962190291961572 -0.23306607115954364 0.9620158491816541 -0.23384402428074796 0.005802189082297321 0.009890669836886828
! Port Impedance 100.00000000000000 0.00000000000000 100.00000000000000 0.00000000000000
15751674.0 0.015351889981942535 0.007111272251346307 0.9621418021535152 -0.23363390037253554 0.9619962976071547 -0.23452249583780002 0.006059483742258759 0.010057095802012209
! Port Impedance 100.00000000000000 0.00000000000000 100.00000000000000 0.00000000000000
15784620.0 0.01502271986218473 0.006880412334946295 0.9626490334729801 -0.2344299252663627 0.9627303380793558 -0.23567367943128786 0.005588663785850684 0.009695392757263513
! Port Impedance 100.00000000000000 0.00000000000000 100.00000000000000 0.00000000000000
15817566.0 0.01508265326816996 0.006756659589976066 0.9625875189203412 -0.23508809798145433 0.9627489902160562 -0.2360683395244056 0.005382258966376063 0.009892432146419453
! Port Impedance 100.00000000000000 0.00000000000000 100.00000000000000 0.00000000000000
15850512.0 0.015426955194886599 0.006398932441857359 0.9615720647806443 -0.2349611504973237 0.9614654561680878 -0.23566131979371852 0.005765582719067103 0.009450557105832834
! Port Impedance 100.00000000000000 0.00000000000000 100.00000000000000 0.00000000000000
15883458.0 0.015263547696765523 0.007034369898343461 0.9619547901056162 -0.23606052076102993 0.9622149438828276 -0.23718175673672906 0.00572057239501611 0.009840615113203034
! Port Impedance 100.00000000000000 0.00000000000000 100.00000000000000 0.00000000000000
15916404.0 0.015308506356896262 0.006493066599909628 0.9616805704770286 -0.23611108482861898 0.9611691616920692 -0.23701018585273426 0.005530758694041876 0.009882592248497586
! Port Impedance 100.00000000000000 0.00000000000000 100.00000000000000 0.00000000000000
15949350.0 0.01514884804430236 0.006090309129931554 0.9620732761548678 -0.23672417322761546 0.9621761732695168 -0.2378800585974583 0.005407869991818359 0.00915030426645895
! Port Impedance 100.00000000000000 0.00000000000000 100.00000000000000 0.00000000000000
15982296.0 0.015542883391064688 0.006178433811715546 0.9611824233654918 -0.23719509982215356 0.9609965981867731 -0.2381914125832199 0.005696783256781163 0.009399920921360522
! Port Impedance 100.00000000000000 0.00000000000000 100.00000000000000 0.00000000000000
16015242.0 0.015253802713270315 0.0061961476568138316 0.9612584600333012 -0.23813650968939426 0.9612317854574604 -0.2393830427366747 0.005441154846765134 0.00933848916283516
! Port Impedance 100.00000000000000 0.00000000000000 100.00000000000000 0.00000000000000
16048188.0 0.01557447249147087 0.005818154554736894 0.9609731599759075 -0.23810125140962524 0.9608224726772691 -0.2391170892042539 0.005726388527584558 0.008915652796555103
! Port Impedance 100.00000000000000 0.00000000000000 100.00000000000000 0.00000000000000
16081134.0 0.01535702718426421 0.006103762229966149 0.9606041149088754 -0.23890236674173526 0.9604174084793881 -0.23970147850991075 0.005515765851299231 0.009307695986647262
! Port Impedance 100.00000000000000 0.00000000000000 100.00000000000000 0.00000000000000
16114080.0 0.015618872384378424 0.0059336139974104085 0.9606536870917728 -0.23958228837194429 0.9605383145257259 -0.24060297775024864 0.005791898000924056 0.009202455338159922
! Port Impedance 100.00000000000000 0.00000000000000 100.00000000000000 0.00000000000000
16147026.0 0.015221776517468921 0.005751238748617299 0.9610706883069902 -0.24006549731603166 0.9610617507399606 -0.24134250105498503 0.005405794571468225 0.008790665800337778
! Port Impedance 100.00000000000000 0.00000000000000 100.00000000000000 0.00000000000000
16179972.0 0.01556573488604529 0.005813489205726802 0.9603002815677454 -0.24039078016135856 0.9600601000323882 -0.24147979816583423 0.0054760948859764735 0.008921680414348349
! Port Impedance 100.00000000000000 0.00000000000000 100.00000000000000 0.00000000000000
16212918.0 0.015401399361478274 0.005449322406663286 0.9603910017866517 -0.2408194035480426 0.9603823667101904 -0.24216742602358657 0.0055996495480854225 0.008601151307283443
! Port Impedance 100.00000000000000 0.00000000000000 100.00000000000000 0.00000000000000
16245864.0 0.015657273299148178 0.005328382808623126 0.9600310192535488 -0.24127493352529836 0.9599139906323951 -0.24245225770751408 0.005492820183058744 0.008504003279784317
! Port Impedance 100.00000000000000 0.00000000000000 100.00000000000000 0.00000000000000
16278810.0 0.015304699669034583 0.005513847191548495 0.9601572416358207 -0.24223501780513063 0.9599970363234606 -0.24335379614739314 0.005255560848198726 0.00883248265014016
! Port Impedance 100.00000000000000 0.00000000000000 100.00000000000000 0.00000000000000
16311756.0 0.015485971670772175 0.005511101966490246 0.9600481001571433 -0.2426038564001393 0.960067393737946 -0.24386600850329535 0.005556762647837998 0.008678462368379651
! Port Impedance 100.00000000000000 0.00000000000000 100.00000000000000 0.00000000000000
16344702.0 0.015558613688276546 0.005261290683337354 0.9597283771631011 -0.2432839070958086 0.9595117305118707 -0.24421704480601975 0.005283011095342266 0.008521920183341664
! Port Impedance 100.00000000000000 0.00000000000000 100.00000000000000 0.00000000000000
16377648.0 0.015336672296693554 0.005166566103593895 0.9595008363030116 -0.24327229588919191 0.9591541574263625 -0.24434921846320715 0.00536573969870327 0.008192126762547887
! Port Impedance 100.00000000000000 0.00000000000000 100.00000000000000 0.00000000000000
16410594.0 0.015648557299032084 0.005125410583813647 0.9594309739067683 -0.24426702051346758 0.9593873593037404 -0.2453405518609288 0.00560638339644462 0.008238119418698876
! Port Impedance 100.00000000000000 0.00000000000000 100.00000000000000 0.00000000000000
16443540.0 0.015420514145368741 0.005229041006021097 0.9591596653635216 -0.24469585253281245 0.9588988530653026 -0.24551196628377303 0.005365264296993549 0.008327422964696893
! Port Impedance 100.00000000000000 0.00000000000000 100.00000000000000 0.00000000000000
16476486.0 0.015538308129809636 0.004970834675963702 0.9594688487185485 -0.24538916365089408 0.9592798561854898 -0.24630872126134018 0.0053001408881789 0.008125703574640979
! Port Impedance 100.00000000000000 0.00000000000000 100.00000000000000 0.00000000000000
16509432.0 0.015595976795132943 0.004726800740493191 0.9588527537298346 -0.2456799178321482 0.9589287502656341 -0.24683649874741048 0.005406025811392684 0.008025014789779239
! Port Impedance 100.00000000000000 0.00000000000000 100.00000000000000 0.00000000000000
16542378.0 0.015534790042112223 0.004604498196638315 0.9587026666128458 -0.24590043145504764 0.9587331139874253 -0.2471697053930179 0.00534350426953073 0.00791417790616123
! Port Impedance 100.00000000000000 0.00000000000000 100.00000000000000 0.00000000000000
16575324.0 0.015841321493195115 0.004887112880243363 0.9585924223004022 -0.24686431037979634 0.9584598627511061 -0.24775940039602412 0.005595691181902562 0.00786503931874142
! Port Impedance 100.00000000000000 0.00000000000000 100.00000000000000 0.00000000000000
16608270.0 0.015868035033765604 0.004474229048758917 0.9580190130405957 -0.24706913375260836 0.9579992238959518 -0.24819016090367896 0.005570391735747637 0.0077464780064612285
! Port Impedance 100.00000000000000 0.00000000000000 100.00000000000000 0.00000000000000
16641216.0 0.015509827192805109 0.004472859057254926 0.9586199710327988 -0.24798036247732522 0.9582295549313795 -0.24894210023707997 0.005188046922067507 0.0077524294686301745
! Port Impedance 100.00000000000000 0.00000000000000 100.00000000000000 0.00000000000000
16674162.0 0.01582948195310835 0.004342274201367409 0.957954630126412 -0.2483042133281531 0.9579581568905415 -0.24937608928657684 0.005326200421206823 0.0075051112787363
! Port Impedance 100.00000000000000 0.00000000000000 100.00000000000000 0.00000000000000
16707108.0 0.0153164890931278 0.0040145880910143344 0.958468235201265 -0.24881780721521973 0.9580068611934542 -0.2497634962696776 0.005133670551501324 0.007153102817554387
! Port Impedance 100.00000000000000 0.00000000000000 100.00000000000000 0.00000000000000
16740054.0 0.015983869829049868 0.004062440157600204 0.9574523500990395 -0.24910218314926003 0.9573117076740407 -0.25043810855088366 0.00544538582632903 0.007346708475578133
! Port Impedance 100.00000000000000 0.00000000000000 100.00000000000000 0.00000000000000
16773000.0 0.01583638073398974 0.003743315235584646 0.9575548992031137 -0.2493882393616471 0.9574851962161143 -0.2506669698270687 0.005289333381978817 0.007199650071991158
! Port Impedance 100.00000000000000 0.00000000000000 100.00000000000000 0.00000000000000
16805946.0 0.015618771048442198 0.00464152941628395 0.9577446624605428 -0.25079587171809925 0.9575106814186263 -0.25177980279397916 0.0052917028907322194 0.0075948707919877775
! Port Impedance 100.00000000000000 0.00000000000000 100.00000000000000 0.00000000000000
16838892.0 0.01585438920531368 0.0038967263232361285 0.9572987506866065 -0.25062770882800367 0.9571707696588384 -0.2518490703418611 0.004957833715467874 0.007270199826334617
! Port Impedance 100.00000000000000 0.00000000000000 100.00000000000000 0.00000000000000
16871838.0 0.015479534233887121 0.004061372745113895 0.9574016591113177 -0.25157267944535183 0.9573108929840449 -0.2525794808146762 0.005120268441594494 0.007041330763088861
! Port Impedance 100.00000000000000 0.00000000000000 100.00000000000000 0.00000000000000
16904784.0 0.01558223573063161 0.003909102887821363 0.9574013419036644 -0.25217358166602477 0.9571659859510349 -0.25305902733331076 0.005053411835406529 0.007218044680955979
! Port Impedance 100.00000000000000 0.00000000000000 100.00000000000000 0.00000000000000
16937730.0 0.01608108950702236 0.003408641677833439 0.9565158322888306 -0.25213718878157754 0.9565776890358189 -0.25327349961443485 0.00516814008988109 0.006857630751886626
! Port Impedance 100.00000000000000 0.00000000000000 100.00000000000000 0.00000000000000
16970676.0 0.01563348242722007 0.0038307320983962737 0.9567075846784164 -0.2531631808220843 0.9563879226128325 -0.2543478781610614 0.0052927864120401735 0.006785754820572525
! Port Impedance 100.00000000000000 0.00000000000000 100.00000000000000 0.00000000000000
17003622.0 0.015638043547770486 0.0036037590716478454 0.9566061737138022 -0.25365297668750575 0.9563417720636399 -0.25489651112377154 0.0049353066904166965 0.007006594238783845
! Port Impedance 100.00000000000000 0.00000000000000 100.00000000000000 0.00000000000000
17036568.0 0.015733879101792664 0.0035903733391362824 0.9566461355195496 -0.254122113827382 0.9562036956927531 -0.2550984299407094 0.005166126009973487 0.00692630637978027
! Port Impedance 100.00000000000000 0.00000000000000 100.00000000000000 0.00000000000000
17069514.0 0.01584973293136438 0.003411832518006551 0.9561467114680177 -0.25439744715568074 0.9563623022318212 -0.25572428842548767 0.00505348660254365 0.006771616407596097
! Port Impedance 100.00000000000000 0.00000000000000 100.00000000000000 0.00000000000000
17102460.0 0.016002515834611708 0.0032828219975899117 0.9560288256253044 -0.25528998114787727 0.9558509489679741 -0.2562285035315358 0.005105394263625135 0.006669119258980678
! Port Impedance 100.00000000000000 0.00000000000000 100.00000000000000 0.00000000000000
17135406.0 0.015831461287714205 0.003280491315478397 0.9557980249002427 -0.25554734990136924 0.9558667204860966 -0.2568013052449336 0.0051342834488699585 0.006692160241217486
! Port Impedance 100.00000000000000 0.00000000000000 100.00000000000000 0.00000000000000
17168352.0 0.015997808763434346 0.003070720193235607 0.9558062470674734 -0.2563798712354302 0.9557140901807093 -0.25735352919360754 0.0050446971264884455 0.006626522066383832
! Port Impedance 100.00000000000000 0.00000000000000 100.00000000000000 0.00000000000000
17201298.0 0.016207620784747967 0.00277628381767573 0.9553983066175151 -0.256506621186385 0.9552599758597364 -0.25738700265226505 0.005067348461392174 0.006323359240207549
! Port Impedance 100.00000000000000 0.00000000000000 100.00000000000000 0.00000000000000
17234244.0 0.015634631921052994 0.0028062523382238053 0.9552790233473889 -0.25676800496180024 0.9552859344551276 -0.25794129575411184 0.004856051295875935 0.00621588151626315
! Port Impedance 100.00000000000000 0.00000000000000 100.00000000000000 0.00000000000000
17267190.0 0.015858007818414094 0.002765423146350768 0.9550345648950299 -0.2577495124632814 0.9551707801521775 -0.2589235062997897 0.004782077262241752 0.006244725773693449
! Port Impedance 100.00000000000000 0.00000000000000 100.00000000000000 0.00000000000000
17300136.0 0.01593406258758953 0.0029509379727557725 0.9552211038586406 -0.2582388445966286 0.9550886383654197 -0.259315074141083 0.005046024606368299 0.006148314008802169
! Port Impedance 100.00000000000000 0.00000000000000 100.00000000000000 0.00000000000000
17333082.0 0.015978274207672366 0.002621618173162768 0.9547074099583912 -0.25866825766964247 0.9547690856963529 -0.25988108109379 0.005071518437975181 0.00611844511256656
! Port Impedance 100.00000000000000 0.00000000000000 100.00000000000000 0.00000000000000
17366028.0 0.015781107425260565 0.0025842784768805513 0.9552238005939081 -0.25964480169573223 0.9547884612578569 -0.2605551498999557 0.004765971032107269 0.005993292287968667
! Port Impedance 100.00000000000000 0.00000000000000 100.00000000000000 0.00000000000000
17398974.0 0.01611462486564255 0.0022560216900232924 0.9546893799005105 -0.25920128609675885 0.9547433981081132 -0.26035773925288863 0.00483812067561204 0.005675865403708305
! Port Impedance 100.00000000000000 0.00000000000000 100.00000000000000 0.00000000000000
17431920.0 0.015874622089250834 0.0023561183591064225 0.9545695123386986 -0.2603667164877045 0.9540758498727416 -0.26121648330054537 0.00485883960329947 0.00579030017833846
! Port Impedance 100.00000000000000 0.00000000000000 100.00000000000000 0.00000000000000
17464866.0 0.015981218636614142 0.0023313933198972348 0.9539861250020176 -0.26075884595245385 0.9540057991943252 -0.26200015431096596 0.004746485819866975 0.005742795675260537
! Port Impedance 100.00000000000000 0.00000000000000 100.00000000000000 0.00000000000000
17497812.0 0.016264420352414155 0.002270938943670704 0.9537995588091949 -0.2613679334680487 0.9537983942131443 -0.2622202885537889 0.005151251945115509 0.005593701092451296
! Port Impedance 100.00000000000000 0.00000000000000 100.00000000000000 0.00000000000000
17530758.0 0.016266124424604705 0.002272271787086187 0.9537443326529436 -0.26161503262349955 0.9537890068242134 -0.2627919184969226 0.0048446553415499305 0.005794189225776347
! Port Impedance 100.00000000000000 0.00000000000000 100.00000000000000 0.00000000000000
17563704.0 0.015975090738878372 0.0020192930438451967 0.9536058487401596 -0.2623972467955864 0.9537055758790325 -0.26382107326276816 0.004632287465898555 0.00530419840428422
! Port Impedance 100.00000000000000 0.00000000000000 100.00000000000000 0.00000000000000
17596650.0 0.0158248198916065 0.0018681346280822603 0.9544970711881788 -0.26284591486677167 0.9540756850914687 -0.26410541584959496 0.00453539064346134 0.005228232597086706
! Port Impedance 100.00000000000000 0.00000000000000 100.00000000000000 0.00000000000000
17629596.0 0.015733526339811843 0.001860634794280551 0.953893866176458 -0.2631814267211536 0.9536327448949987 -0.26446932015441305 0.004328815202542746 0.005260942805066199
! Port Impedance 100.00000000000000 0.00000000000000 100.00000000000000 0.00000000000000
17662542.0 0.015982664556134396 0.0019445207533464112 0.953700743220267 -0.2640456527822216 0.9531784340248787 -0.26533250297146654 0.004727270704677766 0.005518583991472273
! Port Impedance 100.00000000000000 0.00000000000000 100.00000000000000 0.00000000000000
17695488.0 0.015969069356259552 0.001672504355913186 0.953384006608041 -0.26446197109209973 0.9533509979610656 -0.26557162675269214 0.004850471706281834 0.005164470416393431
! Port Impedance 100.00000000000000 0.00000000000000 100.00000000000000 0.00000000000000
17728434.0 0.016012782953248983 0.0019469979952817032 0.9528507775095594 -0.26517874851967355 0.9529045664087938 -0.2662617313324479 0.004889310206576181 0.005372885777996349
! Port Impedance 100.00000000000000 0.00000000000000 100.00000000000000 0.00000000000000
17761380.0 0.016108442309422405 0.0016769830903840613 0.9529931158426932 -0.2656222982678072 0.952619125691977 -0.26652272010233546 0.004586009633539695 0.005083300553239779
! Port Impedance 100.00000000000000 0.00000000000000 100.00000000000000 0.00000000000000
17794326.0 0.016071405368374564 0.001237897145343371 0.9527308135975716 -0.26549423987616666 0.9526399054364805 -0.26659747596083416 0.004424989694491316 0.0048555692765941336
! Port Impedance 100.00000000000000 0.00000000000000 100.00000000000000 0.00000000000000
17827272.0 0.016166080171104796 0.0014800921288877222 0.9527383929498967 -0.2663623652266727 0.9525054640781074 -0.26745493801494835 0.0046962200695397915 0.0049679774542758445
! Port Impedance 100.00000000000000 0.00000000000000 100.00000000000000 0.00000000000000
17860218.0 0.016004356258914637 0.0012845578619426062 0.952638402598866 -0.2670174176842712 0.9525769584904255 -0.26813810602904614 0.004563020325757033 0.004963793899064116
! Port Impedance 100.00000000000000 0.00000000000000 100.00000000000000 0.00000000000000
17893164.0 0.016126069348333466 0.0008750385899021426 0.9521167625896323 -0.26715222827229224 0.9519768431385265 -0.2683858524445918 0.00441364697357427 0.004326853260525232
! Port Impedance 100.00000000000000 0.00000000000000 100.00000000000000 0.00000000000000
17926110.0 0.01630732712966304 0.001200945807995242 0.9521558086447488 -0.2679497865474381 0.9520165313888417 -0.26915189664643413 0.004784831764573394 0.004734158137186917
! Port Impedance 100.00000000000000 0.00000000000000 100.00000000000000 0.00000000000000
17959056.0 0.016075019699878512 0.0012130714093159939 0.9524829773107585 -0.2685051509015874 0.9520562200654191 -0.2697473573046779 0.004461601180639041 0.0046550291615881645
! Port Impedance 100.00000000000000 0.00000000000000 100.00000000000000 0.00000000000000
17992002.0 0.016296490406369962 0.0009389899599772794 0.9514573493800879 -0.2687567847256759 0.9515295347470476 -0.269956221713758 0.004360746281162453 0.004545066487747322
! Port Impedance 100.00000000000000 0.00000000000000 100.00000000000000 0.00000000000000
18024948.0 0.016265092556223576 0.0007460905818285415 0.9513975039709683 -0.2694894380666431 0.9514200924539157 -0.27057845256344853 0.004480366504344385 0.0044012440545438195
! Port Impedance 100.00000000000000 0.00000000000000 100.00000000000000 0.00000000000000
18057894.0 0.01606629948282018 0.0008527350727694019 0.9516365842607859 -0.27015417365692423 0.9514644045952013 -0.2713470493713684 0.004333311332698014 0.004512604207059581
! Port Impedance 100.00000000000000 0.00000000000000 100.00000000000000 0.00000000000000
18090840.0 0.016414629427562638 0.0006355521695706814 0.9514086889769128 -0.2702419391775025 0.9509649214271596 -0.2713106213779077 0.004692714820649507 0.004156121069395426
! Port Impedance 100.00000000000000 0.00000000000000 100.00000000000000 0.00000000000000
18123786.0 0.016387315027577287 0.0004552908420197774 0.9511986092749781 -0.27102265585546736 0.9512552104567984 -0.27211589270896275 0.004391129735128951 0.004228624067416281
! Port Impedance 100.00000000000000 0.00000000000000 100.00000000000000 0.00000000000000
18156732.0 0.01615831287589556 0.0008604203811157923 0.950700019099318 -0.271596082235333 0.950408695344231 -0.2726939872467273 0.004555753513706823 0.004289795809982497
! Port Impedance 100.00000000000000 0.00000000000000 100.00000000000000 0.00000000000000
18189678.0 0.01620814084339961 0.00025009093678166755 0.9505911866556069 -0.27179199481753014 0.9507043081251078 -0.27310173282315137 0.004320918955167119 0.003969532149002385
! Port Impedance 100.00000000000000 0.00000000000000 100.00000000000000 0.00000000000000
18222624.0 0.016230253713819753 0.00038907744263435434 0.9507797393813499 -0.27272299000738415 0.950520179884395 -0.27366663959937787 0.0043989560222324475 0.003954441034819685
! Port Impedance 100.00000000000000 0.00000000000000 100.00000000000000 0.00000000000000
18255570.0 0.016501679477919667 0.0005748724686447035 0.9504213080453647 -0.27310440920974755 0.9502405780154122 -0.2745601786933854 0.004508794250805193 0.004472957966574688
! Port Impedance 100.00000000000000 0.00000000000000 100.00000000000000 0.00000000000000
18288516.0 0.016104060449313534 0.00025896847603709694 0.9504557817205931 -0.27384655560881377 0.9501117311995484 -0.27509428443447537 0.0038128963988884323 0.004088305134892042
! Port Impedance 100.00000000000000 0.00000000000000 100.00000000000000 0.00000000000000
18321462.0 0.016331378531207363 0.0001565097488479411 0.9498042438685638 -0.27410467432072244 0.9497167131015435 -0.2752081371120776 0.004322210809236615 0.003894135358039341
! Port Impedance 100.00000000000000 0.00000000000000 100.00000000000000 0.00000000000000
18354408.0 0.016328227558897956 -9.359959580852728e-05 0.9502433673486366 -0.27443158966512726 0.9499233933838236 -0.27556242249992735 0.0040245359803728065 0.0038086883863368004
! Port Impedance 100.00000000000000 0.00000000000000 100.00000000000000 0.00000000000000
18387354.0 0.016527885256641367 -0.00013334969349511339 0.94940707406114 -0.27467219895347994 0.949224829348845 -0.2759230044320914 0.0043676794368098515 0.0035293204868461422
! Port Impedance 100.00000000000000 0.00000000000000 100.00000000000000 0.00000000000000
18420300.0 0.016401974962218874 -0.00016554398952058763 0.9494519315377414 -0.27551187146791756 0.9493396018059141 -0.27677074081611175 0.004169635385886522 0.0036658318247957747
! Port Impedance 100.00000000000000 0.00000000000000 100.00000000000000 0.00000000000000
18453246.0 0.016285631098537173 -0.00015181599211486901 0.9495336373513625 -0.27654416443814456 0.949390951506932 -0.2777259947468332 0.003911382873613645 0.0037229893722800084
! Port Impedance 100.00000000000000 0.00000000000000 100.00000000000000 0.00000000000000
18486192.0 0.016381941008956846 -0.0002904272979967551 0.9489216360008538 -0.2765799142866393 0.9486234865408283 -0.2776705282627331 0.004271205334516082 0.003318024612576069
! Port Impedance 100.00000000000000 0.00000000000000 100.00000000000000 0.00000000000000
18519138.0 0.016408265134843336 -0.0005657265335383341 0.9487019943746315 -0.2767767807676718 0.9488670901916664 -0.2779559318518514 0.004121642449580187 0.0031372008944878793
! Port Impedance 100.00000000000000 0.00000000000000 100.00000000000000 0.00000000000000
18552084.0 0.016359609014228338 -0.0006409460669592956 0.9486541463086727 -0.2770858154545429 0.9485407615989501 -0.2783068428598916 0.004163322616868387 0.003071482419377769
! Port Impedance 100.00000000000000 0.00000000000000 100.00000000000000 0.00000000000000
18585030.0 0.016421135709097978 -0.0004202889547583605 0.9484973318668971 -0.2781977232216597 0.9483243324719004 -0.27946875161209883 0.004067208013425083 0.0031953464140793697
! Port Impedance 100.00000000000000 0.00000000000000 100.00000000000000 0.00000000000000
18617976.0 0.016399951522830303 -0.00039129359608462005 0.9483988994908158 -0.2788329581045539 0.9481666475108447 -0.2800456820703675 0.004231740158263136 0.003063879077446638
! Port Impedance 100.00000000000000 0.00000000000000 100.00000000000000 0.00000000000000
18650922.0 0.016303281243061324 -0.0005415691298625083 0.9484819147044651 -0.27965274453437516 0.9482712925965491 -0.2808004519722083 0.003935348963986757 0.0033278115393761756
! Port Impedance 100.00000000000000 0.00000000000000 100.00000000000000 0.00000000000000
18683868.0 0.01646993633711963 -0.0006139986838518338 0.9480543942590558 -0.2796951520863357 0.9477516036457758 -0.2810503904873717 0.0042472738106480445 0.003046836432347405
! Port Impedance 100.00000000000000 0.00000000000000 100.00000000000000 0.00000000000000
18716814.0 0.01649519964682944 -0.0007426995183754392 0.9481441505874108 -0.2807166263883619 0.948156376683545 -0.28181931393407245 0.003855762075558433 0.003240594301314792
! Port Impedance 100.00000000000000 0.00000000000000 100.00000000000000 0.00000000000000
18749760.0 0.01651332244362627 -0.0009920337270486815 0.9479589040936882 -0.28095837214085667 0.947931116704269 -0.2820517183568306 0.0038307123738178517 0.002769130955485234
! Port Impedance 100.00000000000000 0.00000000000000 100.00000000000000 0.00000000000000
18782706.0 0.016383794554020642 -0.0012125845091572052 0.947590241916234 -0.28081679926571584 0.9474468567032759 -0.28208778250373 0.00394332418410509 0.002563522187572144
! Port Impedance 100.00000000000000 0.00000000000000 100.00000000000000 0.00000000000000
18815652.0 0.016584980619583217 -0.0013100522165858525 0.946871190191779 -0.28125385468105046 0.946926627683106 -0.282573642549401 0.0042075199187269485 0.00247179544703071
! Port Impedance 100.00000000000000 0.00000000000000 100.00000000000000 0.00000000000000
18848598.0 0.01630543943242485 -0.0011464491038436359 0.9475077555182808 -0.2824643137698086 0.9472840710889872 -0.283609869950058 0.0035728834703265544 0.0026500637134059812
! Port Impedance 100.00000000000000 0.00000000000000 100.00000000000000 0.00000000000000
18881544.0 0.016604824848535454 -0.0012520045824702744 0.9470586847740841 -0.2828466563315711 0.9468983166838985 -0.284119635560217 0.004222514549501871 0.0026064444830760994
! Port Impedance 100.00000000000000 0.00000000000000 100.00000000000000 0.00000000000000
18914490.0 0.016516044617741726 -0.0012238545221739255 0.9468487537015374 -0.28322042695817357 0.9468785977001939 -0.2845205421588092 0.0038460620152116487 0.0024859811581303057
! Port Impedance 100.00000000000000 0.00000000000000 100.00000000000000 0.00000000000000
18947436.0 0.016649649292146212 -0.0014226973391683606 0.9469992130115007 -0.2840543320123322 0.9467194565934907 -0.28513452179366505 0.0037805681793403323 0.0025549792234971433
! Port Impedance 100.00000000000000 0.00000000000000 100.00000000000000 0.00000000000000
18980382.0 0.016594325672309784 -0.0017531202120628503 0.9461773831821455 -0.28369796487750387 0.9460783005940302 -0.28495633123381314 0.004108362670767585 0.002107749502225663
! Port Impedance 100.00000000000000 0.00000000000000 100.00000000000000 0.00000000000000
19013328.0 0.01664420275898884 -0.0013727584927970063 0.9461875235815747 -0.28480907631438035 0.9460476593271769 -0.28598732496564844 0.003976697617634306 0.0022433989096195817
! Port Impedance 100.00000000000000 0.00000000000000 100.00000000000000 0.00000000000000
19046274.0 0.01658884888635012 -0.0017446891375243398 0.946306567463587 -0.28534461434857894 0.9462599484991581 -0.2865371073246144 0.003887014015177992 0.002248026896140773
! Port Impedance 100.00000000000000 0.00000000000000 100.00000000000000 0.00000000000000
19079220.0 0.016456717376279434 -0.0014802026578282154 0.9461960516199779 -0.28592456675615785 0.9459730706290116 -0.2872410366030741 0.0035123355341190043 0.0023694647594033613
! Port Impedance 100.00000000000000 0.00000000000000 100.00000000000000 0.00000000000000
19112166.0 0.016861033256251795 -0.0018675782349380499 0.9455234501665556 -0.2860418098150338 0.9454115100693723 -0.28735810853875543 0.004063506435450753 0.0019175589645185204
! Port Impedance 100.00000000000000 0.00000000000000 100.00000000000000 0.00000000000000
19145112.0 0.016567276954797594 -0.0019376827244192915 0.9459484654991082 -0.2867143077475631 0.9457076144238029 -0.2881688790444707 0.0035970525890825222 0.0019596536777766113
! Port Impedance 100.00000000000000 0.00000000000000 100.00000000000000 0.00000000000000
19178058.0 0.01660193814640662 -0.0017457777763657603 0.9455314483471169 -0.28756272978430314 0.9453656847672781 -0.2886909221431714 0.0034846086530050946 0.0020803402112190075
! Port Impedance 100.00000000000000 0.00000000000000 100.00000000000000 0.00000000000000
19211004.0 0.016852135177909677 -0.0021333111169740404 0.945136694490428 -0.2874482318008936 0.9450827188132442 -0.2889107578741018 0.003839250727366933 0.0018090523376460346
! Port Impedance 100.00000000000000 0.00000000000000 100.00000000000000 0.00000000000000
19243950.0 0.016855729565898675 -0.0022139114043172523 0.945208769101666 -0.28843073872835373 0.9447968176010856 -0.2896714803737734 0.003731894302073935 0.001888595815206881
! Port Impedance 100.00000000000000 0.00000000000000 100.00000000000000 0.00000000000000
19276896.0 0.0164355596503504 -0.002123894236646745 0.945091365883763 -0.2888779391769348 0.9450479049899971 -0.29005206704815 0.003509209097951549 0.0017151997982293374
! Port Impedance 100.00000000000000 0.00000000000000 100.00000000000000 0.00000000000000
19309842.0 0.016699425085995506 -0.002428150087304716 0.9450407983211452 -0.28912767984490506 0.9448614885268861 -0.290210669184768 0.0033637604941724186 0.0016361070060206054
! Port Impedance 100.00000000000000 0.00000000000000 100.00000000000000 0.00000000000000
19342788.0 0.016789854013018468 -0.0024007721791114434 0.9445363894610244 -0.2901036295881772 0.9441934156814872 -0.2912356636600516 0.003562393746940423 0.0015086517015825557
! Port Impedance 100.00000000000000 0.00000000000000 100.00000000000000 0.00000000000000
19375734.0 0.01680655906161671 -0.0022893865213019296 0.9441080553309898 -0.29034023850804097 0.943972929083035 -0.29147057576189644 0.0038367837010463146 0.0014328401599028526
! Port Impedance 100.00000000000000 0.00000000000000 100.00000000000000 0.00000000000000
19408680.0 0.016612706284512863 -0.002568634989475835 0.944461656652126 -0.2907163496170159 0.9443374695228676 -0.2920345344437196 0.003406117059119529 0.0014712368510609725
! Port Impedance 100.00000000000000 0.00000000000000 100.00000000000000 0.00000000000000
19441626.0 0.01669240844540626 -0.0028581469662602374 0.9437518571463321 -0.2908639419760982 0.9435497345397119 -0.2921424576976269 0.003604719821243302 0.0009814884617197484
! Port Impedance 100.00000000000000 0.00000000000000 100.00000000000000 0.00000000000000
19474572.0 0.016814161958554452 -0.0027665091582484494 0.9440786964844543 -0.2916346704332499 0.9439727880712103 -0.29316862745888705 0.003334300980407545 0.0013986992883570568
! Port Impedance 100.00000000000000 0.00000000000000 100.00000000000000 0.00000000000000
19507518.0 0.01675179052181519 -0.002884261953864889 0.9434955224322439 -0.29205116645262397 0.9433003405095158 -0.2933017256577466 0.003514760461015315 0.0012062978582481343
! Port Impedance 100.00000000000000 0.00000000000000 100.00000000000000 0.00000000000000
19540464.0 0.01667700500541816 -0.002864110755399059 0.9436868069539981 -0.29297625654161824 0.9435277317156543 -0.2942605233508831 0.0032477163759377925 0.0010454369800166688
! Port Impedance 100.00000000000000 0.00000000000000 100.00000000000000 0.00000000000000
19573410.0 0.016854291663887994 -0.0028012565010587798 0.9432590521311561 -0.2935218956049487 0.9431689691848948 -0.2948346085203182 0.003385056503472622 0.0013281330800968202
! Port Impedance 100.00000000000000 0.00000000000000 100.00000000000000 0.00000000000000
19606356.0 0.01652906062851861 -0.0031625555327335353 0.9429485879105695 -0.29335304328258704 0.9427082858951777 -0.2947470178435678 0.0032956713359781897 0.0007547295768251944
! Port Impedance 100.00000000000000 0.00000000000000 100.00000000000000 0.00000000000000
19639302.0 0.016692172651152914 -0.0033069487799689615 0.9428450963988751 -0.29399153264296335 0.9426219972286511 -0.29517433389321734 0.003374233262843751 0.000676449604963554
! Port Impedance 100.00000000000000 0.00000000000000 100.00000000000000 0.00000000000000
19672248.0 0.016723066498507494 -0.0032147271543108077 0.9427850308863578 -0.29458901190007064 0.9426821346461265 -0.2959010084149214 0.0033300777507315193 0.0007815405119642946
! Port Impedance 100.00000000000000 0.00000000000000 100.00000000000000 0.00000000000000
19705194.0 0.016558733970648415 -0.003330726699657824 0.9424509682268927 -0.2948403382144421 0.9422941733640553 -0.2959878610040413 0.003356193412222236 0.0005399904926404811
! Port Impedance 100.00000000000000 0.00000000000000 100.00000000000000 0.00000000000000
19738140.0 0.01677100717938565 -0.003277203512055772 0.942602561095096 -0.2961102848901711 0.9423531006131782 -0.29731319165376424 0.0031409733960177932 0.0009368624205028236
! Port Impedance 100.00000000000000 0.00000000000000 100.00000000000000 0.00000000000000
19771086.0 0.01689853523224044 -0.0034071206164820456 0.9420357142136484 -0.2961197988812697 0.9419015089716638 -0.29736122825109235 0.003449537637952166 0.0005194035869624386
! Port Impedance 100.00000000000000 0.00000000000000 100.00000000000000 0.00000000000000
19804032.0 0.017135161816896283 -0.0033220419076800817 0.9423831612453106 -0.29722191128224873 0.9419770114286569 -0.2984601904611876 0.0033368163951741636 0.0007966570626956049
! Port Impedance 100.00000000000000 0.00000000000000 100.00000000000000 0.00000000000000
19836978.0 0.016614749596434525 -0.0035582568215437246 0.9423155681579403 -0.2976936243943198 0.9421207638803946 -0.2986869261851876 0.0027639469469315225 0.000573708597167065
! Port Impedance 100.00000000000000 0.00000000000000 100.00000000000000 0.00000000000000
19869924.0 0.016790631006293077 -0.00377316816031259 0.9414176763445707 -0.2971995808504497 0.9411854421428318 -0.29840450605743246 0.003363055442345747 0.0002209015642289855
! Port Impedance 100.00000000000000 0.00000000000000 100.00000000000000 0.00000000000000
19902870.0 0.016880226447909957 -0.003674748403188592 0.9415483267870886 -0.2983296062670109 0.9412050221871192 -0.2995370163872056 0.0032190735745604993 0.0002263728992725339
! Port Impedance 100.00000000000000 0.00000000000000 100.00000000000000 0.00000000000000
19935816.0 0.016707450240042332 -0.0036538032010810448 0.9415642261195394 -0.2991197070092668 0.9413636942373355 -0.3003038708228646 0.0029481587202896953 0.0005424900210331679
! Port Impedance 100.00000000000000 0.00000000000000 100.00000000000000 0.00000000000000
19968762.0 0.016747220015267628 -0.003998093979505922 0.9410487165719892 -0.29867738488520407 0.9407936561692092 -0.3001460987118777 0.002950401459616281 -5.2547070053809986e-06
! Port Impedance 100.00000000000000 0.00000000000000 100.00000000000000 0.00000000000000
20001708.0 0.017049287642092237 -0.004149626331487792 0.9412584046454864 -0.2997666875891042 0.9411544049848772 -0.3012481250741933 0.002879187878355699 0.0001469385148177016
! Port Impedance 100.00000000000000 0.00000000000000 100.00000000000000 0.00000000000000
20034654.0 0.016871812001480968 -0.003999123533854974 0.9408863395668452 -0.3004281774651234 0.9406992616122932 -0.3017117083611705 0.003051538096906087 0.00014850463690983806
! Port Impedance 100.00000000000000 0.00000000000000 100.00000000000000 0.00000000000000
20067600.0 0.016920443800530288 -0.0040170249991724055 0.9404080875185886 -0.30100592025977546 0.9403012198476488 -0.3023099018821749 0.003033056644824339 0.0002414373563365338
! Port Impedance 100.00000000000000 0.00000000000000 100.00000000000000 0.00000000000000
20100546.0 0.017135279561315775 -0.00400260689117702 0.9402995272582281 -0.30147014700528796 0.9401536659317511 -0.30280980247244915 0.0031585632141094555 7.56500294761403e-05
! Port Impedance 100.00000000000000 0.00000000000000 100.00000000000000 0.00000000000000
20133492.0 0.016943183998301498 -0.004131449490523485 0.9407473843188183 -0.30205136591645065 0.940605598978069 -0.30332928533066816 0.0028728113447965553 0.00013696036549656204
! Port Impedance 100.00000000000000 0.00000000000000 100.00000000000000 0.00000000000000
20166438.0 0.017109054547155583 -0.0042813976969892295 0.9401444551991429 -0.302410709876367 0.9402080475923158 -0.30377995355012033 0.003100650145866357 -9.499043655620404e-05
! Port Impedance 100.00000000000000 0.00000000000000 100.00000000000000 0.00000000000000
20199384.0 0.01706828410671843 -0.004521613290010065 0.9398059994326955 -0.30261071560037867 0.9396627839993186 -0.30387446557434417 0.0030765689773361304 -0.0002592490841693412
! Port Impedance 100.00000000000000 0.00000000000000 100.00000000000000 0.00000000000000
20232330.0 0.017088023081130804 -0.004788670932906622 0.9394095005840242 -0.3027906501517222 0.9394775003605131 -0.30438462757864754 0.0030639916237163167 -0.0006357923865636939
! Port Impedance 100.00000000000000 0.00000000000000 100.00000000000000 0.00000000000000
20265276.0 0.01680218457095442 -0.004476712615631075 0.9400310064934352 -0.30426608342004613 0.9396645785862883 -0.3053376244173835 0.0025156739377670267 -0.00013107248512386066
! Port Impedance 100.00000000000000 0.00000000000000 100.00000000000000 0.00000000000000
20298222.0 0.01707165848920511 -0.004574551830120205 0.9392200156081798 -0.3043925964840043 0.9394167251140997 -0.30608486746189933 0.0030054857803831214 -0.0004752652634116908
! Port Impedance 100.00000000000000 0.00000000000000 100.00000000000000 0.00000000000000
20331168.0 0.01668719220971307 -0.004797360986803154 0.9396713922019024 -0.30474421423199094 0.9392793995321671 -0.30582141230041193 0.002540335664112603 -0.0005385104951455
! Port Impedance 100.00000000000000 0.00000000000000 100.00000000000000 0.00000000000000
20364114.0 0.016947844348541657 -0.005110476508878366 0.9387798527694977 -0.3048191721151274 0.9384870470837904 -0.30606664473723305 0.0027952299433134653 -0.0006769761344743511
! Port Impedance 100.00000000000000 0.00000000000000 100.00000000000000 0.00000000000000
20397060.0 0.017194273978220015 -0.005028364540268941 0.9389981536244182 -0.30573459188954866 0.9387964410059386 -0.30688502652452715 0.0028387597420533317 -0.0006141742355654581
! Port Impedance 100.00000000000000 0.00000000000000 100.00000000000000 0.00000000000000
20430006.0 0.017080018248404383 -0.004864060095901804 0.9388744359653851 -0.3065893923654699 0.9387803737398106 -0.3082591718725168 0.002786179711001008 -0.0006938673942839674
! Port Impedance 100.00000000000000 0.00000000000000 100.00000000000000 0.00000000000000
20462952.0 0.016892989499231514 -0.005273194567384294 0.9387064520481783 -0.30662026192031683 0.9383173349935723 -0.30782867734311664 0.0026261722485215466 -0.0007579582514444516
! Port Impedance 100.00000000000000 0.00000000000000 100.00000000000000 0.00000000000000
20495898.0 0.01678809779499979 -0.004998814043898639 0.9384818025160551 -0.3074948355790517 0.9383493423137377 -0.3088837730854824 0.0023739543665983742 -0.0006173906578635993
! Port Impedance 100.00000000000000 0.00000000000000 100.00000000000000 0.00000000000000
20528844.0 0.01713734335165565 -0.005582965258750898 0.9378044440843206 -0.30720027167347097 0.9373653603645161 -0.3085063886061321 0.0026417850812173738 -0.0011650803121138614
! Port Impedance 100.00000000000000 0.00000000000000 100.00000000000000 0.00000000000000
20561790.0 0.01715280784611481 -0.005549229627153575 0.9376491450898057 -0.3078966183322764 0.9376144857888624 -0.3094249838436867 0.002726540273231215 -0.001213803542360066
! Port Impedance 100.00000000000000 0.00000000000000 100.00000000000000 0.00000000000000
20594736.0 0.017013464929526156 -0.005337681933256101 0.9378625135434944 -0.308923163116853 0.9378229533921998 -0.3103741131135693 0.002491105454121262 -0.0009599834547087821
! Port Impedance 100.00000000000000 0.00000000000000 100.00000000000000 0.00000000000000
20627682.0 0.016956223206536752 -0.005637673751761094 0.9374596909404402 -0.308948668205275 0.9371963348531931 -0.31012751567317737 0.0023564800532508423 -0.00111504767959697
! Port Impedance 100.00000000000000 0.00000000000000 100.00000000000000 0.00000000000000
20660628.0 0.01710853120317221 -0.005425724039090515 0.9375149908476467 -0.30999951374001766 0.9373789744620903 -0.3113257879759943 0.0026225060834210723 -0.0009592491472710865
! Port Impedance 100.00000000000000 0.00000000000000 100.00000000000000 0.00000000000000
20693574.0 0.01732000141164447 -0.005977995684994977 0.936731819272578 -0.3097204158701452 0.9366413432992657 -0.31136614526376544 0.0027648369557866648 -0.0015632988563500094
! Port Impedance 100.00000000000000 0.00000000000000 100.00000000000000 0.00000000000000
20726520.0 0.017172868725716245 -0.006283659478655626 0.9368090727721647 -0.3101016623912491 0.9363798448352896 -0.3114569071380863 0.002404041940367918 -0.0016534863275287567
! Port Impedance 100.00000000000000 0.00000000000000 100.00000000000000 0.00000000000000
20759466.0 0.01721460297556579 -0.0058181432228111216 0.9367316639045096 -0.311211285993836 0.9364276415692716 -0.31231607604856215 0.0024191639105999307 -0.0013154974509622316
! Port Impedance 100.00000000000000 0.00000000000000 100.00000000000000 0.00000000000000
20792412.0 0.0173709804756379 -0.006206995899118953 0.9360098756543818 -0.31119777164758833 0.9359721228279356 -0.3128270072346242 0.0026984096151698445 -0.001731439230802663
! Port Impedance 100.00000000000000 0.00000000000000 100.00000000000000 0.00000000000000
20825358.0 0.016830592222737167 -0.005806842097593162 0.9368544432172118 -0.3125475859146737 0.9367998084978779 -0.31407502460304026 0.002250663403967984 -0.001382494268467857
! Port Impedance 100.00000000000000 0.00000000000000 100.00000000000000 0.00000000000000
20858304.0 0.017247349097929687 -0.006044385978979841 0.9363743030813182 -0.31291442824646415 0.9359572294784166 -0.313920946214319 0.0023744497140705256 -0.0014678618052721137
! Port Impedance 100.00000000000000 0.00000000000000 100.00000000000000 0.00000000000000
20891250.0 0.01723849508871189 -0.006172483857779257 0.9362290443345541 -0.3132119605053027 0.9359395608210545 -0.3145381025960338 0.0021259447925763564 -0.0015009305202392312
! Port Impedance 100.00000000000000 0.00000000000000 100.00000000000000 0.00000000000000
20924196.0 0.017308033745601054 -0.006236923742183341 0.9358669218195605 -0.3137830097756138 0.9355316019851255 -0.314890533185406 0.0022318750950030275 -0.0015562890409035468
! Port Impedance 100.00000000000000 0.00000000000000 100.00000000000000 0.00000000000000
20957142.0 0.01725398647016521 -0.006125150028756944 0.9355698919442418 -0.3144649115720958 0.9352717062364424 -0.3158017122803504 0.002277055143597162 -0.001589439404120624
! Port Impedance 100.00000000000000 0.00000000000000 100.00000000000000 0.00000000000000
20990088.0 0.017281533773195246 -0.0063242103100339744 0.9351564863901963 -0.31431997790610955 0.9350100991989143 -0.31604902690781367 0.0022434417699547515 -0.0018864372233880211
! Port Impedance 100.00000000000000 0.00000000000000 100.00000000000000 0.00000000000000
21023034.0 0.017187008755455063 -0.006578501434914286 0.9352946804132607 -0.3147718348006704 0.9350944191957389 -0.3161095117700618 0.0020264238143217483 -0.0018272669107473466
! Port Impedance 100.00000000000000 0.00000000000000 100.00000000000000 0.00000000000000
21055980.0 0.016901109332737307 -0.006312307369313742 0.9353447978573728 -0.31613148541200686 0.9351401993227016 -0.317503579172401 0.002037915947076002 -0.0017714775245248823
! Port Impedance 100.00000000000000 0.00000000000000 100.00000000000000 0.00000000000000
21088926.0 0.01719044771563913 -0.006824649679334431 0.9346062976032146 -0.3157355812353627 0.9345360028615162 -0.3171729860225501 0.0021964783208680283 -0.0021952183934560096
! Port Impedance 100.00000000000000 0.00000000000000 100.00000000000000 0.00000000000000
21121872.0 0.017165874840885997 -0.0066782286793218085 0.9347087046941254 -0.3167712801432835 0.9343679256483035 -0.31793174803695895 0.0019143665593129022 -0.001975551754485237
! Port Impedance 100.00000000000000 0.00000000000000 100.00000000000000 0.00000000000000
21154818.0 0.017402534119844493 -0.006796202010561643 0.9342815061557178 -0.3172555423608251 0.9342474749755427 -0.31877312653164863 0.0022639588699345237 -0.002259644663487055
! Port Impedance 100.00000000000000 0.00000000000000 100.00000000000000 0.00000000000000
21187764.0 0.017311783034640843 -0.006922316595591872 0.934120410956192 -0.3175010628768344 0.9343008353839719 -0.31921082954585106 0.002237780871857581 -0.002270518957638107
! Port Impedance 100.00000000000000 0.00000000000000 100.00000000000000 0.00000000000000
21220710.0 0.017097784334429683 -0.0067763633856303546 0.9342652672724134 -0.31854890948598463 0.9338236416931205 -0.31957827068154715 0.0017757610431973492 -0.002062411771189418
! Port Impedance 100.00000000000000 0.00000000000000 100.00000000000000 0.00000000000000
21253656.0 0.017237017727021908 -0.007054975988590707 0.9343012240767492 -0.3188198848350867 0.9341214801026972 -0.3203475968458418 0.0019341896857861252 -0.0023886618051968955
! Port Impedance 100.00000000000000 0.00000000000000 100.00000000000000 0.00000000000000
21286602.0 0.017151484243794562 -0.007108515823646293 0.9337748956245155 -0.3191358904116527 0.9337237046012379 -0.32036676613461523 0.0018878820231783833 -0.0022402642487996394
! Port Impedance 100.00000000000000 0.00000000000000 100.00000000000000 0.00000000000000
21319548.0 0.01729664809168352 -0.00717409551716839 0.9337003142910041 -0.31968206053526693 0.9334847673676693 -0.3212058518550608 0.0020947605042988537 -0.002414148329491439
! Port Impedance 100.00000000000000 0.00000000000000 100.00000000000000 0.00000000000000
21352494.0 0.01713812901405684 -0.0072677784351570796 0.9334957664582239 -0.32012359367394455 0.9330458710960721 -0.32128501889313765 0.0016944694377706015 -0.002529703026882671
! Port Impedance 100.00000000000000 0.00000000000000 100.00000000000000 0.00000000000000
21385440.0 0.01741796459791614 -0.007300601784088742 0.933006658023162 -0.3208350881858296 0.9328995120961834 -0.32191336112211366 0.0019368494147541104 -0.0024781347630015715
! Port Impedance 100.00000000000000 0.00000000000000 100.00000000000000 0.00000000000000
21418386.0 0.017506330977734796 -0.0075943450521222255 0.932852223295091 -0.3210127813443273 0.9329016195143545 -0.3226749679876397 0.0019098828068431495 -0.0028775841960373277
! Port Impedance 100.00000000000000 0.00000000000000 100.00000000000000 0.00000000000000
21451332.0 0.017137986389515025 -0.007416738682365587 0.932619437359148 -0.32181276849441526 0.9322607611592151 -0.32285470358718377 0.0015724182897771943 -0.002604697004117508
! Port Impedance 100.00000000000000 0.00000000000000 100.00000000000000 0.00000000000000
21484278.0 0.017397198038241135 -0.007555432546186708 0.9325970574902853 -0.3223160184295165 0.9325929390416225 -0.3237889271256934 0.001890138303079325 -0.0028387387879768994
! Port Impedance 100.00000000000000 0.00000000000000 100.00000000000000 0.00000000000000
21517224.0 0.017319451727106916 -0.007656712867987851 0.9323309908633127 -0.3223322968569149 0.9323105286484158 -0.32362833155994714 0.0016640880885694653 -0.0029301646438831402
! Port Impedance 100.00000000000000 0.00000000000000 100.00000000000000 0.00000000000000
21550170.0 0.017363622621923147 -0.008028305515791062 0.932181962193734 -0.322770024672026 0.932148033725256 -0.32431113156291247 0.0016937581378013988 -0.0030173413507867883
! Port Impedance 100.00000000000000 0.00000000000000 100.00000000000000 0.00000000000000
21583116.0 0.017349595685912544 -0.007777300872669965 0.9321057895263931 -0.3235994086742541 0.9319571492580181 -0.3246626665995118 0.0017110603439518535 -0.0028293668193815277
! Port Impedance 100.00000000000000 0.00000000000000 100.00000000000000 0.00000000000000
21616062.0 0.017308647429347263 -0.007814634851687187 0.9315770608850855 -0.32386437225898046 0.9313980103775298 -0.32534959880659997 0.0015992983533016092 -0.003096381661185435
! Port Impedance 100.00000000000000 0.00000000000000 100.00000000000000 0.00000000000000
21649008.0 0.01747435456389332 -0.007769581509574484 0.9317173095730051 -0.324899836170066 0.9311934577143606 -0.32624752709091415 0.001576559516957149 -0.0028683704804496196
! Port Impedance 100.00000000000000 0.00000000000000 100.00000000000000 0.00000000000000
21681954.0 0.017516494026907886 -0.007877503622757707 0.9316065031334291 -0.3252910259933406 0.9310845440509179 -0.3266854706652326 0.0015326167991055184 -0.0029283168168981674
! Port Impedance 100.00000000000000 0.00000000000000 100.00000000000000 0.00000000000000
21714900.0 0.017312363511350903 -0.008273827406101407 0.9310760284654727 -0.32514179565887363 0.930927390239324 -0.3265338513074416 0.001453685974894564 -0.0033475298586830154
! Port Impedance 100.00000000000000 0.00000000000000 100.00000000000000 0.00000000000000
21747846.0 0.0175498074557964 -0.008248120506630638 0.9309331121700176 -0.3256892870217594 0.9306755893693174 -0.3271814307071343 0.0015608363800195535 -0.0032409975383424078
! Port Impedance 100.00000000000000 0.00000000000000 100.00000000000000 0.00000000000000
21780792.0 0.017588820965822816 -0.00832929977354694 0.9302825271930018 -0.3264681687107179 0.9304557555147334 -0.32800071810759834 0.0017866417233231568 -0.003385264151894239
! Port Impedance 100.00000000000000 0.00000000000000 100.00000000000000 0.00000000000000
21813738.0 0.017488859502713394 -0.008346380083152284 0.9309836465485017 -0.3274531592068365 0.9305325782026622 -0.3289042432378629 0.0014109106901315227 -0.0033381870426498067
! Port Impedance 100.00000000000000 0.00000000000000 100.00000000000000 0.00000000000000
21846684.0 0.017551450764700244 -0.008622088775365334 0.9302360394285532 -0.3273571401671881 0.9301958200678825 -0.3287935822289696 0.001610063474879575 -0.003674369445692806
! Port Impedance 100.00000000000000 0.00000000000000 100.00000000000000 0.00000000000000
21879630.0 0.01711198396093566 -0.008611532770054602 0.9304179890203526 -0.3277247911592013 0.9301674570733491 -0.32894158418987646 0.0011678364099598215 -0.003533526296530781
! Port Impedance 100.00000000000000 0.00000000000000 100.00000000000000 0.00000000000000
21912576.0 0.01721741395606008 -0.008562385766096046 0.9300723715056167 -0.3285282025226759 0.9299692845820282 -0.32963398455116066 0.0011632571956869397 -0.0034375732877129778
! Port Impedance 100.00000000000000 0.00000000000000 100.00000000000000 0.00000000000000
21945522.0 0.01733394636735608 -0.008606547126697603 0.9300652994689432 -0.32911038237070595 0.9297764862262433 -0.33051413513879935 0.0012460514467692863 -0.003477877806171044
! Port Impedance 100.00000000000000 0.00000000000000 100.00000000000000 0.00000000000000
21978468.0 0.017347886414909336 -0.008660785095043859 0.9296112459968273 -0.32949158683506624 0.9292516715438475 -0.33072418625794076 0.0010411055187297957 -0.003564633398791775
! Port Impedance 100.00000000000000 0.00000000000000 100.00000000000000 0.00000000000000
22011414.0 0.0174080586319402 -0.008674554466103164 0.92953684391385 -0.3299009656274631 0.9293072860637686 -0.3312671589236108 0.0012034515725860284 -0.0035442193471101405
! Port Impedance 100.00000000000000 0.00000000000000 100.00000000000000 0.00000000000000
22044360.0 0.017292593027998543 -0.008905630222421287 0.9295629165413754 -0.3304742588325292 0.9291700477810675 -0.33195001474318897 0.0010387770821989328 -0.0037932815194682487
! Port Impedance 100.00000000000000 0.00000000000000 100.00000000000000 0.00000000000000
22077306.0 0.017716888950026072 -0.00916388956378747 0.9289011233285394 -0.3309243290824686 0.9287979210805808 -0.33245137751315645 0.0013467811971497323 -0.003950087870225126
! Port Impedance 100.00000000000000 0.00000000000000 100.00000000000000 0.00000000000000
22110252.0 0.017648722951157964 -0.009411799037935785 0.9288220607581256 -0.3310525071474184 0.9285721173861078 -0.3325759989254876 0.0012848632247072778 -0.004278718629964255
! Port Impedance 100.00000000000000 0.00000000000000 100.00000000000000 0.00000000000000
22143198.0 0.017535964374491175 -0.009611175611282448 0.9287466804675482 -0.331457166805617 0.9285888022295304 -0.33298563767827516 0.001154156642470705 -0.004458373731391838
! Port Impedance 100.00000000000000 0.00000000000000 100.00000000000000 0.00000000000000
22176144.0 0.017842902286462015 -0.00928189608929246 0.9280772337536448 -0.33216364425278955 0.9279930725235003 -0.33380051828601576 0.0015582954880261901 -0.0041302132689644555
! Port Impedance 100.00000000000000 0.00000000000000 100.00000000000000 0.00000000000000
22209090.0 0.017564471492425154 -0.009392847696610744 0.9283246415907301 -0.3327800951430497 0.928262342200545 -0.33449337435752613 0.0011802387389878155 -0.004225386004269173
! Port Impedance 100.00000000000000 0.00000000000000 100.00000000000000 0.00000000000000
22242036.0 0.01749640458682128 -0.0092641176119607 0.9279644176070999 -0.3332103225929869 0.9277228305183425 -0.33462053124105473 0.0011457061907999833 -0.0040641915504739876
! Port Impedance 100.00000000000000 0.00000000000000 100.00000000000000 0.00000000000000
22274982.0 0.017288162005285768 -0.00934139564417092 0.9279234883594665 -0.3337341765314673 0.9276878749642921 -0.33522594620854895 0.0008004836991520603 -0.004112670750699411
! Port Impedance 100.00000000000000 0.00000000000000 100.00000000000000 0.00000000000000
22307928.0 0.01757644345717027 -0.009714107570141739 0.9275985745094012 -0.334259356847536 0.9272803386975175 -0.3356043136919955 0.0011130783510733544 -0.0044053112205755945
! Port Impedance 100.00000000000000 0.00000000000000 100.00000000000000 0.00000000000000
22340874.0 0.017387278011549323 -0.009554388738409636 0.927547555118857 -0.3348014994264701 0.927494889650554 -0.3362124271688769 0.0007090226279389822 -0.004272284917033811
! Port Impedance 100.00000000000000 0.00000000000000 100.00000000000000 0.00000000000000
22373820.0 0.017616305262640075 -0.00960996589520146 0.9273919650868612 -0.33518584644333654 0.92725960127462 -0.33662116787446283 0.001017909807643519 -0.004383602711563676
! Port Impedance 100.00000000000000 0.00000000000000 100.00000000000000 0.00000000000000
22406766.0 0.017436790279993203 -0.009696642113875387 0.9271031800467078 -0.3357349036094646 0.9267325829846781 -0.33714613933619364 0.000775133137164985 -0.004503409107497212
! Port Impedance 100.00000000000000 0.00000000000000 100.00000000000000 0.00000000000000
22439712.0 0.01746613479557929 -0.009981111203960169 0.9273232021202973 -0.3363462100116392 0.9271981033397875 -0.3380272187782949 0.0006904533452568862 -0.00463953470820571
! Port Impedance 100.00000000000000 0.00000000000000 100.00000000000000 0.00000000000000
22472658.0 0.01761612823191072 -0.00986846498261483 0.9266950844127505 -0.3365379963657833 0.9261899461028202 -0.3377405552372357 0.0008031983054210823 -0.0045183103599067825
! Port Impedance 100.00000000000000 0.00000000000000 100.00000000000000 0.00000000000000
22505604.0 0.017437894286592454 -0.010040966983823972 0.9264555091871244 -0.3368813344607542 0.9261823198203378 -0.3382784113419358 0.0007082070760799364 -0.004718540906773247
! Port Impedance 100.00000000000000 0.00000000000000 100.00000000000000 0.00000000000000
22538550.0 0.017851805703726187 -0.010296900180235172 0.9257872521086548 -0.3374631770468952 0.9256265416338998 -0.33898363219964 0.0011584374769053607 -0.0049553318475624025
! Port Impedance 100.00000000000000 0.00000000000000 100.00000000000000 0.00000000000000
22571496.0 0.017647743952601325 -0.010309590976634815 0.9258786366285296 -0.3380995870908349 0.9257855868569655 -0.33932921058521437 0.0007431611139983307 -0.004841938710074038
! Port Impedance 100.00000000000000 0.00000000000000 100.00000000000000 0.00000000000000
22604442.0 0.017932529918311846 -0.010275746697243522 0.9255838348722643 -0.338413411849179 0.9255170217628849 -0.34005410209086767 0.0010878219511622766 -0.005101382239458191
! Port Impedance 100.00000000000000 0.00000000000000 100.00000000000000 0.00000000000000
22637388.0 0.01762195443458664 -0.01021777266506426 0.9253159101026912 -0.3390793414675502 0.924882290652202 -0.34034330190479944 0.0006712028310790208 -0.004792771580068321
! Port Impedance 100.00000000000000 0.00000000000000 100.00000000000000 0.00000000000000
22670334.0 0.017925240906402296 -0.01077922913731575 0.925049265425429 -0.3394859081716636 0.9251978599527386 -0.3408854303295563 0.0009609430926668105 -0.005361620544536601
! Port Impedance 100.00000000000000 0.00000000000000 100.00000000000000 0.00000000000000
22703280.0 0.017629239500353 -0.01050000683206017 0.9252919927272858 -0.3398470783166848 0.9247335084061925 -0.3411863993724921 0.0004991627764597828 -0.005106201201019886
! Port Impedance 100.00000000000000 0.00000000000000 100.00000000000000 0.00000000000000
22736226.0 0.017843845360362737 -0.010835299635700818 0.9248445103409777 -0.3402585121803516 0.924554901440727 -0.34174185852456135 0.0008445230392258307 -0.005430351044228537
! Port Impedance 100.00000000000000 0.00000000000000 100.00000000000000 0.00000000000000
22769172.0 0.0178146968612915 -0.010504501301346676 0.924655053878658 -0.3411468528766028 0.924568424399368 -0.34261011332457303 0.0006954106898037771 -0.005031725209913879
! Port Impedance 100.00000000000000 0.00000000000000 100.00000000000000 0.00000000000000
22802118.0 0.017484162160835953 -0.01065073970773546 0.9247315018276604 -0.34141053441372615 0.9242395732226949 -0.34294341156499414 0.00021574580430422374 -0.005148720061511292
! Port Impedance 100.00000000000000 0.00000000000000 100.00000000000000 0.00000000000000
22835064.0 0.01773728224696522 -0.010736685531691562 0.924249878376412 -0.3419504907744928 0.9241307410596181 -0.34321540948877116 0.0004853875283244713 -0.005321554987214504
! Port Impedance 100.00000000000000 0.00000000000000 100.00000000000000 0.00000000000000
22868010.0 0.017453897498653614 -0.010859865267702051 0.9244818722413113 -0.34243399400498453 0.9243197218130588 -0.343915518326919 0.0003683255151474274 -0.005225728505607853
! Port Impedance 100.00000000000000 0.00000000000000 100.00000000000000 0.00000000000000
22900956.0 0.017625829859327813 -0.010949786580900955 0.9240119581462162 -0.34316878827924635 0.9239700848523896 -0.3447573053569144 0.0003960597628596685 -0.005359119419122392
! Port Impedance 100.00000000000000 0.00000000000000 100.00000000000000 0.00000000000000
22933902.0 0.017758696235916416 -0.010957308479672141 0.9234362288254314 -0.3435404036201219 0.9234501707767545 -0.3446800457256006 0.000509175160917863 -0.005334157191694222
! Port Impedance 100.00000000000000 0.00000000000000 100.00000000000000 0.00000000000000
22966848.0 0.017658982045685084 -0.011115082312125525 0.9233107549011174 -0.34398626324878834 0.9230450901456617 -0.345393156909493 0.00032535523427476565 -0.005535563474996896
! Port Impedance 100.00000000000000 0.00000000000000 100.00000000000000 0.00000000000000
22999794.0 0.017716909674059228 -0.010856663243147179 0.9235122281874166 -0.3445104742119291 0.9230249566801457 -0.3459899710198906 0.00021128659871264 -0.005358423386773267
! Port Impedance 100.00000000000000 0.00000000000000 100.00000000000000 0.00000000000000
23032740.0 0.01771642170506932 -0.011233889353872428 0.9231021831058601 -0.3449078362104878 0.9229097905996878 -0.3463226360237129 0.00035844853970073975 -0.00571006534997455
! Port Impedance 100.00000000000000 0.00000000000000 100.00000000000000 0.00000000000000
23065686.0 0.01766182171426911 -0.011375432461908148 0.9228915778151829 -0.34559556139647457 0.9227801394916487 -0.3472088311770656 0.00026616934599282827 -0.0057105287008408084
! Port Impedance 100.00000000000000 0.00000000000000 100.00000000000000 0.00000000000000
23098632.0 0.017914282486511363 -0.011625214232813444 0.9224251812064578 -0.34578450788437776 0.9220237495227808 -0.3471842369477226 0.0003680116711458348 -0.006119545390594512
! Port Impedance 100.00000000000000 0.00000000000000 100.00000000000000 0.00000000000000
23131578.0 0.0178002019646242 -0.01157310876032705 0.9220788488094345 -0.3460504147411555 0.9219448045050209 -0.34761338114582363 0.00021498592657942517 -0.005944979445596764
! Port Impedance 100.00000000000000 0.00000000000000 100.00000000000000 0.00000000000000
23164524.0 0.017666022913900598 -0.011587542726683643 0.922344486908954 -0.3466402306436027 0.9220362324861727 -0.34819373614307003 -0.00012325527508458278 -0.005770807315969698
! Port Impedance 100.00000000000000 0.00000000000000 100.00000000000000 0.00000000000000
23197470.0 0.017746400790902894 -0.011596885875060407 0.922491485909872 -0.3474966406509461 0.9222952665052488 -0.3490581513565728 0.0001479791613307746 -0.006053045308431246
! Port Impedance 100.00000000000000 0.00000000000000 100.00000000000000 0.00000000000000
23230416.0 0.01766483896163812 -0.01160407533318613 0.9219479633697992 -0.34798986590392667 0.9215602870695667 -0.349379104327819 -5.176125992295555e-05 -0.00589061816695103
! Port Impedance 100.00000000000000 0.00000000000000 100.00000000000000 0.00000000000000
23263362.0 0.01763271166571309 -0.011685170294998354 0.9219216119188893 -0.34861979689852035 0.9217432265366395 -0.35030672293554643 -0.00014120934809180863 -0.0058465882993925175
! Port Impedance 100.00000000000000 0.00000000000000 100.00000000000000 0.00000000000000
23296308.0 0.017754318106829203 -0.011886034463711753 0.9218843239786897 -0.34911566452617465 0.9217043416419768 -0.3506012252231816 5.337737564325984e-05 -0.006122757743645409
! Port Impedance 100.00000000000000 0.00000000000000 100.00000000000000 0.00000000000000
23329254.0 0.01770317902386584 -0.01187877834777061 0.9214125927476813 -0.34912323199958534 0.9211482958145019 -0.3506865912401373 -0.00019511833658952815 -0.00606951819282326
! Port Impedance 100.00000000000000 0.00000000000000 100.00000000000000 0.00000000000000
23362200.0 0.017824131909694146 -0.01205661039928383 0.9209423806196925 -0.3498057934419633 0.9206826872854605 -0.35129751902710127 5.5053629071183385e-05 -0.006367219115987678
! Port Impedance 100.00000000000000 0.00000000000000 100.00000000000000 0.00000000000000
23395146.0 0.01793486549703674 -0.012044637060085968 0.920861322373099 -0.3501039199158035 0.9207686090681958 -0.35177178806086606 -0.0001405884074092978 -0.006326637928599027
! Port Impedance 100.00000000000000 0.00000000000000 100.00000000000000 0.00000000000000
23428092.0 0.0178861588851828 -0.012016206587048599 0.920433456942605 -0.35077205874322487 0.9201562471789939 -0.352325353711525 -0.00018795899944101802 -0.006227553817919035
! Port Impedance 100.00000000000000 0.00000000000000 100.00000000000000 0.00000000000000
23461038.0 0.018012417523999652 -0.01246686536360412 0.9203789077543855 -0.3508805100908989 0.9200865660458257 -0.3522753000928954 -9.608115450268628e-05 -0.006625839379845622
! Port Impedance 100.00000000000000 0.00000000000000 100.00000000000000 0.00000000000000
23493984.0 0.017926234897809812 -0.012408592208711107 0.9201333372350166 -0.35195839198056134 0.919991544700929 -0.35340878313512225 1.5478498714999178e-05 -0.0065903860884716225
! Port Impedance 100.00000000000000 0.00000000000000 100.00000000000000 0.00000000000000
23526930.0 0.017760555679255052 -0.012510011567654349 0.9201042631050532 -0.3518498133775825 0.9199469297362747 -0.35354068078567885 -0.00045083602917939114 -0.006521122612211633
! Port Impedance 100.00000000000000 0.00000000000000 100.00000000000000 0.00000000000000
23559876.0 0.01804143954658216 -0.012518887896838138 0.9195764325487689 -0.35243632193779795 0.919361555598114 -0.35387405588641235 -7.487909975192886e-05 -0.0065849001726580245
! Port Impedance 100.00000000000000 0.00000000000000 100.00000000000000 0.00000000000000
23592822.0 0.01792274762169263 -0.012783130228924751 0.9195505547137949 -0.3529839265581317 0.9193809124507752 -0.3542966318308077 -0.0002684752383638467 -0.006852068010703205
! Port Impedance 100.00000000000000 0.00000000000000 100.00000000000000 0.00000000000000
23625768.0 0.017904930499596294 -0.012462562290909869 0.9192410719560031 -0.3536884500602622 0.9191488739352026 -0.35498345346967697 -0.00025992154958784375 -0.006419777231719236
! Port Impedance 100.00000000000000 0.00000000000000 100.00000000000000 0.00000000000000
23658714.0 0.017870145148208394 -0.012834164355642094 0.9193482978518044 -0.354176732274668 0.9191958024163598 -0.3557302204783441 -0.00021280074281870842 -0.006944766558426851
! Port Impedance 100.00000000000000 0.00000000000000 100.00000000000000 0.00000000000000
23691660.0 0.017935059789971564 -0.012760864708973217 0.918796966057237 -0.35476430236715867 0.9185116730804033 -0.3562797512649507 -0.00026609467853774826 -0.006958915064894815
! Port Impedance 100.00000000000000 0.00000000000000 100.00000000000000 0.00000000000000
23724606.0 0.018032690294258913 -0.013179203219292793 0.9187740349748439 -0.35450620153436496 0.9184678551524035 -0.35591082126871443 -0.00047332257414245404 -0.007017632312585079
! Port Impedance 100.00000000000000 0.00000000000000 100.00000000000000 0.00000000000000
23757552.0 0.01805625058996782 -0.012819613146047307 0.918454980389305 -0.35558814686585943 0.9183385977987794 -0.3571623971858345 -0.00014638936797500834 -0.006929571924881951
! Port Impedance 100.00000000000000 0.00000000000000 100.00000000000000 0.00000000000000
23790498.0 0.017871671893129604 -0.012930163525235412 0.9184845284647315 -0.35636229589726676 0.9181931805350534 -0.3578856299851816 -0.0006274772274213469 -0.006874618263817814
! Port Impedance 100.00000000000000 0.00000000000000 100.00000000000000 0.00000000000000
23823444.0 0.01798558169255471 -0.013124044434902053 0.9182415976809655 -0.35614431791978274 0.9181849517046003 -0.35763021659142524 -0.0005347408153670852 -0.007004399276757528
! Port Impedance 100.00000000000000 0.00000000000000 100.00000000000000 0.00000000000000
23856390.0 0.018008026794839455 -0.013396730912512742 0.9178234043415443 -0.3566418804434999 0.917631736535681 -0.3582393204897618 -0.0006125888943031566 -0.0072858169559010255
! Port Impedance 100.00000000000000 0.00000000000000 100.00000000000000 0.00000000000000
23889336.0 0.017964608801166543 -0.013504427102906842 0.9175776645846666 -0.3569624705754878 0.9173618594946071 -0.3583538214207552 -0.0005827129815975662 -0.0073405219483924575
! Port Impedance 100.00000000000000 0.00000000000000 100.00000000000000 0.00000000000000
23922282.0 0.018249343388325262 -0.01333773202496251 0.9172738539082508 -0.35803314179173384 0.917168964220719 -0.35932451880615 -0.00025097306397167674 -0.007212013266586839
! Port Impedance 100.00000000000000 0.00000000000000 100.00000000000000 0.00000000000000
23955228.0 0.01777539033871564 -0.013252241547220003 0.917407202309256 -0.3587351652190777 0.9171746426142098 -0.3603067779319167 -0.0008382168145748548 -0.007135688048705714
! Port Impedance 100.00000000000000 0.00000000000000 100.00000000000000 0.00000000000000
23988174.0 0.01805449693515951 -0.013470069431554647 0.9168651493469837 -0.3585534073399579 0.9167340981950287 -0.3601517302688521 -0.0007324889382656352 -0.007229620870390863
! Port Impedance 100.00000000000000 0.00000000000000 100.00000000000000 0.00000000000000
24021120.0 0.018034122406316855 -0.013458912734625524 0.9168112356617188 -0.3593520842406808 0.9166603282468486 -0.36095730458399533 -0.000545998414566401 -0.007336540276374565
! Port Impedance 100.00000000000000 0.00000000000000 100.00000000000000 0.00000000000000
24054066.0 0.01803316838686128 -0.013674661311281672 0.9166199017583988 -0.35970449882922667 0.9162256984221595 -0.36145385780668055 -0.0008352546404858385 -0.007596426935181443
! Port Impedance 100.00000000000000 0.00000000000000 100.00000000000000 0.00000000000000
24087012.0 0.017968317403741524 -0.013793907054751219 0.9164836273713347 -0.3601136812075423 0.9163771304637502 -0.36169364120501785 -0.0007013992376690148 -0.0075360042010360895
! Port Impedance 100.00000000000000 0.00000000000000 100.00000000000000 0.00000000000000
24119958.0 0.01787923919642459 -0.013742142171082765 0.9162141817646648 -0.3609082622684331 0.9158602338467136 -0.3622227519700966 -0.0009623813152402905 -0.007409369604815676
! Port Impedance 100.00000000000000 0.00000000000000 100.00000000000000 0.00000000000000
24152904.0 0.01796695058228709 -0.01403702253589853 0.9161467712194754 -0.3611768382557484 0.9160160334244639 -0.3629326745357406 -0.0007973889844196391 -0.007852487520767767
! Port Impedance 100.00000000000000 0.00000000000000 100.00000000000000 0.00000000000000
24185850.0 0.017984164452629875 -0.014000600038840315 0.9157519044814446 -0.3615593521181125 0.9154086717216027 -0.3630830170957938 -0.001023112091571965 -0.007703574678141971
! Port Impedance 100.00000000000000 0.00000000000000 100.00000000000000 0.00000000000000
24218796.0 0.018109499657251005 -0.014075903972385707 0.9155289558285374 -0.3621090127071 0.9152893021049112 -0.3636655268170573 -0.0008187914051461798 -0.007775305616509437
! Port Impedance 100.00000000000000 0.00000000000000 100.00000000000000 0.00000000000000
24251742.0 0.018183823825594525 -0.014238757918210672 0.9150329347823166 -0.36232574691244457 0.9149564664892031 -0.3638041099689567 -0.0008171833141725482 -0.008005695022669276
! Port Impedance 100.00000000000000 0.00000000000000 100.00000000000000 0.00000000000000
24284688.0 0.018216940267957865 -0.014323267013062073 0.9148628471926589 -0.3631974048684964 0.9145764488137194 -0.36458565634644813 -0.0007754835863141296 -0.007873628886866303
! Port Impedance 100.00000000000000 0.00000000000000 100.00000000000000 0.00000000000000
24317634.0 0.017944013189843705 -0.014354246468166167 0.9150803390851103 -0.36358507842672044 0.9151562621673771 -0.36534254915316405 -0.0009210488664959382 -0.008076206806208054
! Port Impedance 100.00000000000000 0.00000000000000 100.00000000000000 0.00000000000000
24350580.0 0.018074265078758645 -0.014257063675652527 0.9146906831749153 -0.3638563608922903 0.9143163942717266 -0.3653433212557692 -0.0011101694570342657 -0.007882140610716667
! Port Impedance 100.00000000000000 0.00000000000000 100.00000000000000 0.00000000000000
24383526.0 0.018164664493054844 -0.014628600039321857 0.9140954164712464 -0.3641812123893139 0.9137722598620798 -0.365664583143672 -0.0010121628976473007 -0.008266729839840031
! Port Impedance 100.00000000000000 0.00000000000000 100.00000000000000 0.00000000000000
24416472.0 0.018096481153959176 -0.014426419147767156 0.9143135085374716 -0.3647888561031937 0.9141827804691788 -0.36640378468689716 -0.0011446477805460986 -0.008068832740585098
! Port Impedance 100.00000000000000 0.00000000000000 100.00000000000000 0.00000000000000
24449418.0 0.018323711974099544 -0.014533001406508629 0.913846011778345 -0.3653274640059157 0.9133754344936861 -0.3669088069888846 -0.0010631160193027567 -0.008085894224787955
! Port Impedance 100.00000000000000 0.00000000000000 100.00000000000000 0.00000000000000
24482364.0 0.01802680989930938 -0.014571073374582001 0.9137684229167253 -0.3660237872396372 0.9133922730026635 -0.3675739095498152 -0.0011127685893931316 -0.008257002769197622
! Port Impedance 100.00000000000000 0.00000000000000 100.00000000000000 0.00000000000000
24515310.0 0.018010823276201154 -0.014770827134676243 0.9137986590063303 -0.36643267969830173 0.9135248357817559 -0.3678676072836876 -0.0014367463093248045 -0.008257043098360582
! Port Impedance 100.00000000000000 0.00000000000000 100.00000000000000 0.00000000000000
24548256.0 0.017984823128436078 -0.014687663787935137 0.9135022406806578 -0.36707387659251184 0.9133656761382328 -0.3686488702931988 -0.0012980153128763494 -0.00818494268780861
! Port Impedance 100.00000000000000 0.00000000000000 100.00000000000000 0.00000000000000
24581202.0 0.018137976350125457 -0.014926072992247283 0.9129640499472788 -0.3675539588158447 0.9128647804958787 -0.3691228196337273 -0.0011955659500675342 -0.00842371431207841
! Port Impedance 100.00000000000000 0.00000000000000 100.00000000000000 0.00000000000000
24614148.0 0.018109067342807456 -0.01514918440462984 0.9126739023115646 -0.36733143832660375 0.912497455230578 -0.36892224106120863 -0.0012822729272568556 -0.008659536036100486
! Port Impedance 100.00000000000000 0.00000000000000 100.00000000000000 0.00000000000000
24647094.0 0.01828536452496496 -0.014868215842911835 0.9127820513467986 -0.36849558999387405 0.9126558778971541 -0.37012042149392954 -0.001105939064493855 -0.008457752046899289
! Port Impedance 100.00000000000000 0.00000000000000 100.00000000000000 0.00000000000000
24680040.0 0.018273965148490084 -0.015078915205824377 0.912240128044513 -0.36895480399194086 0.9119975914611584 -0.3705379117160186 -0.0012036447759640745 -0.008568494995992451
! Port Impedance 100.00000000000000 0.00000000000000 100.00000000000000 0.00000000000000
24712986.0 0.018394124537266576 -0.015049268979573385 0.9120982902893529 -0.36961055834853584 0.9118733494252729 -0.37099659254214884 -0.001176011971940255 -0.008519543574700153
! Port Impedance 100.00000000000000 0.00000000000000 100.00000000000000 0.00000000000000
24745932.0 0.018289926434572834 -0.014997245776407285 0.9115325880050904 -0.36989324237076676 0.9113728057332675 -0.3714191277111343 -0.0013137106311364444 -0.008501193529768226
! Port Impedance 100.00000000000000 0.00000000000000 100.00000000000000 0.00000000000000
24778878.0 0.018189962707292173 -0.015394510032225327 0.9121128618590412 -0.3702278887399628 0.9117990155230837 -0.37176783540695507 -0.0015729442498434165 -0.0087783041990918
! Port Impedance 100.00000000000000 0.00000000000000 100.00000000000000 0.00000000000000
24811824.0 0.018311695557177765 -0.01522339365791145 0.9114870460021245 -0.3701949929590601 0.9113484032699177 -0.3719467275704358 -0.0011783914249194893 -0.008703121884654684
! Port Impedance 100.00000000000000 0.00000000000000 100.00000000000000 0.00000000000000
24844770.0 0.018329557810352337 -0.01565032041159419 0.9111771613355711 -0.3707432397441943 0.9109367079925448 -0.372546908287101 -0.0014891635614613652 -0.009050967229350837
! Port Impedance 100.00000000000000 0.00000000000000 100.00000000000000 0.00000000000000
24877716.0 0.018420802408408127 -0.015517344221572513 0.9110913526254335 -0.3717807708950692 0.9109567701617145 -0.37335622091022747 -0.001427075760842167 -0.0089497541699032
! Port Impedance 100.00000000000000 0.00000000000000 100.00000000000000 0.00000000000000
24910662.0 0.018196967925282137 -0.015456494570210172 0.9106984314620273 -0.37219116190451085 0.9105362048314898 -0.37386838781852216 -0.0016509487259740163 -0.008794777914088905
! Port Impedance 100.00000000000000 0.00000000000000 100.00000000000000 0.00000000000000
24943608.0 0.01808928698603074 -0.01584307896615028 0.9109467546380945 -0.372503615593664 0.9109189817240023 -0.3741985641672456 -0.0017646251754365183 -0.009122796751012886
! Port Impedance 100.00000000000000 0.00000000000000 100.00000000000000 0.00000000000000
24976554.0 0.018201131979986573 -0.015651092904178585 0.9106617223851251 -0.37328431639168996 0.9101977885346064 -0.3748839116132556 -0.001790601208168624 -0.008886524978128335
! Port Impedance 100.00000000000000 0.00000000000000 100.00000000000000 0.00000000000000
25009500.0 0.01798925440145613 -0.016109491420515695 0.9107880830962728 -0.37348842245779307 0.9104702491452897 -0.37510303250218513 -0.0019285826736333833 -0.009154007373517126
! Port Impedance 100.00000000000000 0.00000000000000 100.00000000000000 0.00000000000000
25042446.0 0.018300053219044377 -0.016014948443214168 0.9097730327518885 -0.37400770086603513 0.9096132602514144 -0.3756066083182929 -0.0016351460737019097 -0.009209326130603088
! Port Impedance 100.00000000000000 0.00000000000000 100.00000000000000 0.00000000000000
25075392.0 0.0182343613697179 -0.016107885791460344 0.9098476635256506 -0.3741220451751137 0.9094788031875543 -0.37591586276958633 -0.0018855841364877057 -0.009336561281139383
! Port Impedance 100.00000000000000 0.00000000000000 100.00000000000000 0.00000000000000
25108338.0 0.018367197568960103 -0.016051445237132714 0.9096636490962858 -0.3749063116845046 0.9094794764932707 -0.3764587796781813 -0.0016847273355425907 -0.009338686940332797
! Port Impedance 100.00000000000000 0.00000000000000 100.00000000000000 0.00000000000000
25141284.0 0.018103331343396256 -0.016208753757903947 0.9096062108980248 -0.3756635772743623 0.9094210491433793 -0.37738740812435156 -0.0020906926875889076 -0.009347046207176551
! Port Impedance 100.00000000000000 0.00000000000000 100.00000000000000 0.00000000000000
25174230.0 0.018158620056250158 -0.016221215062304097 0.9095315439160612 -0.3757977719861921 0.9090621808163268 -0.377527034958244 -0.0021463915579897352 -0.009337129406488426
! Port Impedance 100.00000000000000 0.00000000000000 100.00000000000000 0.00000000000000
25207176.0 0.018058601951037423 -0.016332759004265007 0.9090366478134533 -0.3761359456122209 0.9087844213040661 -0.3777560544933569 -0.002071811789733896 -0.0094804256112873
! Port Impedance 100.00000000000000 0.00000000000000 100.00000000000000 0.00000000000000
25240122.0 0.018256122423447013 -0.016304267913059438 0.9086027272601578 -0.3769380802471953 0.9081955952392946 -0.3786480818651477 -0.0020962830059932658 -0.009358142118006688
! Port Impedance 100.00000000000000 0.00000000000000 100.00000000000000 0.00000000000000
25273068.0 0.018246373943647698 -0.01669350073699853 0.9086985241567496 -0.3773006692912295 0.9083801784467165 -0.37881201128101877 -0.0021131331979413193 -0.009610992659860401
! Port Impedance 100.00000000000000 0.00000000000000 100.00000000000000 0.00000000000000
25306014.0 0.01851353524307231 -0.016283882961230005 0.9082704438644373 -0.3781643615098204 0.9080619367451954 -0.3797857778699914 -0.0019066310244992835 -0.009391969289692104
! Port Impedance 100.00000000000000 0.00000000000000 100.00000000000000 0.00000000000000
25338960.0 0.018393834195287256 -0.016517037045103704 0.9076308901459904 -0.37807321280636175 0.9071647824272314 -0.3796403032930323 -0.0020798646042980984 -0.009542618369722783
! Port Impedance 100.00000000000000 0.00000000000000 100.00000000000000 0.00000000000000
25371906.0 0.01810933405411469 -0.016596785562363298 0.9082179335085002 -0.37878007050198675 0.9079606999741747 -0.38041049158038476 -0.0023668283035011284 -0.009552234973827678
! Port Impedance 100.00000000000000 0.00000000000000 100.00000000000000 0.00000000000000
25404852.0 0.018193941189831947 -0.016741559711950543 0.9076017331727001 -0.3792312234029076 0.9074193851865793 -0.38075143804240896 -0.00212730264277991 -0.009717789984147948
! Port Impedance 100.00000000000000 0.00000000000000 100.00000000000000 0.00000000000000
25437798.0 0.018261420229328862 -0.017098788571118247 0.9072677090411322 -0.3790137888392034 0.9069343502184196 -0.38066094692358343 -0.002254577074125269 -0.010175969825264877
! Port Impedance 100.00000000000000 0.00000000000000 100.00000000000000 0.00000000000000
25470744.0 0.01838210729925277 -0.01684074926427276 0.9071691706576623 -0.3800049891424849 0.9069627992167182 -0.38167079234692636 -0.0021593373167742846 -0.009896271615492655
! Port Impedance 100.00000000000000 0.00000000000000 100.00000000000000 0.00000000000000
25503690.0 0.018483984844765877 -0.017044610129031607 0.906726486110198 -0.3806095310842333 0.9063779455623943 -0.38226248309546945 -0.0022078276188222945 -0.0101121840915743
! Port Impedance 100.00000000000000 0.00000000000000 100.00000000000000 0.00000000000000
25536636.0 0.018173138143766088 -0.01728175615339577 0.907016675598275 -0.38098393939760844 0.9067421014543504 -0.3824695693903471 -0.002565627583764385 -0.010099736411854549
! Port Impedance 100.00000000000000 0.00000000000000 100.00000000000000 0.00000000000000
25569582.0 0.01806420054679414 -0.016938890258954835 0.9069446142590434 -0.38157430740351117 0.9066545716540666 -0.38328067695490886 -0.0027081406605451996 -0.009797650409962291
! Port Impedance 100.00000000000000 0.00000000000000 100.00000000000000 0.00000000000000
25602528.0 0.018337527565269046 -0.01721135590767732 0.9061024110255268 -0.381952622591079 0.9057257677661961 -0.3837787618479279 -0.0023383135223386253 -0.010108796519598645
! Port Impedance 100.00000000000000 0.00000000000000 100.00000000000000 0.00000000000000
25635474.0 0.018371495053840864 -0.01735812453590431 0.9059949083703572 -0.38244523407320774 0.9056887720944234 -0.38424977303264096 -0.0023668356207386942 -0.01020386249803805
! Port Impedance 100.00000000000000 0.00000000000000 100.00000000000000 0.00000000000000
25668420.0 0.018505212869948634 -0.01761840155918931 0.9057182072215215 -0.38221264764959395 0.9053900633189954 -0.3840121347028141 -0.002352196673026552 -0.010419352804962131
! Port Impedance 100.00000000000000 0.00000000000000 100.00000000000000 0.00000000000000
25701366.0 0.018467201476959322 -0.01729692648448794 0.9054283507081147 -0.3837622113549471 0.9051238766314034 -0.38545681482563227 -0.002419178182416909 -0.010043513591339467
! Port Impedance 100.00000000000000 0.00000000000000 100.00000000000000 0.00000000000000
25734312.0 0.018325674665270825 -0.0176211700242261 0.9054298487555432 -0.3841390327169571 0.9050370803393306 -0.38573017067743065 -0.0026570871001376783 -0.010289678271853911
! Port Impedance 100.00000000000000 0.00000000000000 100.00000000000000 0.00000000000000
25767258.0 0.018278367842290005 -0.0173871653637339 0.9052034446214793 -0.384005799894566 0.9049906062356675 -0.38579296903431065 -0.0026114509776940242 -0.010243698445146499
! Port Impedance 100.00000000000000 0.00000000000000 100.00000000000000 0.00000000000000
25800204.0 0.01843623280577336 -0.017800969716869446 0.904747037557826 -0.38459631438668274 0.9045030973860263 -0.3862481689228082 -0.0025834853534324187 -0.010474852751622285
! Port Impedance 100.00000000000000 0.00000000000000 100.00000000000000 0.00000000000000
25833150.0 0.018438568062342453 -0.017655724703737656 0.9047002345317574 -0.38549782823178 0.9044417971146366 -0.3870436798625332 -0.002596196333823325 -0.010348378953868434
! Port Impedance 100.00000000000000 0.00000000000000 100.00000000000000 0.00000000000000
25866096.0 0.018486980901850525 -0.017854390029339508 0.9042882270264453 -0.38572273870322504 0.9041654123378574 -0.3874004792186129 -0.0026256727208118225 -0.01054788476336764
! Port Impedance 100.00000000000000 0.00000000000000 100.00000000000000 0.00000000000000
25899042.0 0.01837789247114824 -0.01791451679961236 0.9043032165327063 -0.3864419965120515 0.9038580932138874 -0.3880959842515072 -0.0029262807674959312 -0.010505167764258305
! Port Impedance 100.00000000000000 0.00000000000000 100.00000000000000 0.00000000000000
25931988.0 0.01828468739500705 -0.01800535578357776 0.9039943872481259 -0.38677768752722974 0.9036572456146302 -0.388366462414623 -0.00277057856846738 -0.010601899060842065
! Port Impedance 100.00000000000000 0.00000000000000 100.00000000000000 0.00000000000000
25964934.0 0.018563406008999722 -0.018153905275157638 0.9038530563590619 -0.38692114722527404 0.9033744804522066 -0.3886057323087528 -0.0026467166092359884 -0.010835750727133345
! Port Impedance 100.00000000000000 0.00000000000000 100.00000000000000 0.00000000000000
25997880.0 0.0186268870957004 -0.01817235266473527 0.9029992468765434 -0.3872294957058187 0.9028109798678295 -0.38895203030081293 -0.002673153223375163 -0.010796477396628715
! Port Impedance 100.00000000000000 0.00000000000000 100.00000000000000 0.00000000000000
26030826.0 0.0183352940992266 -0.01834030267507495 0.9034525878230041 -0.3881956830978298 0.9031411369774844 -0.38993399307713494 -0.0030669987339801696 -0.01082828954267244
! Port Impedance 100.00000000000000 0.00000000000000 100.00000000000000 0.00000000000000
26063772.0 0.01854227562537611 -0.018357631162339003 0.9026728460039439 -0.388257618866537 0.9023621431660401 -0.38997446929781415 -0.0028502490384473833 -0.010922912337145763
! Port Impedance 100.00000000000000 0.00000000000000 100.00000000000000 0.00000000000000
26096718.0 0.018283560818239175 -0.018389943579280456 0.9031808865474655 -0.3892735455548132 0.9027379554163556 -0.39087041182704757 -0.0031607201671542684 -0.010697802826492048
! Port Impedance 100.00000000000000 0.00000000000000 100.00000000000000 0.00000000000000
26129664.0 0.01827181599156344 -0.01838120987741075 0.9023996765471248 -0.38944489760645595 0.9023568067467931 -0.39141879954677194 -0.00307561363490233 -0.01082228835925729
! Port Impedance 100.00000000000000 0.00000000000000 100.00000000000000 0.00000000000000
26162610.0 0.01833896943731228 -0.018618918011608282 0.9022660745631274 -0.38966475005463963 0.9020993901303573 -0.3912706800558223 -0.0030187808931212423 -0.01113906089280424
! Port Impedance 100.00000000000000 0.00000000000000 100.00000000000000 0.00000000000000
26195556.0 0.018595757306755722 -0.018439267252645386 0.9021568287889792 -0.39062129763632636 0.9018461064625307 -0.3922142610871575 -0.003007889789709506 -0.010878108768948874
! Port Impedance 100.00000000000000 0.00000000000000 100.00000000000000 0.00000000000000
26228502.0 0.01865337458917643 -0.018790864517447152 0.901568204791744 -0.3907157686671436 0.9012823852423947 -0.39254534064876295 -0.002899787925685765 -0.011259199099777975
! Port Impedance 100.00000000000000 0.00000000000000 100.00000000000000 0.00000000000000
26261448.0 0.01843171341915112 -0.01891783600264478 0.9017573020438657 -0.3914943062213976 0.9013674001606214 -0.39321216325764796 -0.003351845075029891 -0.011149914325760846
! Port Impedance 100.00000000000000 0.00000000000000 100.00000000000000 0.00000000000000
26294394.0 0.01814261261261549 -0.018819590954989522 0.9021373233779857 -0.3919185969221993 0.9018793592850294 -0.39385998729771177 -0.003670289901508972 -0.011157572447469385
! Port Impedance 100.00000000000000 0.00000000000000 100.00000000000000 0.00000000000000
26327340.0 0.018508013229974724 -0.019053062954019193 0.9012079803804023 -0.39198295291480967 0.9009600222966694 -0.39390024965212767 -0.0032642494207649753 -0.011318605016166522
! Port Impedance 100.00000000000000 0.00000000000000 100.00000000000000 0.00000000000000
26360286.0 0.01837249854327555 -0.019154431672109458 0.9008517702657247 -0.39245528431528204 0.9006006988363595 -0.3943671544437077 -0.0033185090741530143 -0.011379040738792687
! Port Impedance 100.00000000000000 0.00000000000000 100.00000000000000 0.00000000000000
26393232.0 0.018755227924534823 -0.019188642868108285 0.9007180244243864 -0.39250166692814675 0.9004013195603234 -0.3943503005619592 -0.0029854119774237464 -0.011601057562524358
! Port Impedance 100.00000000000000 0.00000000000000 100.00000000000000 0.00000000000000
26426178.0 0.018547037085379553 -0.01958466819851061 0.900574345563095 -0.3927525633472687 0.9002931086578552 -0.39467561764855635 -0.003316303869831616 -0.011864705363927697
! Port Impedance 100.00000000000000 0.00000000000000 100.00000000000000 0.00000000000000
26459124.0 0.01868916281109753 -0.01950919289779513 0.9001679416728401 -0.39359305784758847 0.8998628090518366 -0.39528270748324 -0.0032837256260052072 -0.011740990834200674
! Port Impedance 100.00000000000000 0.00000000000000 100.00000000000000 0.00000000000000
26492070.0 0.018640213097201597 -0.019379448904231836 0.8998385605185832 -0.3945495525079957 0.8997274672707971 -0.39642616895677035 -0.00332726004286632 -0.01151996958463436
! Port Impedance 100.00000000000000 0.00000000000000 100.00000000000000 0.00000000000000
26525016.0 0.01872712969012491 -0.019199884316180624 0.899289847857754 -0.3946836319210233 0.898980650488914 -0.3966901346063929 -0.0032587462877305684 -0.01152820119377361
! Port Impedance 100.00000000000000 0.00000000000000 100.00000000000000 0.00000000000000
26557962.0 0.01797406243412053 -0.01916505225746841 0.9001129727725921 -0.3954094672020786 0.8997618908868436 -0.39735839293400893 -0.004017445134053138 -0.011230691220202482
! Port Impedance 100.00000000000000 0.00000000000000 100.00000000000000 0.00000000000000
26590908.0 0.018552803219330866 -0.019550222427847153 0.8992007116235973 -0.395591669480039 0.8990272378182292 -0.397437381179912 -0.0034052258843334515 -0.011728263068903816
! Port Impedance 100.00000000000000 0.00000000000000 100.00000000000000 0.00000000000000
26623854.0 0.018389097112129604 -0.019561623911146693 0.899095304068796 -0.3961175408524894 0.8987568249141088 -0.39827117880340174 -0.003766328221072812 -0.01175498404701815
! Port Impedance 100.00000000000000 0.00000000000000 100.00000000000000 0.00000000000000
26656800.0 0.01849054635517111 -0.02005173908312175 0.8991330996791347 -0.39614653885527873 0.8988472229792066 -0.39789051949269816 -0.0035791034417177736 -0.012155077478996912
! Port Impedance 100.00000000000000 0.00000000000000 100.00000000000000 0.00000000000000
26689746.0 0.0186179207417822 -0.01961850464075187 0.8985674964694753 -0.39746706793801273 0.8983373065893737 -0.3994003603684812 -0.0037292581087858545 -0.011550549688638556
! Port Impedance 100.00000000000000 0.00000000000000 100.00000000000000 0.00000000000000
26722692.0 0.018747898148787523 -0.019906712209547046 0.89830987922043 -0.3978104023901871 0.8977526940371501 -0.399489965335129 -0.003510680341992034 -0.011999610746287609
! Port Impedance 100.00000000000000 0.00000000000000 100.00000000000000 0.00000000000000
26755638.0 0.018248977068732325 -0.01988582872308086 0.8984482438766421 -0.39809594259795056 0.8983220416049305 -0.4003036188686079 -0.0039822400867061125 -0.011882140528425539
! Port Impedance 100.00000000000000 0.00000000000000 100.00000000000000 0.00000000000000
26788584.0 0.0186831156096878 -0.019746305818543426 0.8975887885781275 -0.39863364697061854 0.8973538846992908 -0.4004340664812903 -0.003737390089326803 -0.011716717849324668
! Port Impedance 100.00000000000000 0.00000000000000 100.00000000000000 0.00000000000000
26821530.0 0.018760894712969628 -0.020153440886398734 0.8975488733889623 -0.3989520065063525 0.8971350970336048 -0.40103244583579584 -0.0036270894030283607 -0.012138637204287608
! Port Impedance 100.00000000000000 0.00000000000000 100.00000000000000 0.00000000000000
26854476.0 0.018605589107487303 -0.020167889279874604 0.8973631874589927 -0.399704124101937 0.8968764932004707 -0.4014593139573002 -0.0038189363539151977 -0.012204398691147159
! Port Impedance 100.00000000000000 0.00000000000000 100.00000000000000 0.00000000000000
26887422.0 0.01848874871609274 -0.02031074780529092 0.8976465834817511 -0.3999279456377056 0.8974187000029707 -0.4018993934733062 -0.004022693618974643 -0.012233432282416426
! Port Impedance 100.00000000000000 0.00000000000000 100.00000000000000 0.00000000000000
26920368.0 0.018903051075108146 -0.020555770774110117 0.8966733413151237 -0.39997239571567345 0.8965389563195473 -0.4018740714144822 -0.003729995024827515 -0.01242301655402879
! Port Impedance 100.00000000000000 0.00000000000000 100.00000000000000 0.00000000000000
26953314.0 0.018573769054632594 -0.02025311528377747 0.8967159987896641 -0.40077212329716033 0.8963869379445975 -0.4027755520987214 -0.004109664705134103 -0.012118770286463854
! Port Impedance 100.00000000000000 0.00000000000000 100.00000000000000 0.00000000000000
26986260.0 0.01871640137992192 -0.02068854419364157 0.8966219990138653 -0.4005920507353671 0.896039657314943 -0.40235506802999077 -0.004064395274505528 -0.01270018924193074
! Port Impedance 100.00000000000000 0.00000000000000 100.00000000000000 0.00000000000000
27019206.0 0.018669841994715303 -0.0205089383998849 0.8962567482200405 -0.4019839529988274 0.8959782242893106 -0.40405726628328176 -0.004060697940938218 -0.012296710221817803
! Port Impedance 100.00000000000000 0.00000000000000 100.00000000000000 0.00000000000000
27052152.0 0.01888074217062749 -0.02039819759055618 0.8957701190059337 -0.4024012705637148 0.8954078940341551 -0.40431993809355105 -0.003929207887928304 -0.012092533135808131
! Port Impedance 100.00000000000000 0.00000000000000 100.00000000000000 0.00000000000000
27085098.0 0.018963363079342543 -0.02081973045617823 0.8956522821933156 -0.40259018600150764 0.8951862914374185 -0.4042896793045895 -0.0038395536997663515 -0.012568440978008202
! Port Impedance 100.00000000000000 0.00000000000000 100.00000000000000 0.00000000000000
27118044.0 0.01866055049963064 -0.020790344405562433 0.8955808234568567 -0.4031750049493661 0.8952088059466952 -0.4052391896601946 -0.004264918258731737 -0.012634908606318801
! Port Impedance 100.00000000000000 0.00000000000000 100.00000000000000 0.00000000000000
27150990.0 0.01817316432405497 -0.020908684609541955 0.895962849501338 -0.40362990599987536 0.8956742451998265 -0.4057488465057882 -0.004648788792357916 -0.012529618014436986
! Port Impedance 100.00000000000000 0.00000000000000 100.00000000000000 0.00000000000000
27183936.0 0.018459022629150335 -0.020849503679912493 0.8950978120983721 -0.4042024210927355 0.8946748714765409 -0.4060382148383871 -0.004488319366808491 -0.012464119589736297
! Port Impedance 100.00000000000000 0.00000000000000 100.00000000000000 0.00000000000000
27216882.0 0.01852871110636084 -0.021045351151199945 0.8949389212680516 -0.40441506795750226 0.8945777327202096 -0.40642808752659876 -0.00451931843856182 -0.012606888655057297
! Port Impedance 100.00000000000000 0.00000000000000 100.00000000000000 0.00000000000000
27249828.0 0.018738870042767114 -0.0212409174026272 0.8946546130007015 -0.4043787784482858 0.89425340425597 -0.4062718645344383 -0.004336100363187573 -0.013012167042555464
! Port Impedance 100.00000000000000 0.00000000000000 100.00000000000000 0.00000000000000
27282774.0 0.018573198707985017 -0.021062087369954408 0.8941809327014918 -0.4054105790774257 0.8939502690518968 -0.40743830815456883 -0.0044595904965906985 -0.012636010519016944
! Port Impedance 100.00000000000000 0.00000000000000 100.00000000000000 0.00000000000000
27315720.0 0.018631328111327894 -0.02118618281691935 0.8939918894342397 -0.4060403757284664 0.8935121002610872 -0.40783770433615774 -0.004373905928869742 -0.012781431020244455
! Port Impedance 100.00000000000000 0.00000000000000 100.00000000000000 0.00000000000000
27348666.0 0.018773277367554825 -0.02137981162931931 0.893693793986986 -0.4062292572129437 0.8933371025296378 -0.4081757660077863 -0.004196487225824969 -0.012937539298985584
! Port Impedance 100.00000000000000 0.00000000000000 100.00000000000000 0.00000000000000
27381612.0 0.01827842262340401 -0.021656973855875283 0.894363193789182 -0.40683786119996074 0.8939858829736678 -0.4087305324733681 -0.005004336533035475 -0.01325468818768083
! Port Impedance 100.00000000000000 0.00000000000000 100.00000000000000 0.00000000000000
27414558.0 0.018541010483125342 -0.021586295776154882 0.8936454549725018 -0.407148569769766 0.8933113047356716 -0.4091014387461239 -0.0047906564374690375 -0.012847799998792153
! Port Impedance 100.00000000000000 0.00000000000000 100.00000000000000 0.00000000000000
27447504.0 0.01887209343079596 -0.021963496587658685 0.8929670098290331 -0.40719646564514267 0.8925636356535586 -0.4090171200004712 -0.004503525801799718 -0.013434989686747084
! Port Impedance 100.00000000000000 0.00000000000000 100.00000000000000 0.00000000000000
27480450.0 0.01880799841065406 -0.021400022425647557 0.8928693866538286 -0.40834246336309665 0.8924027292741292 -0.41022337851169133 -0.004674346211466812 -0.012817018867145744
! Port Impedance 100.00000000000000 0.00000000000000 100.00000000000000 0.00000000000000
27513396.0 0.0188228264943123 -0.021554223351104462 0.8925442220335439 -0.408646596621362 0.8920738255004326 -0.4107712007467097 -0.004534675964869506 -0.012997430324019787
! Port Impedance 100.00000000000000 0.00000000000000 100.00000000000000 0.00000000000000
27546342.0 0.018497914371652407 -0.02173375897168517 0.892753350420794 -0.409385131546418 0.892347274415718 -0.41119835472650385 -0.004914847409219547 -0.013085753938465686
! Port Impedance 100.00000000000000 0.00000000000000 100.00000000000000 0.00000000000000
27579288.0 0.01870434255816486 -0.02178796655367523 0.8921968488512588 -0.40944641429967943 0.8918484900789239 -0.41139775013308433 -0.00494006556926499 -0.012971300007717526
! Port Impedance 100.00000000000000 0.00000000000000 100.00000000000000 0.00000000000000
27612234.0 0.018605946704679938 -0.02221892550758027 0.8922987078845358 -0.40977599906389656 0.8920786173808334 -0.4115842682195798 -0.005078780887898537 -0.013402617093609626
! Port Impedance 100.00000000000000 0.00000000000000 100.00000000000000 0.00000000000000
27645180.0 0.018985729908134047 -0.02202132686754111 0.8913639561949748 -0.4102791567176942 0.891364102815837 -0.4123942604800366 -0.004388254123959767 -0.013462223797548314
! Port Impedance 100.00000000000000 0.00000000000000 100.00000000000000 0.00000000000000
27678126.0 0.018355948604968725 -0.022087973711059625 0.8920603407498913 -0.4111385908286822 0.8917094640645122 -0.4130991929968292 -0.005240390778830678 -0.013451123202218182
! Port Impedance 100.00000000000000 0.00000000000000 100.00000000000000 0.00000000000000
27711072.0 0.018609758250324765 -0.02231641248224775 0.8912423135342191 -0.4110647060157871 0.8911554751755639 -0.4131862802844145 -0.005018454580417775 -0.013609544175918614
! Port Impedance 100.00000000000000 0.00000000000000 100.00000000000000 0.00000000000000
27744018.0 0.018801359068572804 -0.022122091555864185 0.8905621340808052 -0.4114104941867213 0.8902456431168485 -0.41344658908945675 -0.004757068228292888 -0.01352627027122165
! Port Impedance 100.00000000000000 0.00000000000000 100.00000000000000 0.00000000000000
27776964.0 0.018778669071192827 -0.022222667073441088 0.8907369116236927 -0.41232089626250934 0.8903689039395288 -0.41442289803149746 -0.005048425597883072 -0.013387270615182245
! Port Impedance 100.00000000000000 0.00000000000000 100.00000000000000 0.00000000000000
27809910.0 0.01819662387099283 -0.022347823285101015 0.8914562890776168 -0.4132598623543262 0.8911328766697679 -0.4151871016763743 -0.005548578488092426 -0.013495930113296126
! Port Impedance 100.00000000000000 0.00000000000000 100.00000000000000 0.00000000000000
27842856.0 0.0188048051118882 -0.022685293625555804 0.8900194990635162 -0.41288737673721826 0.8896645363617591 -0.4148076405370608 -0.004916152731728629 -0.013871950539064301
! Port Impedance 100.00000000000000 0.00000000000000 100.00000000000000 0.00000000000000
27875802.0 0.018800075487132695 -0.02275744284743314 0.8898821663309777 -0.41295859526218864 0.8893840211073325 -0.4150429597697927 -0.0051776880966704075 -0.013919927956878728
! Port Impedance 100.00000000000000 0.00000000000000 100.00000000000000 0.00000000000000
27908748.0 0.018853102533566535 -0.02294862428723781 0.8897473412797041 -0.41344916259714803 0.889364277501105 -0.41537885419124276 -0.005220170592675016 -0.014139815009304224
! Port Impedance 100.00000000000000 0.00000000000000 100.00000000000000 0.00000000000000
27941694.0 0.01861601559196288 -0.022676811183973647 0.8897078663485514 -0.41463529330786747 0.8894304025890636 -0.41666151852840777 -0.005391587750575189 -0.01372819235928785
! Port Impedance 100.00000000000000 0.00000000000000 100.00000000000000 0.00000000000000
27974640.0 0.018695316718257193 -0.02270816702500513 0.8895705173836788 -0.41510839235716124 0.8891857076487495 -0.41719628923792135 -0.005256932302644818 -0.013705235313747677
! Port Impedance 100.00000000000000 0.00000000000000 100.00000000000000 0.00000000000000
28007586.0 0.01882401375868198 -0.022990384707009447 0.8888875581068245 -0.4152861005980334 0.8884817348144621 -0.41720928516467004 -0.005160901584427807 -0.014019610202609917
! Port Impedance 100.00000000000000 0.00000000000000 100.00000000000000 0.00000000000000
28040532.0 0.018469090962844242 -0.02286109835125151 0.8894734160314893 -0.4161160706800454 0.8888018359833504 -0.41794958785270775 -0.00561059279501791 -0.013616285188972538
! Port Impedance 100.00000000000000 0.00000000000000 100.00000000000000 0.00000000000000
28073478.0 0.01882465830359517 -0.023338232613153244 0.8886601918758048 -0.4158183329145504 0.8882830956042709 -0.4175824675007235 -0.00549602555097517 -0.014378915017740149
! Port Impedance 100.00000000000000 0.00000000000000 100.00000000000000 0.00000000000000
28106424.0 0.018815686264069736 -0.022900573816124634 0.8882613222491571 -0.41664757509635286 0.8879861697123487 -0.4188555257888441 -0.005339604419245025 -0.013898681597585408
! Port Impedance 100.00000000000000 0.00000000000000 100.00000000000000 0.00000000000000
28139370.0 0.018790737535070295 -0.023307310547545063 0.8883388647415125 -0.41724823919292264 0.8879183562200428 -0.41916807799188205 -0.005489473153995145 -0.014254544425384083
! Port Impedance 100.00000000000000 0.00000000000000 100.00000000000000 0.00000000000000
28172316.0 0.018743091892213543 -0.02316548352136416 0.8879308430872419 -0.4178243285368445 0.8876900806221609 -0.41988928654913105 -0.005596689147815748 -0.014069786075573992
! Port Impedance 100.00000000000000 0.00000000000000 100.00000000000000 0.00000000000000
28205262.0 0.018581137819196042 -0.02314884558155362 0.887679939849276 -0.4182908630555917 0.8873380316050163 -0.420203300447485 -0.005795440141075359 -0.013957879174754079
! Port Impedance 100.00000000000000 0.00000000000000 100.00000000000000 0.00000000000000
28238208.0 0.018634339543461248 -0.02324227631852499 0.887432742620275 -0.41858957336535085 0.887130103640016 -0.4205272019505848 -0.005811064082004325 -0.013964094973513766
! Port Impedance 100.00000000000000 0.00000000000000 100.00000000000000 0.00000000000000
28271154.0 0.01889406510770772 -0.023332216760047347 0.8869350582088992 -0.41928766234538295 0.8864619468815313 -0.4212171077671686 -0.005691113458836272 -0.014031398099230555
! Port Impedance 100.00000000000000 0.00000000000000 100.00000000000000 0.00000000000000
28304100.0 0.018761965551054527 -0.02328406860551014 0.8868857589540604 -0.419624751638437 0.8865783188748354 -0.4217034937997509 -0.0058248292378911826 -0.013976673660190328
! Port Impedance 100.00000000000000 0.00000000000000 100.00000000000000 0.00000000000000
28337046.0 0.01875105906767477 -0.023507553313437242 0.8867567752107646 -0.42011149406552173 0.8864839244365297 -0.42195629081341046 -0.0057806369975653416 -0.014236557027035454
! Port Impedance 100.00000000000000 0.00000000000000 100.00000000000000 0.00000000000000
28369992.0 0.018493624828732486 -0.023687993206681968 0.8870181661295495 -0.42094367148424516 0.8865075592539946 -0.42279104994377925 -0.00608761741710151 -0.014359424744453314
! Port Impedance 100.00000000000000 0.00000000000000 100.00000000000000 0.00000000000000
28402938.0 0.01879512093114641 -0.02391342485954892 0.8859236648943991 -0.42035064371166164 0.8857325149064497 -0.4224638820449635 -0.005835217977769702 -0.014699109058450677
! Port Impedance 100.00000000000000 0.00000000000000 100.00000000000000 0.00000000000000
28435884.0 0.018956459183912977 -0.023911668936937212 0.8858646855482594 -0.42125881149549116 0.8854021664861111 -0.4232472099075967 -0.0057152686136575925 -0.014705922345119068
! Port Impedance 100.00000000000000 0.00000000000000 100.00000000000000 0.00000000000000
28468830.0 0.018842950859817686 -0.024036868172374617 0.8855671000049771 -0.4219765785451601 0.8852737367362323 -0.42372827787151934 -0.006069233727442419 -0.014572687022394365
! Port Impedance 100.00000000000000 0.00000000000000 100.00000000000000 0.00000000000000
28501776.0 0.018968834081627195 -0.02412733141093202 0.8854883282235915 -0.42190337127460353 0.884990958472265 -0.4239353650946252 -0.005901542351875233 -0.014970383814031013
! Port Impedance 100.00000000000000 0.00000000000000 100.00000000000000 0.00000000000000
28534722.0 0.019086368069952453 -0.023911432711818295 0.8847372480750536 -0.4224002500377544 0.8844052970129871 -0.4247112915236401 -0.00576837885064202 -0.014567613668876198
! Port Impedance 100.00000000000000 0.00000000000000 100.00000000000000 0.00000000000000
28567668.0 0.01850160887778221 -0.024042557434356265 0.8854816217228373 -0.42366260002971434 0.8850417384568358 -0.4257811852733241 -0.006354177641776482 -0.014522235258969174
! Port Impedance 100.00000000000000 0.00000000000000 100.00000000000000 0.00000000000000
28600614.0 0.018670679663521678 -0.02410074091518833 0.8847928963757641 -0.4236892251730471 0.8843863286101973 -0.42567175385243305 -0.006288432127147331 -0.014488457098225702
! Port Impedance 100.00000000000000 0.00000000000000 100.00000000000000 0.00000000000000
28633560.0 0.01905142506964891 -0.02442554078938934 0.8843666068965739 -0.4241937622481561 0.8839906596681608 -0.42610776598133177 -0.006122006921168932 -0.014931533508902695
! Port Impedance 100.00000000000000 0.00000000000000 100.00000000000000 0.00000000000000
28666506.0 0.018900107842705904 -0.024423966688697785 0.8839027919180723 -0.4243310550383245 0.8836622916206303 -0.4263126332697984 -0.00600874849262914 -0.014977295461266762
! Port Impedance 100.00000000000000 0.00000000000000 100.00000000000000 0.00000000000000
28699452.0 0.018692013419952164 -0.024409404811070463 0.8838646722723938 -0.42460789217478057 0.883466703114947 -0.4268728123929265 -0.006408857048004202 -0.014901547858399714
! Port Impedance 100.00000000000000 0.00000000000000 100.00000000000000 0.00000000000000
28732398.0 0.0187122250889053 -0.024656092686129512 0.8837496639642167 -0.42518855170263825 0.8831994465498594 -0.42702871494156436 -0.006418700145212675 -0.01501326775565194
! Port Impedance 100.00000000000000 0.00000000000000 100.00000000000000 0.00000000000000
28765344.0 0.018908995091148878 -0.02485337823182479 0.8832971972227746 -0.4253408637826703 0.8828818079330027 -0.4272927723254832 -0.006318046443895303 -0.015210691514801006
! Port Impedance 100.00000000000000 0.00000000000000 100.00000000000000 0.00000000000000
28798290.0 0.01879185385274415 -0.024469740028485808 0.8833967938072858 -0.4263713909874639 0.883007275595887 -0.42845640504950955 -0.006616099481558196 -0.014796503961985438
! Port Impedance 100.00000000000000 0.00000000000000 100.00000000000000 0.00000000000000
28831236.0 0.01871024159298959 -0.02479809570074179 0.8833754304557179 -0.42728174833737503 0.8830097144269262 -0.429112209108785 -0.006449361274725479 -0.015140364090037856
! Port Impedance 100.00000000000000 0.00000000000000 100.00000000000000 0.00000000000000
28864182.0 0.0189157988585964 -0.02518714039440341 0.8829162411786975 -0.427176308883509 0.882445277372922 -0.4291368043838913 -0.006507916473570435 -0.015403571007331862
! Port Impedance 100.00000000000000 0.00000000000000 100.00000000000000 0.00000000000000
28897128.0 0.019006721546143607 -0.025097297513960053 0.8823570668430131 -0.4269765353374044 0.8819124942489226 -0.42891532219523654 -0.006349992612522837 -0.015373508794850721
! Port Impedance 100.00000000000000 0.00000000000000 100.00000000000000 0.00000000000000
28930074.0 0.018947766331615323 -0.024863220548341294 0.881931438104042 -0.42802012312469523 0.881597994413702 -0.4298866519302061 -0.006354157608385869 -0.015186380340314526
! Port Impedance 100.00000000000000 0.00000000000000 100.00000000000000 0.00000000000000
28963020.0 0.018686404297243775 -0.02491032259794399 0.8825507564344892 -0.42919083336464536 0.8820332865268193 -0.4311814045513284 -0.006749836014137783 -0.015060917435462756
! Port Impedance 100.00000000000000 0.00000000000000 100.00000000000000 0.00000000000000
28995966.0 0.018584746741995034 -0.024965662679501482 0.8818761237958491 -0.42916969024595236 0.8814626675799117 -0.4312494391815308 -0.006886310442664828 -0.015237549264903977
! Port Impedance 100.00000000000000 0.00000000000000 100.00000000000000 0.00000000000000
29028912.0 0.01891841292804941 -0.02522148699857392 0.8816411381190513 -0.429879299819506 0.8813138637623498 -0.4318640665497533 -0.006615261731127281 -0.015224798897024494
! Port Impedance 100.00000000000000 0.00000000000000 100.00000000000000 0.00000000000000
29061858.0 0.019168654152898396 -0.02541778837372423 0.8808357652079758 -0.4295906992197942 0.8804872427831532 -0.43173112227330096 -0.006432370596234971 -0.01567811812413826
! Port Impedance 100.00000000000000 0.00000000000000 100.00000000000000 0.00000000000000
29094804.0 0.018837425381925454 -0.025003039476745342 0.8809083149480808 -0.4304911135079933 0.8805387267665659 -0.43269068957672135 -0.006762310319510856 -0.015240057052466838
! Port Impedance 100.00000000000000 0.00000000000000 100.00000000000000 0.00000000000000
29127750.0 0.01898942480614671 -0.025647635229505535 0.8806362170815024 -0.4303414546881572 0.8802548425917511 -0.4323496948831933 -0.006647350121637752 -0.01570898291004101
! Port Impedance 100.00000000000000 0.00000000000000 100.00000000000000 0.00000000000000
29160696.0 0.018748726842312963 -0.025426912150158645 0.880267906080375 -0.4311593653037818 0.8799319295152241 -0.43342488373675275 -0.006937784188317364 -0.015612224901681307
! Port Impedance 100.00000000000000 0.00000000000000 100.00000000000000 0.00000000000000
29193642.0 0.018830736047779018 -0.025810294472488837 0.8802208301586932 -0.43128353652208656 0.879765652475571 -0.43331119853898936 -0.007007877107919697 -0.01565908374785875
! Port Impedance 100.00000000000000 0.00000000000000 100.00000000000000 0.00000000000000
29226588.0 0.019107380559384796 -0.0257027647487652 0.8795878593132439 -0.43219969177651485 0.8791810770394085 -0.43418548881038427 -0.006946004692347574 -0.015540581027158634
! Port Impedance 100.00000000000000 0.00000000000000 100.00000000000000 0.00000000000000
29259534.0 0.018834678138438588 -0.025561737703579453 0.8798062456427366 -0.4323692989018845 0.8793730420235317 -0.4345844518775968 -0.007144543735272568 -0.01564415409123135
! Port Impedance 100.00000000000000 0.00000000000000 100.00000000000000 0.00000000000000
29292480.0 0.01885734567700753 -0.025862685610735417 0.8799917753680652 -0.43372337728503463 0.8795431343916122 -0.4357174345978001 -0.006961987151442112 -0.01573951436191015
! Port Impedance 100.00000000000000 0.00000000000000 100.00000000000000 0.00000000000000
29325426.0 0.018872118572225566 -0.026104276858274045 0.8789593422461398 -0.4327979210366274 0.8786390053179363 -0.43488049456544664 -0.0070727303315006596 -0.015945593169608793
! Port Impedance 100.00000000000000 0.00000000000000 100.00000000000000 0.00000000000000
29358372.0 0.018673191089208147 -0.026098589853685412 0.8792291559162979 -0.43360990780694064 0.8787841363746495 -0.4354073594804789 -0.0072888851746991945 -0.015826751755253
! Port Impedance 100.00000000000000 0.00000000000000 100.00000000000000 0.00000000000000
29391318.0 0.018966982319054304 -0.025876450034407437 0.8783471541985198 -0.4341606877642321 0.8777383603307944 -0.43609169691259625 -0.007103980517880526 -0.015810347195482286
! Port Impedance 100.00000000000000 0.00000000000000 100.00000000000000 0.00000000000000
29424264.0 0.01890786566591296 -0.02592454806080506 0.8784091421072004 -0.4350931118365022 0.8781488516789787 -0.43740395476575944 -0.007250891328430542 -0.015903715002696647
! Port Impedance 100.00000000000000 0.00000000000000 100.00000000000000 0.00000000000000
29457210.0 0.01912122684204179 -0.026098969737870993 0.8782414542917223 -0.4352644819367343 0.8778050111274471 -0.4372726366230401 -0.007169314503190027 -0.015926416983584504
! Port Impedance 100.00000000000000 0.00000000000000 100.00000000000000 0.00000000000000
29490156.0 0.018934127092421205 -0.026237487937546475 0.8779039308047423 -0.4358882460048836 0.8777121075504306 -0.4379594289697104 -0.0070308685368134505 -0.016049048915783085
! Port Impedance 100.00000000000000 0.00000000000000 100.00000000000000 0.00000000000000
29523102.0 0.01882943527806677 -0.026186491593116583 0.878380809448245 -0.4366910702420923 0.8779044994438656 -0.43872321294215544 -0.007424238066647271 -0.015762153398621123
! Port Impedance 100.00000000000000 0.00000000000000 100.00000000000000 0.00000000000000
29556048.0 0.01857965489580604 -0.026355657359076523 0.8774030054264008 -0.4367344374324713 0.876882335474319 -0.4384651464465197 -0.007684362745323026 -0.016082789531955743
! Port Impedance 100.00000000000000 0.00000000000000 100.00000000000000 0.00000000000000
29588994.0 0.018755243736809674 -0.026538964552155854 0.8771535476214183 -0.43706393402695604 0.8768576000345857 -0.4392604177730941 -0.007609866455539183 -0.0161852469452093
! Port Impedance 100.00000000000000 0.00000000000000 100.00000000000000 0.00000000000000
29621940.0 0.018866225342877158 -0.026333800797179854 0.8768734671979529 -0.4371451463000746 0.8762739568597171 -0.4389920197287547 -0.007480747622431699 -0.016102834715472886
! Port Impedance 100.00000000000000 0.00000000000000 100.00000000000000 0.00000000000000
29654886.0 0.019230748264614322 -0.02672277282935799 0.8766563248029373 -0.437791824021575 0.8760556022353547 -0.4398668862089345 -0.00747542833775347 -0.016449903177974096
! Port Impedance 100.00000000000000 0.00000000000000 100.00000000000000 0.00000000000000
29687832.0 0.01884034770825127 -0.026957957857108084 0.8770713780494163 -0.438626376580667 0.8765948300953423 -0.44070183672219265 -0.007598284271619377 -0.016392718099319886
! Port Impedance 100.00000000000000 0.00000000000000 100.00000000000000 0.00000000000000
29720778.0 0.018943201101137036 -0.026843715610562 0.8763946628206165 -0.43902464829005416 0.8759575984775639 -0.44100210806986617 -0.007570826101163247 -0.01623933983700407
! Port Impedance 100.00000000000000 0.00000000000000 100.00000000000000 0.00000000000000
29753724.0 0.01865122973219213 -0.026952553261155192 0.8759950392668872 -0.43896131483136014 0.8754401462494561 -0.4409274014728869 -0.0078688004567469 -0.016392644757077537
! Port Impedance 100.00000000000000 0.00000000000000 100.00000000000000 0.00000000000000
29786670.0 0.018953843730385472 -0.026952906746972517 0.8757935365971569 -0.4395791520772932 0.8753734211445708 -0.4416085240660615 -0.007737015945055908 -0.016514817600478446
! Port Impedance 100.00000000000000 0.00000000000000 100.00000000000000 0.00000000000000
29819616.0 0.018859173107621835 -0.027072541707750204 0.8758811984502308 -0.44047671391134413 0.8753640861836078 -0.4425074251205453 -0.007818043540287228 -0.016564653312076266
! Port Impedance 100.00000000000000 0.00000000000000 100.00000000000000 0.00000000000000
29852562.0 0.01872193111448006 -0.027079408404166574 0.8752841877043038 -0.44071992625354317 0.8749075224113145 -0.4428495259497161 -0.007997821642314024 -0.016374372991502628
! Port Impedance 100.00000000000000 0.00000000000000 100.00000000000000 0.00000000000000
29885508.0 0.018936124178345393 -0.027114556200402873 0.8746997972712944 -0.44089504178508604 0.874194916366544 -0.44291799259253906 -0.00787997522467146 -0.0165661483908357
! Port Impedance 100.00000000000000 0.00000000000000 100.00000000000000 0.00000000000000
29918454.0 0.01898467249314917 -0.027210839568349743 0.8747273307461192 -0.44168340560009095 0.8744822367579048 -0.443929238001732 -0.007907690159984548 -0.016526468982327208
! Port Impedance 100.00000000000000 0.00000000000000 100.00000000000000 0.00000000000000
29951400.0 0.01920294793490826 -0.027362112174381725 0.8740533438358924 -0.44172521819261884 0.8736795088758227 -0.4438808172744002 -0.00787749144928579 -0.01663997331817793
! Port Impedance 100.00000000000000 0.00000000000000 100.00000000000000 0.00000000000000
29984346.0 0.01895338418662937 -0.027516241286230335 0.8747905600608359 -0.44266855305741337 0.8742489927932592 -0.4445971478410619 -0.00804965678295605 -0.016688565072083827
! Port Impedance 100.00000000000000 0.00000000000000 100.00000000000000 0.00000000000000
30017292.0 0.018669189545513887 -0.027380482482198362 0.8739911477337576 -0.4426307300580561 0.8735063715995686 -0.4446977558188392 -0.00822019246184924 -0.016664539983296478
! Port Impedance 100.00000000000000 0.00000000000000 100.00000000000000 0.00000000000000
30050238.0 0.018722272862140843 -0.027271421769658577 0.8735265526926361 -0.4428613018565698 0.8730053320717158 -0.44490666320690947 -0.008385624179973766 -0.016680991995690328
! Port Impedance 100.00000000000000 0.00000000000000 100.00000000000000 0.00000000000000
30083184.0 0.018789518760915697 -0.027691401377338533 0.8735575131806352 -0.44376359841848734 0.8731367892481421 -0.4461352213833423 -0.008342422240257052 -0.016935444812982578
! Port Impedance 100.00000000000000 0.00000000000000 100.00000000000000 0.00000000000000
30116130.0 0.019200036347470528 -0.0279503863620041 0.8731369275757889 -0.4442958798805935 0.8725282645250192 -0.44619546763856804 -0.008072127583991923 -0.016968652853738372
! Port Impedance 100.00000000000000 0.00000000000000 100.00000000000000 0.00000000000000
30149076.0 0.01920355874079341 -0.027835587085399592 0.87226081721108 -0.444023579545713 0.871795704776037 -0.4461452018090374 -0.008126162628948469 -0.016930073101930773
! Port Impedance 100.00000000000000 0.00000000000000 100.00000000000000 0.00000000000000
30182022.0 0.019023807245401453 -0.028130707527091008 0.8727990551249059 -0.4450754219632265 0.8724080557228601 -0.44706454750489816 -0.00834697513791774 -0.017150674817194636
! Port Impedance 100.00000000000000 0.00000000000000 100.00000000000000 0.00000000000000
30214968.0 0.018890567358418126 -0.027882024235713954 0.8724856421183921 -0.4460069893626416 0.8720600764054266 -0.44789108890560725 -0.008330155638517106 -0.016811028552423946
! Port Impedance 100.00000000000000 0.00000000000000 100.00000000000000 0.00000000000000
30247914.0 0.01879474540572379 -0.027817489480039835 0.8717170183569285 -0.44545058186715436 0.8713601498710881 -0.4474846423712582 -0.008510215859251352 -0.016884460610128924
! Port Impedance 100.00000000000000 0.00000000000000 100.00000000000000 0.00000000000000
30280860.0 0.01912507830148416 -0.02828928078925328 0.8720944976436439 -0.4464357360151243 0.8714774310520861 -0.4485865094054712 -0.008558424061146902 -0.01722994249020017
! Port Impedance 100.00000000000000 0.00000000000000 100.00000000000000 0.00000000000000
30313806.0 0.018941514031631634 -0.0280420870898462 0.8717524101591884 -0.446720460788266 0.8711831896056783 -0.4486244438019622 -0.008530148356155176 -0.016986356558387677
! Port Impedance 100.00000000000000 0.00000000000000 100.00000000000000 0.00000000000000
30346752.0 0.018835006290719075 -0.02803183222004997 0.8712055547037859 -0.4470513741965315 0.8710360667762144 -0.4491716448239612 -0.008414973167341605 -0.017007743195905728
! Port Impedance 100.00000000000000 0.00000000000000 100.00000000000000 0.00000000000000
30379698.0 0.01920792672469382 -0.028699683767030276 0.871014623073557 -0.4474550986845543 0.8705436691818597 -0.4496593161309659 -0.008611714102304713 -0.01755173541573772
! Port Impedance 100.00000000000000 0.00000000000000 100.00000000000000 0.00000000000000
30412644.0 0.018716220203954137 -0.02842164836101462 0.8707029097901076 -0.44784615320937904 0.8703307783702212 -0.45000131315059416 -0.008770950901773544 -0.01745672172172931
! Port Impedance 100.00000000000000 0.00000000000000 100.00000000000000 0.00000000000000
30445590.0 0.018963413679319502 -0.02855958046867039 0.8708131620441638 -0.44793592335450616 0.8702559129599797 -0.44994152497794815 -0.008614384454785934 -0.017409178293578964
! Port Impedance 100.00000000000000 0.00000000000000 100.00000000000000 0.00000000000000
30478536.0 0.018848456791687035 -0.02837728226044256 0.8701024620546877 -0.4488844752845896 0.8695358759484497 -0.450777003419823 -0.008908104447512916 -0.017254731371859497
! Port Impedance 100.00000000000000 0.00000000000000 100.00000000000000 0.00000000000000
30511482.0 0.019435877051287964 -0.028879752754868725 0.8695307499756151 -0.4489460201917823 0.8691644736654666 -0.45095346137973136 -0.008484029964180989 -0.017739449854193387
! Port Impedance 100.00000000000000 0.00000000000000 100.00000000000000 0.00000000000000
30544428.0 0.01883396226478079 -0.02858957220731266 0.8696997881375607 -0.4498370097861118 0.8693919812458996 -0.451751116108837 -0.008784562645949179 -0.017208795387202547
! Port Impedance 100.00000000000000 0.00000000000000 100.00000000000000 0.00000000000000
30577374.0 0.018891260166809754 -0.02885423434585415 0.869994129265584 -0.4507861761711214 0.8694222946447899 -0.45265997524491763 -0.008821658720407077 -0.01754164286491637
! Port Impedance 100.00000000000000 0.00000000000000 100.00000000000000 0.00000000000000
30610320.0 0.019033393693958983 -0.029234390260794205 0.8690744004825094 -0.45032486966997576 0.8687005765827829 -0.45235346607440413 -0.008958760489970824 -0.017818024902636315
! Port Impedance 100.00000000000000 0.00000000000000 100.00000000000000 0.00000000000000
30643266.0 0.018808515078309718 -0.028844152820300457 0.868959831717403 -0.4510243178899819 0.868541224596489 -0.4532050547067594 -0.009058316659752375 -0.01755312146643126
! Port Impedance 100.00000000000000 0.00000000000000 100.00000000000000 0.00000000000000
30676212.0 0.018585888710385856 -0.028934951059069527 0.8686192079768627 -0.4513814108767711 0.868134342801696 -0.45341760533740727 -0.009345584814671487 -0.01759412395734304
! Port Impedance 100.00000000000000 0.00000000000000 100.00000000000000 0.00000000000000
30709158.0 0.019027338254604703 -0.029401789914534772 0.8685715260568357 -0.45156579053902546 0.8683066045744514 -0.4536250260690746 -0.008853791816606837 -0.017973729022641813
! Port Impedance 100.00000000000000 0.00000000000000 100.00000000000000 0.00000000000000
30742104.0 0.01882584587238953 -0.02900047679732414 0.8683332290010335 -0.45238118160477125 0.8678013074545463 -0.45446130116705785 -0.009277899432112713 -0.017551707417865228
! Port Impedance 100.00000000000000 0.00000000000000 100.00000000000000 0.00000000000000
30775050.0 0.019421976714860623 -0.029390366578860558 0.8673740280505858 -0.4524845659662891 0.8670273217154748 -0.45469388408637756 -0.008788510797261395 -0.01801661573920227
! Port Impedance 100.00000000000000 0.00000000000000 100.00000000000000 0.00000000000000
30807996.0 0.018959599677831923 -0.029252345248860577 0.8677407877545296 -0.4532870969864868 0.8672114081194957 -0.4551593549469337 -0.009146732525479151 -0.017781592531109836
! Port Impedance 100.00000000000000 0.00000000000000 100.00000000000000 0.00000000000000
30840942.0 0.01886298065705186 -0.02913142572964359 0.8673400913685775 -0.45375310649520206 0.8669587795364228 -0.45588962613796596 -0.009152027934195561 -0.017657800633000223
! Port Impedance 100.00000000000000 0.00000000000000 100.00000000000000 0.00000000000000
30873888.0 0.018499324728850214 -0.029255685752644256 0.8678186157971401 -0.4545033969900941 0.8674638231384452 -0.45678558216626564 -0.009537168239117932 -0.017786172879010936
! Port Impedance 100.00000000000000 0.00000000000000 100.00000000000000 0.00000000000000
30906834.0 0.01893399644897409 -0.02964780926142372 0.8672201101714401 -0.45461464589240325 0.8666559085111505 -0.4565970330358041 -0.009364399282772884 -0.0180206513096208
! Port Impedance 100.00000000000000 0.00000000000000 100.00000000000000 0.00000000000000
30939780.0 0.01856825978011789 -0.029598318780694362 0.8667817725016872 -0.4549091719174485 0.8662491169737926 -0.45713586534062745 -0.009859521107856345 -0.017974770803640003
! Port Impedance 100.00000000000000 0.00000000000000 100.00000000000000 0.00000000000000
30972726.0 0.01909985644874973 -0.02970626144074698 0.8662713708417267 -0.45513691959997693 0.8658672793485511 -0.45714239460063805 -0.009370284014189045 -0.01806311565540933
! Port Impedance 100.00000000000000 0.00000000000000 100.00000000000000 0.00000000000000
31005672.0 0.01884174091090851 -0.029640099363057767 0.8661873536076337 -0.45583571480244345 0.8659036189166875 -0.45799902098082446 -0.009479512750762281 -0.01794857488541389
! Port Impedance 100.00000000000000 0.00000000000000 100.00000000000000 0.00000000000000
31038618.0 0.019077853603135686 -0.03010543775385513 0.8655356966844963 -0.4562433338703095 0.865149811832006 -0.4580764160703904 -0.009548446137042255 -0.018283161945356965
! Port Impedance 100.00000000000000 0.00000000000000 100.00000000000000 0.00000000000000
31071564.0 0.018990407104275048 -0.030160821053032562 0.8655266859116026 -0.456461446181664 0.8652014802633172 -0.4583179196139628 -0.009386467807122434 -0.018252789691751967
! Port Impedance 100.00000000000000 0.00000000000000 100.00000000000000 0.00000000000000
31104510.0 0.018870955366571684 -0.029881170642071596 0.8652624744704976 -0.45722540304229575 0.8646551536335764 -0.45927481694823696 -0.009997085381878795 -0.018089135422511712
! Port Impedance 100.00000000000000 0.00000000000000 100.00000000000000 0.00000000000000
31137456.0 0.019084512302264017 -0.030011904238547195 0.8647652353052202 -0.45731271941812035 0.8644238471374324 -0.4593249172582362 -0.009543261485369242 -0.01809517483550145
! Port Impedance 100.00000000000000 0.00000000000000 100.00000000000000 0.00000000000000
31170402.0 0.018888600270709516 -0.030388789196842375 0.8652279142867326 -0.4582750723045081 0.8648945578256366 -0.46055361792361904 -0.010022453743376653 -0.01847783549834707
! Port Impedance 100.00000000000000 0.00000000000000 100.00000000000000 0.00000000000000
31203348.0 0.018941663839815243 -0.030134209597658217 0.864543106431696 -0.4586231239518845 0.8640165133579872 -0.4604778989728674 -0.009717049892900564 -0.018402161022183755
! Port Impedance 100.00000000000000 0.00000000000000 100.00000000000000 0.00000000000000
31236294.0 0.01870940632815979 -0.03022306667428403 0.864450137495756 -0.4589886329822554 0.8639126996378969 -0.46123540409505726 -0.01018307356592707 -0.018397416601441827
! Port Impedance 100.00000000000000 0.00000000000000 100.00000000000000 0.00000000000000
31269240.0 0.01906028859301781 -0.030172838772846863 0.8640043216118839 -0.4591712707748751 0.8635727462235808 -0.46124132346055735 -0.009741276615897049 -0.018202313184926364
! Port Impedance 100.00000000000000 0.00000000000000 100.00000000000000 0.00000000000000
31302186.0 0.018808464434912353 -0.030554854649887622 0.864140791971931 -0.46002081915628246 0.8637711522505356 -0.46225279961141097 -0.010104017272082488 -0.018590602843128495
! Port Impedance 100.00000000000000 0.00000000000000 100.00000000000000 0.00000000000000
31335132.0 0.019031719271012798 -0.030773615291645295 0.8638388170924208 -0.4604568312985405 0.8633122174955717 -0.4623821974151472 -0.009841364152159804 -0.018732300097361362
! Port Impedance 100.00000000000000 0.00000000000000 100.00000000000000 0.00000000000000
31368078.0 0.01876658810752263 -0.030656905704801535 0.8634403526489975 -0.46081991232952996 0.8630288759442774 -0.46286036069143643 -0.010200238878623064 -0.018499573911638728
! Port Impedance 100.00000000000000 0.00000000000000 100.00000000000000 0.00000000000000
31401024.0 0.019236980933955733 -0.030720054970905068 0.8627154088882576 -0.46131151351772315 0.8625026922333288 -0.4632387813985651 -0.009907936314458049 -0.018553682108654324
! Port Impedance 100.00000000000000 0.00000000000000 100.00000000000000 0.00000000000000
31433970.0 0.01903900909784706 -0.03089151862161981 0.8627340057523183 -0.4617033356481912 0.8624632481847472 -0.46394680980582736 -0.010025483544309488 -0.01873195933353551
! Port Impedance 100.00000000000000 0.00000000000000 100.00000000000000 0.00000000000000
31466916.0 0.01887725764257464 -0.030723966775388765 0.8624415363126123 -0.4615171268369787 0.861999946806437 -0.46375998316347034 -0.010257598572067539 -0.01858063840380611
! Port Impedance 100.00000000000000 0.00000000000000 100.00000000000000 0.00000000000000
31499862.0 0.01883435370607911 -0.030886998563038642 0.861795321306757 -0.4622854137426174 0.8614519332449633 -0.464218983560445 -0.010346288732332426 -0.018711804243280075
! Port Impedance 100.00000000000000 0.00000000000000 100.00000000000000 0.00000000000000
31532808.0 0.019181816347702774 -0.030958748726348892 0.8617438543418877 -0.46277996075495037 0.8612796624818486 -0.4648397535337925 -0.010183598487306766 -0.018804841913819037
! Port Impedance 100.00000000000000 0.00000000000000 100.00000000000000 0.00000000000000
31565754.0 0.018998017849692656 -0.031309915935620575 0.861990133194286 -0.46340736535301186 0.8616827696127556 -0.4654331664115049 -0.010365254362181248 -0.018977101042377736
! Port Impedance 100.00000000000000 0.00000000000000 100.00000000000000 0.00000000000000
31598700.0 0.018676031217212646 -0.03110466448350587 0.8614509588745402 -0.4634174763531329 0.8610327844009215 -0.46550316301539585 -0.010625411819931874 -0.018855884022151326
! Port Impedance 100.00000000000000 0.00000000000000 100.00000000000000 0.00000000000000
31631646.0 0.0189047770957827 -0.031117587333982233 0.8609648989908202 -0.46377387409415616 0.8605903749194066 -0.46580711811635445 -0.010672798394367328 -0.018788311969379023
! Port Impedance 100.00000000000000 0.00000000000000 100.00000000000000 0.00000000000000
31664592.0 0.01891030974170521 -0.03126988923106482 0.8604587392568499 -0.4641391645400414 0.8602294967467015 -0.46608202608324345 -0.010403541498974267 -0.0188593906356493
! Port Impedance 100.00000000000000 0.00000000000000 100.00000000000000 0.00000000000000
31697538.0 0.01928078947565548 -0.03128456097299474 0.860237304964122 -0.4647695534338655 0.8601035764300304 -0.46662907889378535 -0.010288504713377139 -0.018812312897014516
! Port Impedance 100.00000000000000 0.00000000000000 100.00000000000000 0.00000000000000
31730484.0 0.01885593290976542 -0.03154619395628316 0.8606077804509211 -0.46541683311277227 0.8601883267583885 -0.46760839497198203 -0.010687145737848985 -0.019172387208737846
! Port Impedance 100.00000000000000 0.00000000000000 100.00000000000000 0.00000000000000
31763430.0 0.018875511022354935 -0.03143505924395611 0.8597423394646853 -0.4654739048160334 0.859383473846995 -0.4675353489248554 -0.010711722105159305 -0.019097683779908628
! Port Impedance 100.00000000000000 0.00000000000000 100.00000000000000 0.00000000000000
31796376.0 0.018799705796698374 -0.03161706537216394 0.8596462541595212 -0.46587232816382107 0.8592591289390583 -0.4679775397270334 -0.010867829353391562 -0.019001836947573958
! Port Impedance 100.00000000000000 0.00000000000000 100.00000000000000 0.00000000000000
31829322.0 0.01914053221194459 -0.031601531696097106 0.8593223160529185 -0.4665940011251865 0.8589372833334088 -0.4685053036039514 -0.01052631543502558 -0.01921502247666762
! Port Impedance 100.00000000000000 0.00000000000000 100.00000000000000 0.00000000000000
31862268.0 0.01870967111871702 -0.03172676361568975 0.8591770200795403 -0.46748410352888775 0.8591271269072612 -0.4693835091623557 -0.010735446877497057 -0.01910847812912106
! Port Impedance 100.00000000000000 0.00000000000000 100.00000000000000 0.00000000000000
31895214.0 0.01883471302909015 -0.031876204468514656 0.8586251193471728 -0.46709766167143596 0.8581897491322179 -0.46907797516559485 -0.011107739213111228 -0.019225449977897546
! Port Impedance 100.00000000000000 0.00000000000000 100.00000000000000 0.00000000000000
31928160.0 0.01878465913967553 -0.03196317622224405 0.8585514375826613 -0.4677533530297563 0.8581208747265567 -0.4698628645343748 -0.011054895296013417 -0.019300016989583682
! Port Impedance 100.00000000000000 0.00000000000000 100.00000000000000 0.00000000000000
31961106.0 0.018678193800077014 -0.03214495083928032 0.8588252881905586 -0.46880758242418935 0.858528952912548 -0.47055327891257065 -0.011136133900775391 -0.01934592124173927
! Port Impedance 100.00000000000000 0.00000000000000 100.00000000000000 0.00000000000000
31994052.0 0.01877163721203412 -0.03200185013463431 0.8582077076743854 -0.4690726386706856 0.8576669510594611 -0.4710467828666061 -0.011066455121440666 -0.019288647814616602
! Port Impedance 100.00000000000000 0.00000000000000 100.00000000000000 0.00000000000000
32026998.0 0.018877715896113784 -0.032205207626947424 0.8579378291728772 -0.46926464677191826 0.8575397319379696 -0.4712085494655007 -0.011153151827014457 -0.01934896004937861
! Port Impedance 100.00000000000000 0.00000000000000 100.00000000000000 0.00000000000000
32059944.0 0.018763099406280154 -0.03206958416789456 0.857562615210129 -0.4697599354493526 0.8572803181555304 -0.47195599062712756 -0.011072065187953617 -0.01940749626636623
! Port Impedance 100.00000000000000 0.00000000000000 100.00000000000000 0.00000000000000
32092890.0 0.01913780870139703 -0.0323288599745082 0.8571967716688397 -0.4698569157974275 0.8568402656395239 -0.4718421858343612 -0.01103390597639936 -0.01941670384287482
! Port Impedance 100.00000000000000 0.00000000000000 100.00000000000000 0.00000000000000
32125836.0 0.01876551999912876 -0.03246545290470061 0.8570443682804593 -0.4703679493850748 0.8567221359019663 -0.4725394849636272 -0.011356588830785636 -0.019690575698680587
! Port Impedance 100.00000000000000 0.00000000000000 100.00000000000000 0.00000000000000
32158782.0 0.018883949974312697 -0.03248566149548711 0.8568279627956273 -0.47071529274813817 0.8565963201840983 -0.47254574467312793 -0.0112434093370537 -0.019572817970471473
! Port Impedance 100.00000000000000 0.00000000000000 100.00000000000000 0.00000000000000
32191728.0 0.01911084096181942 -0.03263857186731406 0.8562445704567563 -0.47083265246822714 0.8558067056671881 -0.4727422557870653 -0.011284384471099251 -0.019489591498563677
! Port Impedance 100.00000000000000 0.00000000000000 100.00000000000000 0.00000000000000
32224674.0 0.018800626859584613 -0.03249942848723837 0.8560903205155747 -0.4718960269949806 0.8558560465044286 -0.47384292017061974 -0.011489251816401397 -0.019518702835077326
! Port Impedance 100.00000000000000 0.00000000000000 100.00000000000000 0.00000000000000
32257620.0 0.018775439886668993 -0.0325203988480718 0.8561283907024885 -0.47269125222765074 0.8558329366390725 -0.4747592645424079 -0.011174550219697488 -0.019628627896963097
! Port Impedance 100.00000000000000 0.00000000000000 100.00000000000000 0.00000000000000
32290566.0 0.018912243846422983 -0.032931250109307225 0.8556104851918356 -0.47199433799392787 0.8552039676161693 -0.47419343700212735 -0.011364208583560992 -0.019973716660423232
! Port Impedance 100.00000000000000 0.00000000000000 100.00000000000000 0.00000000000000
32323512.0 0.019027951118100295 -0.033016042710707405 0.8554139283701547 -0.4733889163454822 0.8549516695580606 -0.47511485294705175 -0.011536340606202872 -0.0197177525758762
! Port Impedance 100.00000000000000 0.00000000000000 100.00000000000000 0.00000000000000
32356458.0 0.019266800160103015 -0.03287547930636049 0.8548618633262043 -0.4739482533210301 0.854475584477704 -0.47582179387362405 -0.011271250871913718 -0.01955408480404798
! Port Impedance 100.00000000000000 0.00000000000000 100.00000000000000 0.00000000000000
32389404.0 0.018835656735873202 -0.033116196471195083 0.8553338768947424 -0.47427477162907694 0.8548706795876835 -0.47625707248469173 -0.01181618498913356 -0.019809272889201424
! Port Impedance 100.00000000000000 0.00000000000000 100.00000000000000 0.00000000000000
32422350.0 0.018921711490973436 -0.0331933196215006 0.8541158861355751 -0.47386501448086293 0.8539067901369424 -0.4761752433655345 -0.01163167925531039 -0.020032420307063578
! Port Impedance 100.00000000000000 0.00000000000000 100.00000000000000 0.00000000000000
32455296.0 0.018776638994497413 -0.03325910364372056 0.854115694960233 -0.4744282841517734 0.8535558191980468 -0.47657773625986377 -0.011784658946223436 -0.019954159814546554
! Port Impedance 100.00000000000000 0.00000000000000 100.00000000000000 0.00000000000000
32488242.0 0.019019999943572535 -0.033066695026296306 0.853805635857431 -0.4749257847070786 0.8535060730763213 -0.4769607642188719 -0.01164620417337886 -0.019899992153976268
! Port Impedance 100.00000000000000 0.00000000000000 100.00000000000000 0.00000000000000
32521188.0 0.019128616415637484 -0.03327650824492358 0.8534988812267302 -0.47513847155894195 0.8530615950287452 -0.4771026812481835 -0.011826905952345396 -0.019902741292974077
! Port Impedance 100.00000000000000 0.00000000000000 100.00000000000000 0.00000000000000
32554134.0 0.019113998718245484 -0.033423534316869355 0.8535607561547651 -0.4763761604634379 0.8530387541670136 -0.4782604054048162 -0.01186730058814267 -0.019948093547082504
! Port Impedance 100.00000000000000 0.00000000000000 100.00000000000000 0.00000000000000
32587080.0 0.01917589026262248 -0.033364212316948375 0.8528551599079859 -0.476217109475192 0.8525650645224819 -0.47823394130284347 -0.011610604763441862 -0.020035965781067686
! Port Impedance 100.00000000000000 0.00000000000000 100.00000000000000 0.00000000000000
32620026.0 0.018712609037215805 -0.03345231867708727 0.8531283552547588 -0.4773048066797527 0.8530143855174628 -0.4795017403077991 -0.011846388065730212 -0.019961561270346845
! Port Impedance 100.00000000000000 0.00000000000000 100.00000000000000 0.00000000000000
32652972.0 0.018881466151586673 -0.033569459432381765 0.8529529784407215 -0.47771479367129466 0.8524692479538363 -0.47977584939636087 -0.012132120238289162 -0.020189566959273014
! Port Impedance 100.00000000000000 0.00000000000000 100.00000000000000 0.00000000000000
32685918.0 0.018831204503816923 -0.03387735343643197 0.8521818047861988 -0.477394108400941 0.8518174788983589 -0.47927539250461615 -0.012085085544936786 -0.020365213393247053
! Port Impedance 100.00000000000000 0.00000000000000 100.00000000000000 0.00000000000000
32718864.0 0.019012072672259323 -0.0338401099661295 0.852211842120673 -0.4784672042958422 0.8519058159594955 -0.48033165443464043 -0.012203952246264138 -0.020085436124647207
! Port Impedance 100.00000000000000 0.00000000000000 100.00000000000000 0.00000000000000
32751810.0 0.018745617705527323 -0.033854024948423656 0.8517827406062171 -0.4784314809390745 0.8516119921113694 -0.4807474477500122 -0.012072823129231691 -0.020191447001128057
! Port Impedance 100.00000000000000 0.00000000000000 100.00000000000000 0.00000000000000
32784756.0 0.019106936487035264 -0.03384070252400233 0.8511584825411003 -0.47877113143147676 0.8509722329376499 -0.4808596545061209 -0.01195452681758244 -0.020300349406623563
! Port Impedance 100.00000000000000 0.00000000000000 100.00000000000000 0.00000000000000
32817702.0 0.01885813906522238 -0.03404448148357948 0.8516875601722146 -0.4797838399486952 0.8512857588042619 -0.4817594085666077 -0.01232308517390801 -0.020261545690335683
! Port Impedance 100.00000000000000 0.00000000000000 100.00000000000000 0.00000000000000
32850648.0 0.01876260968212401 -0.034104806713134525 0.8509639265427025 -0.479487108845971 0.8506970777689349 -0.4816086603793554 -0.012427759296084528 -0.020455914210311232
! Port Impedance 100.00000000000000 0.00000000000000 100.00000000000000 0.00000000000000
32883594.0 0.01891138755047167 -0.03420940172475091 0.8508673264269783 -0.4805037244647977 0.850550235963321 -0.48242011599227763 -0.012363499653150728 -0.020422557424962934
! Port Impedance 100.00000000000000 0.00000000000000 100.00000000000000 0.00000000000000
32916540.0 0.018959531603200935 -0.03421318678629992 0.850657701146063 -0.48078254571667645 0.8503713656664837 -0.4828365368939287 -0.012252534296439355 -0.02050620647178844
! Port Impedance 100.00000000000000 0.00000000000000 100.00000000000000 0.00000000000000
32949486.0 0.018681683969004215 -0.03418277935264964 0.8501902415581152 -0.4812423420910247 0.8500164100150257 -0.4834669040127654 -0.01256735274135512 -0.02032659014903361
! Port Impedance 100.00000000000000 0.00000000000000 100.00000000000000 0.00000000000000
32982432.0 0.019019289860938704 -0.03426195706990423 0.8496621321936624 -0.48181415564839203 0.849366622076371 -0.4839380982546418 -0.01233749946463919 -0.02052968849299157
! Port Impedance 100.00000000000000 0.00000000000000 100.00000000000000 0.00000000000000
33015378.0 0.01881382065875209 -0.034283716939090436 0.8498635288359305 -0.4822304261423386 0.8496109898952705 -0.4844627611161889 -0.012592856608227648 -0.020338583695504522
! Port Impedance 100.00000000000000 0.00000000000000 100.00000000000000 0.00000000000000
33048324.0 0.01877308839340988 -0.03450641578803608 0.8492927841447451 -0.48206879086886645 0.8488048443507357 -0.4842130979547738 -0.012807583589448446 -0.02068047877947174
! Port Impedance 100.00000000000000 0.00000000000000 100.00000000000000 0.00000000000000
33081270.0 0.018995298069777122 -0.03447713661070373 0.8492412419210287 -0.48282762132361157 0.849013971095195 -0.48505447279508374 -0.012540522466997467 -0.020742132103351685
! Port Impedance 100.00000000000000 0.00000000000000 100.00000000000000 0.00000000000000
33114216.0 0.01897733971866894 -0.03461561831842569 0.8483997306350186 -0.4826272274489165 0.8481261324818081 -0.48475929962749714 -0.01264097388013169 -0.020568511743552967
! Port Impedance 100.00000000000000 0.00000000000000 100.00000000000000 0.00000000000000
33147162.0 0.018817828380569473 -0.03465749255103037 0.8485316210417365 -0.48405770737381193 0.8481350466597797 -0.48613906603139845 -0.012860760414325684 -0.020534285635448096
! Port Impedance 100.00000000000000 0.00000000000000 100.00000000000000 0.00000000000000
33180108.0 0.018876991413070615 -0.03474952344096477 0.8483296531202864 -0.48417632496305424 0.8481151738019941 -0.48653955008729954 -0.012802745667001458 -0.020711497174631194
! Port Impedance 100.00000000000000 0.00000000000000 100.00000000000000 0.00000000000000
33213054.0 0.018745323912145256 -0.03482949439321564 0.8478252513176019 -0.4840749687568249 0.8473669935795971 -0.4863514102266546 -0.01298724236347848 -0.020761921509013778
! Port Impedance 100.00000000000000 0.00000000000000 100.00000000000000 0.00000000000000
33246000.0 0.018709043780990947 -0.034983043574830106 0.8475491273406646 -0.48448670367790275 0.8470886521376182 -0.4865676732680539 -0.013034393700760094 -0.020945325674187484
! Port Impedance 100.00000000000000 0.00000000000000 100.00000000000000 0.00000000000000
33278946.0 0.019085305879585873 -0.035059018090798685 0.8475501808062497 -0.4854759773997515 0.8472058052418215 -0.4873245680577742 -0.01289235856621751 -0.02085565628169872
! Port Impedance 100.00000000000000 0.00000000000000 100.00000000000000 0.00000000000000
33311892.0 0.01892953094356395 -0.03514596521643096 0.8474285411113365 -0.4861942813613859 0.8470814328089178 -0.48805535144099715 -0.013003060140399425 -0.02088693153604436
! Port Impedance 100.00000000000000 0.00000000000000 100.00000000000000 0.00000000000000
33344838.0 0.01888203837512789 -0.035035753536093894 0.8470849348358123 -0.4865829100022018 0.8468135853719385 -0.4886288542292249 -0.013055303806991242 -0.02090160210706818
! Port Impedance 100.00000000000000 0.00000000000000 100.00000000000000 0.00000000000000
33377784.0 0.018966698288483325 -0.0353492419658408 0.8466051355922019 -0.4863820558796483 0.8462485861757961 -0.4883245957560752 -0.012983200623223001 -0.021214993610642552
! Port Impedance 100.00000000000000 0.00000000000000 100.00000000000000 0.00000000000000
33410730.0 0.01873126740214756 -0.03505143768557964 0.8463058140187764 -0.48730528841452425 0.8459690928879348 -0.4894834510572842 -0.013409792383033331 -0.020591631791507997
! Port Impedance 100.00000000000000 0.00000000000000 100.00000000000000 0.00000000000000
33443676.0 0.018614547616435162 -0.03508622939990838 0.8462368013860329 -0.4874580811773346 0.8462591069432608 -0.49007835787135645 -0.013278757917702638 -0.020790704117770814
! Port Impedance 100.00000000000000 0.00000000000000 100.00000000000000 0.00000000000000
33476622.0 0.018585406041087604 -0.03555567438370526 0.845767843729446 -0.4881587266594165 0.845657197579684 -0.4902441194385996 -0.013432668725616603 -0.02105164922805923
! Port Impedance 100.00000000000000 0.00000000000000 100.00000000000000 0.00000000000000
33509568.0 0.018991033243567407 -0.03537306036327881 0.8452057997546341 -0.48813295659828804 0.844677800872325 -0.4901969434918345 -0.013128630115172485 -0.02103565285636677
! Port Impedance 100.00000000000000 0.00000000000000 100.00000000000000 0.00000000000000
33542514.0 0.01876594689455824 -0.035656514800303324 0.8452195617950471 -0.48903293940318 0.8450758278135624 -0.49075635595298267 -0.013452937212972027 -0.021038007319201052
! Port Impedance 100.00000000000000 0.00000000000000 100.00000000000000 0.00000000000000
33575460.0 0.018902495985022777 -0.03566065674249662 0.8447558012699201 -0.4890658578805811 0.8444873609314839 -0.4908255459749808 -0.013446416642019232 -0.021068324541506867
! Port Impedance 100.00000000000000 0.00000000000000 100.00000000000000 0.00000000000000
33608406.0 0.019048520573972938 -0.03571421180734534 0.8445560664330907 -0.4898421688063892 0.8442545210114681 -0.49169664989336814 -0.013370049517158089 -0.021035621432755988
! Port Impedance 100.00000000000000 0.00000000000000 100.00000000000000 0.00000000000000
33641352.0 0.018950568365222853 -0.03570317827429008 0.8444198889432392 -0.48982142813189844 0.844318072625148 -0.49248528869322233 -0.013356537538418228 -0.02125409074899659
! Port Impedance 100.00000000000000 0.00000000000000 100.00000000000000 0.00000000000000
33674298.0 0.018964259033559583 -0.03588380110964989 0.8437780141944493 -0.4902048921245082 0.8432754332663492 -0.4923421056940666 -0.013481274949118854 -0.021288537908431535
! Port Impedance 100.00000000000000 0.00000000000000 100.00000000000000 0.00000000000000
33707244.0 0.018685348595392393 -0.036095256192498426 0.8438468925659948 -0.4908372587964586 0.8436819034061748 -0.49295821180741983 -0.013774475969855066 -0.02136600488622635
! Port Impedance 100.00000000000000 0.00000000000000 100.00000000000000 0.00000000000000
33740190.0 0.01888767572438771 -0.035939417736724294 0.8436161153515273 -0.4915178815573887 0.8430462356800915 -0.4933727118054517 -0.013794168609219615 -0.02132443037305476
! Port Impedance 100.00000000000000 0.00000000000000 100.00000000000000 0.00000000000000
33773136.0 0.01878349500157922 -0.03614129302829895 0.843184313085378 -0.49229146466734863 0.842757618459231 -0.49420636635584425 -0.013867430784493567 -0.020990205064904566
! Port Impedance 100.00000000000000 0.00000000000000 100.00000000000000 0.00000000000000
33806082.0 0.01872849231417234 -0.035894710178109746 0.84284560189182 -0.49217421888672386 0.842739240617409 -0.49494936769364223 -0.013851553177888998 -0.021220846228785506
! Port Impedance 100.00000000000000 0.00000000000000 100.00000000000000 0.00000000000000
33839028.0 0.01897953711859854 -0.03653338452631953 0.8425002767601215 -0.49222124495867225 0.8418901146067472 -0.49440504603973373 -0.013706490289053352 -0.02161061489323457
! Port Impedance 100.00000000000000 0.00000000000000 100.00000000000000 0.00000000000000
33871974.0 0.01866464234189047 -0.03628116212788006 0.8422914441308856 -0.4928265080248565 0.8422253505167696 -0.49527772588490865 -0.014047196648127563 -0.02147324902968689
! Port Impedance 100.00000000000000 0.00000000000000 100.00000000000000 0.00000000000000
33904920.0 0.019022105316420013 -0.03645677345231417 0.8418750918099706 -0.4935326443023153 0.8413864724810016 -0.49540052648216065 -0.013746103066449106 -0.02163448868098465
! Port Impedance 100.00000000000000 0.00000000000000 100.00000000000000 0.00000000000000
33937866.0 0.018915863289514723 -0.03656224219243133 0.841574594327258 -0.4940787314039483 0.8412695856123714 -0.49613990813923714 -0.014108133059275607 -0.02135471636780878
! Port Impedance 100.00000000000000 0.00000000000000 100.00000000000000 0.00000000000000
33970812.0 0.018777478870944636 -0.03641463294465938 0.84149752646569 -0.4946716324354081 0.8412405047098874 -0.49686724172124597 -0.014178448422377449 -0.02118485425557491
! Port Impedance 100.00000000000000 0.00000000000000 100.00000000000000 0.00000000000000
34003758.0 0.018766052823749574 -0.03672395507450177 0.8411085693700004 -0.4947619561738458 0.840486086067569 -0.49674631016132664 -0.013980784674918811 -0.02163199602351132
! Port Impedance 100.00000000000000 0.00000000000000 100.00000000000000 0.00000000000000
34036704.0 0.01875813797462883 -0.036703302867570356 0.8409867298129594 -0.49481954258183064 0.840736915643119 -0.49724347009722347 -0.01430311776127352 -0.02158834562629465
! Port Impedance 100.00000000000000 0.00000000000000 100.00000000000000 0.00000000000000
34069650.0 0.018784319686678874 -0.036893164577536816 0.8408763676107704 -0.49583047191869495 0.8403955049719538 -0.4977919526530241 -0.014286657822411758 -0.021620825529814952
! Port Impedance 100.00000000000000 0.00000000000000 100.00000000000000 0.00000000000000
34102596.0 0.01888715985708958 -0.03699698673997061 0.840226292804753 -0.4956773740878186 0.8398774755631346 -0.4976324363380241 -0.014197305279124522 -0.021868698977222656
! Port Impedance 100.00000000000000 0.00000000000000 100.00000000000000 0.00000000000000
34135542.0 0.018798661942565936 -0.03690460737769244 0.8402845087122087 -0.49605251487149804 0.8399508739371719 -0.4984187166014299 -0.014399220935267715 -0.02190988314594987
! Port Impedance 100.00000000000000 0.00000000000000 100.00000000000000 0.00000000000000
34168488.0 0.018846608306590323 -0.03692248916883291 0.8396526271017022 -0.4966709164227443 0.8393020785675038 -0.4985833656036116 -0.014326619417420361 -0.02164590432791949
! Port Impedance 100.00000000000000 0.00000000000000 100.00000000000000 0.00000000000000
34201434.0 0.018798877769598293 -0.0368132047871358 0.8394504321497784 -0.49724253738746005 0.8393985512048614 -0.4997143594406734 -0.014439244742325358 -0.021617706518077165
! Port Impedance 100.00000000000000 0.00000000000000 100.00000000000000 0.00000000000000
34234380.0 0.018982252813708633 -0.03725263443881656 0.8389880548799066 -0.49732391664855113 0.8384704420634842 -0.4994691032286022 -0.01425974346278372 -0.022120468570065735
! Port Impedance 100.00000000000000 0.00000000000000 100.00000000000000 0.00000000000000
34267326.0 0.018912975757982897 -0.03753104998012048 0.8391552234574137 -0.4980648268731144 0.8386149916801526 -0.49994381072603045 -0.014618778482423878 -0.021993758850610612
! Port Impedance 100.00000000000000 0.00000000000000 100.00000000000000 0.00000000000000
34300272.0 0.01890076431498558 -0.03747792450228263 0.8385305500014759 -0.4980788669915921 0.8382526237183512 -0.5002036711709779 -0.014319718521318359 -0.022086597958615145
! Port Impedance 100.00000000000000 0.00000000000000 100.00000000000000 0.00000000000000
34333218.0 0.01880743215844058 -0.037407617266589116 0.8385778726728091 -0.498845956309399 0.8381080608456787 -0.5009111270582486 -0.014602722658561607 -0.021943066926490118
! Port Impedance 100.00000000000000 0.00000000000000 100.00000000000000 0.00000000000000
34366164.0 0.01890942328393952 -0.037451119074740094 0.837894974588474 -0.49944910135945714 0.8373807780487714 -0.5016221054649236 -0.014505928218947528 -0.02204635252004157
! Port Impedance 100.00000000000000 0.00000000000000 100.00000000000000 0.00000000000000
34399110.0 0.01878014191296709 -0.03758995639787299 0.8377723055734121 -0.499568137055583 0.8374388901866562 -0.5018607063499881 -0.014640854842591922 -0.022181184016115296
! Port Impedance 100.00000000000000 0.00000000000000 100.00000000000000 0.00000000000000
34432056.0 0.018930321749021567 -0.03792684295149286 0.8376341174718612 -0.5000087491454704 0.8371211663043301 -0.5016541490141657 -0.01473395748940054 -0.022125322099640632
! Port Impedance 100.00000000000000 0.00000000000000 100.00000000000000 0.00000000000000
34465002.0 0.018832327620476402 -0.037669226310251575 0.8374884818637145 -0.5009692793420182 0.8367983621630293 -0.5028049716646381 -0.015109174049409757 -0.02175536860993589
! Port Impedance 100.00000000000000 0.00000000000000 100.00000000000000 0.00000000000000
34497948.0 0.018581492712845343 -0.037440248419649436 0.8368341300443161 -0.5008316068464018 0.8368159813823519 -0.5036108244739044 -0.01510204254524411 -0.021823274065519385
! Port Impedance 100.00000000000000 0.00000000000000 100.00000000000000 0.00000000000000
34530894.0 0.018747834812485015 -0.0378733005640835 0.8371559545363565 -0.5015517126888807 0.8364593318987066 -0.5035004137540616 -0.015048076035437508 -0.02209668794285273
! Port Impedance 100.00000000000000 0.00000000000000 100.00000000000000 0.00000000000000
34563840.0 0.0186234330545203 -0.038019170873211466 0.8367018225296222 -0.5018255523726485 0.836248208172618 -0.5038726416387962 -0.015188949650841999 -0.02226114656955197
! Port Impedance 100.00000000000000 0.00000000000000 100.00000000000000 0.00000000000000
34596786.0 0.018544655741126653 -0.038009330623455004 0.8364751447624591 -0.5025523505882238 0.8359359907527006 -0.5047234462124888 -0.015296368454565196 -0.0222334893471358
! Port Impedance 100.00000000000000 0.00000000000000 100.00000000000000 0.00000000000000
34629732.0 0.018907591538404683 -0.037956956193722094 0.8354410589434689 -0.5026728542300867 0.8351835032385726 -0.5050594525587262 -0.015020376587718542 -0.022175705516658525
! Port Impedance 100.00000000000000 0.00000000000000 100.00000000000000 0.00000000000000
34662678.0 0.018867208263593865 -0.038173304326862945 0.83553771879241 -0.5029517587989878 0.8351661755636952 -0.5047861719377402 -0.015100812749174158 -0.02228302829589647
! Port Impedance 100.00000000000000 0.00000000000000 100.00000000000000 0.00000000000000
34695624.0 0.018862444018876046 -0.03810388059089749 0.8350001314244155 -0.5036613406219104 0.8346685937881695 -0.5054602114612174 -0.015281148626274554 -0.021968028439817863
! Port Impedance 100.00000000000000 0.00000000000000 100.00000000000000 0.00000000000000
34728570.0 0.01851283646206245 -0.038082899437928336 0.8350911073440869 -0.503709631424456 0.834910633862875 -0.5065753994491297 -0.015442043735185484 -0.022273365660437985
! Port Impedance 100.00000000000000 0.00000000000000 100.00000000000000 0.00000000000000
34761516.0 0.018486790237060235 -0.03814946275664573 0.8349422621590148 -0.5043836424501472 0.8346450440924947 -0.5068989844363462 -0.015621678398514749 -0.022155003044212432
! Port Impedance 100.00000000000000 0.00000000000000 100.00000000000000 0.00000000000000
34794462.0 0.018848895715550956 -0.03828979777792338 0.8342594480155593 -0.504368269848575 0.833607665061056 -0.5068462382444635 -0.015176773890067247 -0.022573151348448048
! Port Impedance 100.00000000000000 0.00000000000000 100.00000000000000 0.00000000000000
34827408.0 0.0187595853815955 -0.038615591838159824 0.8343561045221806 -0.5051737760284156 0.8337905232183627 -0.5070807441018657 -0.015544517502147304 -0.022329387792041883
! Port Impedance 100.00000000000000 0.00000000000000 100.00000000000000 0.00000000000000
34860354.0 0.018833578318420197 -0.03896087201589998 0.833743969790531 -0.5049855534012752 0.8332990533015565 -0.5068813610051067 -0.015394929523086881 -0.02286597403692521
! Port Impedance 100.00000000000000 0.00000000000000 100.00000000000000 0.00000000000000
34893300.0 0.018731867516357054 -0.03887801710491376 0.8336054607966734 -0.505452108347863 0.8332185026241952 -0.5075332046080925 -0.015465854997993356 -0.022934460533800813
! Port Impedance 100.00000000000000 0.00000000000000 100.00000000000000 0.00000000000000
34926246.0 0.018809898377385392 -0.03862857779640512 0.8332232414488929 -0.5066607407567943 0.8328160208535431 -0.5088693835298199 -0.0158176234672254 -0.022182077551409052
! Port Impedance 100.00000000000000 0.00000000000000 100.00000000000000 0.00000000000000
34959192.0 0.018962296740827778 -0.03914288286778174 0.8325192151641528 -0.5061836778422086 0.832111638835559 -0.5082894729481569 -0.015220814566899887 -0.022921489421841704
! Port Impedance 100.00000000000000 0.00000000000000 100.00000000000000 0.00000000000000
34992138.0 0.018550791482315393 -0.03903325777702242 0.8329947485129344 -0.507262870374784 0.8322075891299082 -0.509386308123748 -0.016026513491870925 -0.022797907824617353
! Port Impedance 100.00000000000000 0.00000000000000 100.00000000000000 0.00000000000000
35025084.0 0.018904039052917654 -0.039185991973591655 0.8321039225040552 -0.5073207901691524 0.8318544029798192 -0.5092875029692535 -0.015637939161517178 -0.02271828738746466
! Port Impedance 100.00000000000000 0.00000000000000 100.00000000000000 0.00000000000000
35058030.0 0.01870266871831394 -0.038946796558588154 0.831787810580902 -0.5082560371528878 0.8315219077633054 -0.5104668914294922 -0.016020958230635957 -0.022412166565324368
! Port Impedance 100.00000000000000 0.00000000000000 100.00000000000000 0.00000000000000
35090976.0 0.01853873736691894 -0.03911024669014665 0.8318571120753185 -0.5083243276128278 0.8312440331972781 -0.5102576570230355 -0.01621853571308307 -0.022644546616008468
! Port Impedance 100.00000000000000 0.00000000000000 100.00000000000000 0.00000000000000
35123922.0 0.018498404658349454 -0.03884242460828112 0.8313647996683378 -0.5087978066635346 0.8312240625704114 -0.5111904010230298 -0.016092224775754976 -0.022406763739674096
! Port Impedance 100.00000000000000 0.00000000000000 100.00000000000000 0.00000000000000
35156868.0 0.018827223203936566 -0.039073787398346105 0.8312606810920597 -0.5088949024191595 0.8307375723450245 -0.5114474853397161 -0.01568204750936153 -0.022976037417708414
! Port Impedance 100.00000000000000 0.00000000000000 100.00000000000000 0.00000000000000
35189814.0 0.01859457021304134 -0.039072716979580854 0.8308964143734974 -0.5096384266116337 0.8304948154580786 -0.5120875706361686 -0.016359445073529738 -0.022472134150800835
! Port Impedance 100.00000000000000 0.00000000000000 100.00000000000000 0.00000000000000
35222760.0 0.018943649377095584 -0.03982384214970219 0.830343298591697 -0.5093481413235447 0.8298429644639224 -0.511472519659621 -0.01601079160463853 -0.023326503025449932
! Port Impedance 100.00000000000000 0.00000000000000 100.00000000000000 0.00000000000000
35255706.0 0.01872639466519535 -0.03965378101454396 0.8303567331411794 -0.5100174004084272 0.8299531364820146 -0.5125473829990419 -0.01621842250090838 -0.02298306072283378
! Port Impedance 100.00000000000000 0.00000000000000 100.00000000000000 0.00000000000000
35288652.0 0.018524503332289333 -0.03936017661208603 0.8301846932214085 -0.5107183618082469 0.8300379135430564 -0.5132705773916164 -0.016388349666207336 -0.022650101943051698
! Port Impedance 100.00000000000000 0.00000000000000 100.00000000000000 0.00000000000000
35321598.0 0.018750798204406866 -0.03951996023812668 0.8294354936728476 -0.5108189796446724 0.8290039397428659 -0.5133763714438278 -0.01590942210265589 -0.023016062966382908
! Port Impedance 100.00000000000000 0.00000000000000 100.00000000000000 0.00000000000000
35354544.0 0.01869971180054894 -0.03980499256553649 0.8295544933869513 -0.511544479471502 0.8294869373637055 -0.513775598017796 -0.016435100633001826 -0.02317789835448493
! Port Impedance 100.00000000000000 0.00000000000000 100.00000000000000 0.00000000000000
35387490.0 0.018619714644551394 -0.03991023331654055 0.828921892511759 -0.5121378880776981 0.8284945579282722 -0.5143724754519643 -0.016235731408525106 -0.023163856203182162
! Port Impedance 100.00000000000000 0.00000000000000 100.00000000000000 0.00000000000000
35420436.0 0.018619136814743725 -0.03970500142324847 0.8290280548338383 -0.5121633782509961 0.8287492025082458 -0.5146469561585519 -0.016463468598903713 -0.0230173538952399
! Port Impedance 100.00000000000000 0.00000000000000 100.00000000000000 0.00000000000000
35453382.0 0.018626623663296593 -0.039918062203642066 0.8286324762181916 -0.5125935915277262 0.8279961568621261 -0.5149173205080496 -0.016491182749510946 -0.02324409779563026
! Port Impedance 100.00000000000000 0.00000000000000 100.00000000000000 0.00000000000000
35486328.0 0.019011788605060198 -0.040275625169403556 0.8282927905781273 -0.5129974542392377 0.8279692177457744 -0.5152647049787169 -0.01617445083030694 -0.023361098115025153
! Port Impedance 100.00000000000000 0.00000000000000 100.00000000000000 0.00000000000000
35519274.0 0.018820042288854172 -0.040249785950114664 0.8275871711021041 -0.5132384384545153 0.8273757201922448 -0.515593569773264 -0.016177882673752003 -0.02337549991679487
! Port Impedance 100.00000000000000 0.00000000000000 100.00000000000000 0.00000000000000
35552220.0 0.018685981334249285 -0.0401044942108265 0.8277355211335032 -0.5139761382957143 0.8274417310100364 -0.516641471425401 -0.016465870231324953 -0.023295556830295078
! Port Impedance 100.00000000000000 0.00000000000000 100.00000000000000 0.00000000000000
35585166.0 0.01841101453117122 -0.04025387242757124 0.8274915953136991 -0.5143112792474862 0.8272555700891243 -0.516735789548673 -0.016961350172931294 -0.023060025879988302
! Port Impedance 100.00000000000000 0.00000000000000 100.00000000000000 0.00000000000000
35618112.0 0.018553952613313884 -0.0404737061596835 0.8271505945533368 -0.5147180311065291 0.8267720054704555 -0.5170243561985236 -0.016879925764906017 -0.02314222603006154
! Port Impedance 100.00000000000000 0.00000000000000 100.00000000000000 0.00000000000000
35651058.0 0.0190128308677448 -0.04048559127025736 0.82646244169769 -0.5147278649516918 0.8261049038612522 -0.5173288153763709 -0.01644483120950649 -0.02344405754639599
! Port Impedance 100.00000000000000 0.00000000000000 100.00000000000000 0.00000000000000
35684004.0 0.01843928310793777 -0.040267933854697166 0.8268679122481035 -0.5156575013405075 0.8263721276166016 -0.5180914707478609 -0.01692078759665877 -0.023189589455639023
! Port Impedance 100.00000000000000 0.00000000000000 100.00000000000000 0.00000000000000
35716950.0 0.01868803467165825 -0.040664462580285624 0.8264835526399135 -0.5163390576022394 0.8260409334761878 -0.5186596978601655 -0.017060366237696217 -0.023309785194662716
! Port Impedance 100.00000000000000 0.00000000000000 100.00000000000000 0.00000000000000
35749896.0 0.018467237474663306 -0.04042721565529819 0.8258364238801683 -0.5166265048611667 0.8252999290915926 -0.5190971002281154 -0.01706569501483224 -0.023390863019284322
! Port Impedance 100.00000000000000 0.00000000000000 100.00000000000000 0.00000000000000
35782842.0 0.01893049823770787 -0.040902311380536904 0.8255796156425261 -0.5162841385372288 0.825255282465039 -0.5186065130563711 -0.016745837675386316 -0.023828735454818145
! Port Impedance 100.00000000000000 0.00000000000000 100.00000000000000 0.00000000000000
35815788.0 0.01845125528627442 -0.04079173609752228 0.8253794756888997 -0.5175308788963571 0.825028538640726 -0.5198761072384945 -0.0173457917320248 -0.023236866057183433
! Port Impedance 100.00000000000000 0.00000000000000 100.00000000000000 0.00000000000000
35848734.0 0.018977205714022366 -0.040800965164032865 0.8244107040103793 -0.5173731722656715 0.8240956004073354 -0.5199630983700494 -0.016660601612814213 -0.02354436586596506
! Port Impedance 100.00000000000000 0.00000000000000 100.00000000000000 0.00000000000000
35881680.0 0.018305806681343878 -0.040903606997172215 0.8251111370696729 -0.5178339973066037 0.8247781127693369 -0.5204549047347622 -0.017323416419504245 -0.023451420436374465
! Port Impedance 100.00000000000000 0.00000000000000 100.00000000000000 0.00000000000000
35914626.0 0.01857801742759224 -0.04092937256940089 0.8242980322579028 -0.5179445753240732 0.823761027033963 -0.5207011747077788 -0.01718924651117712 -0.02381699163903106
! Port Impedance 100.00000000000000 0.00000000000000 100.00000000000000 0.00000000000000
35947572.0 0.018594843295617197 -0.04101088017155809 0.8241544592336187 -0.5187729754980435 0.8236130184214766 -0.5212251201519301 -0.017407484447704957 -0.023520942184392823
! Port Impedance 100.00000000000000 0.00000000000000 100.00000000000000 0.00000000000000
35980518.0 0.018827835655586406 -0.04136051424115121 0.8237196670825239 -0.5192608308255959 0.8234945812227544 -0.521574552471886 -0.017150505012548473 -0.023769592133810885
! Port Impedance 100.00000000000000 0.00000000000000 100.00000000000000 0.00000000000000
36013464.0 0.018336897025523324 -0.041173351712984016 0.8240029000167003 -0.5195930460124245 0.8234740734604671 -0.5221111154117687 -0.01765895563742015 -0.02374983110325654
! Port Impedance 100.00000000000000 0.00000000000000 100.00000000000000 0.00000000000000
36046410.0 0.018608368446601103 -0.041513239370028626 0.823074169210986 -0.5202475641382831 0.8225579983043331 -0.5226836280056955 -0.017423564771652467 -0.02369151136741085
! Port Impedance 100.00000000000000 0.00000000000000 100.00000000000000 0.00000000000000
36079356.0 0.01836575717906133 -0.04117026332061563 0.8233436365374768 -0.5205575355902676 0.8229312824263613 -0.5231453739301632 -0.017491184611832272 -0.023715608212312056
! Port Impedance 100.00000000000000 0.00000000000000 100.00000000000000 0.00000000000000
36112302.0 0.018569180934460444 -0.04168396820870972 0.8226879991443781 -0.5208762201176698 0.8221928780888772 -0.5233579568336806 -0.017705273603575128 -0.02377746412975626
! Port Impedance 100.00000000000000 0.00000000000000 100.00000000000000 0.00000000000000
36145248.0 0.018501466078556295 -0.04177775543534751 0.8228185743973446 -0.5213331734391999 0.8220897099913944 -0.5237725217849938 -0.017733205620665687 -0.02384005135271934
! Port Impedance 100.00000000000000 0.00000000000000 100.00000000000000 0.00000000000000
36178194.0 0.0185663219931142 -0.04169380190760437 0.8224279829276104 -0.5221221091614273 0.8221663724549653 -0.5246494135257954 -0.01778283136795633 -0.023732447481296687
! Port Impedance 100.00000000000000 0.00000000000000 100.00000000000000 0.00000000000000
36211140.0 0.01822428813357513 -0.041800312634853204 0.822154807042357 -0.521933972233209 0.8217102419873175 -0.5244072146510994 -0.018194024834113337 -0.02379144590851945
! Port Impedance 100.00000000000000 0.00000000000000 100.00000000000000 0.00000000000000
36244086.0 0.01895181750072944 -0.042113297542411415 0.8212899425358674 -0.5223946823140548 0.8207200469376167 -0.5246726916941884 -0.01747347670114574 -0.024081824415121758
! Port Impedance 100.00000000000000 0.00000000000000 100.00000000000000 0.00000000000000
36277032.0 0.01838278560235057 -0.041641537715011806 0.8213941064689214 -0.5228859437936397 0.8211129639873995 -0.5256413714988121 -0.0179720531202619 -0.023828688884497226
! Port Impedance 100.00000000000000 0.00000000000000 100.00000000000000 0.00000000000000
36309978.0 0.018681726221224576 -0.041918033900578675 0.8209375602341277 -0.5231543289775588 0.8202380443883358 -0.5256461590122574 -0.017720051070252818 -0.024216562992189675
! Port Impedance 100.00000000000000 0.00000000000000 100.00000000000000 0.00000000000000
36342924.0 0.018695453880620605 -0.042305400128383366 0.8209250073827143 -0.523398862900279 0.8205198324984383 -0.5257172475159241 -0.017843960531776865 -0.024450735813936225
! Port Impedance 100.00000000000000 0.00000000000000 100.00000000000000 0.00000000000000
36375870.0 0.018210703362824432 -0.042148104364012506 0.8205297298731723 -0.5240084430951473 0.8201202178855499 -0.5265683264560933 -0.018369454399852908 -0.023997527965773938
! Port Impedance 100.00000000000000 0.00000000000000 100.00000000000000 0.00000000000000
36408816.0 0.018756234062014848 -0.042062305350542714 0.8198506427295755 -0.5242730350976326 0.8194634771527217 -0.5267094534102269 -0.017658215382761078 -0.024065168919687935
! Port Impedance 100.00000000000000 0.00000000000000 100.00000000000000 0.00000000000000
36441762.0 0.018349796924835154 -0.04224345882433436 0.8199398121224842 -0.5250514283349372 0.8194355376028537 -0.5276144003673187 -0.01835338490132518 -0.023967706255741475
! Port Impedance 100.00000000000000 0.00000000000000 100.00000000000000 0.00000000000000
36474708.0 0.0184065816430925 -0.04233259108126637 0.8189759498518548 -0.5248931545648331 0.8182709323116002 -0.5276299072307832 -0.018154950798735775 -0.024276153686789342
! Port Impedance 100.00000000000000 0.00000000000000 100.00000000000000 0.00000000000000
36507654.0 0.018602074192524853 -0.0424533605498562 0.8190397677272245 -0.5257954322435898 0.8187966647166292 -0.5282458105836738 -0.018148452420844896 -0.02410956129322582
! Port Impedance 100.00000000000000 0.00000000000000 100.00000000000000 0.00000000000000
36540600.0 0.01886843262878643 -0.04247054437530565 0.8183854619195414 -0.5259831303219208 0.8181405457068222 -0.5284650741141437 -0.017951214938982524 -0.024376973892426462
! Port Impedance 100.00000000000000 0.00000000000000 100.00000000000000 0.00000000000000
36573546.0 0.01852144672790132 -0.04286518507468218 0.8186434841605441 -0.5262601999977137 0.8181674340802778 -0.5284599064857471 -0.018270191662985297 -0.024640969996797768
! Port Impedance 100.00000000000000 0.00000000000000 100.00000000000000 0.00000000000000
36606492.0 0.01843974576107188 -0.04277359577919526 0.8184568561718353 -0.5272269823938599 0.8179823171369707 -0.5296794342312117 -0.01857359145518725 -0.02410534634366847
! Port Impedance 100.00000000000000 0.00000000000000 100.00000000000000 0.00000000000000
36639438.0 0.018549522852120026 -0.042454362117670966 0.8178862665527104 -0.5269731050686983 0.817552607076767 -0.5298521046976225 -0.018215496904031098 -0.02416416706584125
! Port Impedance 100.00000000000000 0.00000000000000 100.00000000000000 0.00000000000000
36672384.0 0.01850144793932182 -0.04278027687086611 0.8179828553910103 -0.5277375523343794 0.8171494909016547 -0.5303878574805251 -0.01860949381647159 -0.024298289479028568
! Port Impedance 100.00000000000000 0.00000000000000 100.00000000000000 0.00000000000000
36705330.0 0.018146166634082972 -0.04271030277294098 0.8174701775595425 -0.5279298788214718 0.8169185100379437 -0.5306308455663424 -0.01879143174134998 -0.02433216651082891
! Port Impedance 100.00000000000000 0.00000000000000 100.00000000000000 0.00000000000000
36738276.0 0.018476794582705375 -0.0430241909781051 0.8173090326313355 -0.5286912745959261 0.8169163356253956 -0.5310912364100822 -0.01872875265929047 -0.02443384793057128
! Port Impedance 100.00000000000000 0.00000000000000 100.00000000000000 0.00000000000000
36771222.0 0.018278625026938666 -0.04301431806131051 0.8167784451956197 -0.5289760218812115 0.816319903924044 -0.5316148712220764 -0.018999095796662535 -0.024185404269260802
! Port Impedance 100.00000000000000 0.00000000000000 100.00000000000000 0.00000000000000
36804168.0 0.018656661176416817 -0.04281040471445301 0.8163508210061805 -0.5289931026173735 0.816054366046933 -0.5318052909759563 -0.01830701976166882 -0.024473078387237585
! Port Impedance 100.00000000000000 0.00000000000000 100.00000000000000 0.00000000000000
36837114.0 0.018329576860631608 -0.043049438280277116 0.8160295377798338 -0.5293111673191467 0.8154634639904155 -0.5321708530298528 -0.018815807444519855 -0.02457419219931274
! Port Impedance 100.00000000000000 0.00000000000000 100.00000000000000 0.00000000000000
36870060.0 0.018524819153394934 -0.043443996576774946 0.8159555912167634 -0.5298240828188234 0.8156064851306124 -0.5322445129171697 -0.018687300403897683 -0.024744176374927318
! Port Impedance 100.00000000000000 0.00000000000000 100.00000000000000 0.00000000000000
36903006.0 0.018394247372578137 -0.043413524767691364 0.8158198565783232 -0.5309811522510082 0.8148806251490222 -0.5333460437192045 -0.01905974401988675 -0.024458201446464364
! Port Impedance 100.00000000000000 0.00000000000000 100.00000000000000 0.00000000000000
36935952.0 0.018389063021338276 -0.04322744416149721 0.8152921152630292 -0.5313240210101665 0.8147112378139563 -0.5337806303064945 -0.019135340461764794 -0.024333506698845125
! Port Impedance 100.00000000000000 0.00000000000000 100.00000000000000 0.00000000000000
36968898.0 0.018477570554079004 -0.043428673168212736 0.814748935058896 -0.5309842857417499 0.8141712418510152 -0.5338375976326167 -0.018822247613667464 -0.024665837293729287
! Port Impedance 100.00000000000000 0.00000000000000 100.00000000000000 0.00000000000000
37001844.0 0.018267121652909668 -0.043525705493613245 0.8143192796930196 -0.5315630688433236 0.813978577154732 -0.5342656731886326 -0.01919460328027861 -0.02453826723679478
! Port Impedance 100.00000000000000 0.00000000000000 100.00000000000000 0.00000000000000
37034790.0 0.018486056579411297 -0.04339199439378341 0.81435875770292 -0.5325103589450315 0.8139155639153286 -0.5348462940648593 -0.01922975939175614 -0.024469943503245536
! Port Impedance 100.00000000000000 0.00000000000000 100.00000000000000 0.00000000000000
37067736.0 0.018508185555873108 -0.04380874242699792 0.8141289412259445 -0.5327775674478832 0.8134673644288398 -0.5352355207151203 -0.01925843020719456 -0.024649491659632358
! Port Impedance 100.00000000000000 0.00000000000000 100.00000000000000 0.00000000000000
37100682.0 0.018411349552451883 -0.0437019470618427 0.8140595286873991 -0.533106832564107 0.8134239497491527 -0.5360162664572825 -0.01939324618318569 -0.02467275857086554
! Port Impedance 100.00000000000000 0.00000000000000 100.00000000000000 0.00000000000000
37133628.0 0.018296005204992166 -0.043712527138374146 0.8134668939356167 -0.5328131158551767 0.8129157439389115 -0.5355268922840389 -0.019193836945006454 -0.02489497207661419
! Port Impedance 100.00000000000000 0.00000000000000 100.00000000000000 0.00000000000000
37166574.0 0.01846181357143581 -0.043886139078841965 0.8130881061126406 -0.5340839512079668 0.8128288446245051 -0.5363709068692847 -0.019390908791138778 -0.02473568341043482
! Port Impedance 100.00000000000000 0.00000000000000 100.00000000000000 0.00000000000000
37199520.0 0.018135884195680158 -0.04385733233726889 0.8126910313477792 -0.5346514431374608 0.8122177558011928 -0.5373975353787024 -0.019666291956365572 -0.024568632006166713
! Port Impedance 100.00000000000000 0.00000000000000 100.00000000000000 0.00000000000000
37232466.0 0.018276819036965042 -0.044014099762016395 0.8124731971701424 -0.5342884309918946 0.8120346433196861 -0.536821936073818 -0.01950347562301319 -0.02462041215190934
! Port Impedance 100.00000000000000 0.00000000000000 100.00000000000000 0.00000000000000
37265412.0 0.018284975616711552 -0.04409430347382465 0.8125385857156168 -0.5345149913755277 0.8118646811910017 -0.537175756516135 -0.01947225844795844 -0.025148017457787677
! Port Impedance 100.00000000000000 0.00000000000000 100.00000000000000 0.00000000000000
37298358.0 0.01838653553713629 -0.04426645484141753 0.8119848828017024 -0.5354456296550018 0.8114181586488617 -0.5380822176867395 -0.019805551453207143 -0.02488521799125204
! Port Impedance 100.00000000000000 0.00000000000000 100.00000000000000 0.00000000000000
37331304.0 0.018369315052379598 -0.04445574613586528 0.8114447258379707 -0.535462696479364 0.8109646539972227 -0.5382534021526294 -0.019655020004504697 -0.024923398745603356
! Port Impedance 100.00000000000000 0.00000000000000 100.00000000000000 0.00000000000000
37364250.0 0.018254142355748904 -0.044667383813085396 0.8112331255012588 -0.5360490785661143 0.810774150130066 -0.5387524994715127 -0.019910905904058 -0.024985178736546515
! Port Impedance 100.00000000000000 0.00000000000000 100.00000000000000 0.00000000000000
37397196.0 0.018221366493505448 -0.044375626243354935 0.8108869824174879 -0.5364024206601412 0.8104032499646304 -0.539258546242945 -0.019785775142138334 -0.024790404360803958
! Port Impedance 100.00000000000000 0.00000000000000 100.00000000000000 0.00000000000000
37430142.0 0.018198830869592647 -0.04437985825176169 0.8109747962431267 -0.5367535787683095 0.8101204989479611 -0.5394989830320714 -0.019869190771591716 -0.02498062475634033
! Port Impedance 100.00000000000000 0.00000000000000 100.00000000000000 0.00000000000000
37463088.0 0.01800547787030668 -0.044615054896048265 0.8102197111089534 -0.5369277469345878 0.8097003647102254 -0.5395938918264318 -0.019940446972792347 -0.025071348482526692
! Port Impedance 100.00000000000000 0.00000000000000 100.00000000000000 0.00000000000000
37496034.0 0.018423633270809536 -0.044564098657873655 0.8100820650746845 -0.5378613909119189 0.809794807179665 -0.5405681271111006 -0.019999748772713655 -0.02484137753452985
! Port Impedance 100.00000000000000 0.00000000000000 100.00000000000000 0.00000000000000
37528980.0 0.018304626135028423 -0.04467079725963173 0.8098267085108963 -0.5380704391122214 0.8095877625628429 -0.5407450301530323 -0.02006326121460228 -0.02504582835628122
! Port Impedance 100.00000000000000 0.00000000000000 100.00000000000000 0.00000000000000
37561926.0 0.018259846726420087 -0.04498370176714145 0.8095527272402474 -0.5381116495894402 0.8089925267266365 -0.5409244888490651 -0.020213296957635407 -0.025152275877252356
! Port Impedance 100.00000000000000 0.00000000000000 100.00000000000000 0.00000000000000
37594872.0 0.018180773347259177 -0.044641018037848645 0.8090679772129984 -0.5391165273058128 0.8085351214525365 -0.541826189732955 -0.020072830801433378 -0.024951146528450596
! Port Impedance 100.00000000000000 0.00000000000000 100.00000000000000 0.00000000000000
37627818.0 0.018270555022983498 -0.04485907901049399 0.8089305665235058 -0.5390078339948599 0.8083979841970339 -0.5419543508368896 -0.02005490358576345 -0.025109894166679886
! Port Impedance 100.00000000000000 0.00000000000000 100.00000000000000 0.00000000000000
37660764.0 0.017925587485858818 -0.04497438595909689 0.8086538604832997 -0.5398752083969078 0.8080058616381696 -0.5426996291149944 -0.020458539963899736 -0.025241097319135652
! Port Impedance 100.00000000000000 0.00000000000000 100.00000000000000 0.00000000000000
37693710.0 0.01827733017511174 -0.044978711199215926 0.8083620072733844 -0.5403235872555289 0.8081185486814992 -0.543037172887158 -0.020397700050692996 -0.02509001528361285
! Port Impedance 100.00000000000000 0.00000000000000 100.00000000000000 0.00000000000000
37726656.0 0.018075412953951486 -0.04552618214329182 0.8082944944245108 -0.5404799767475876 0.8079572292057433 -0.5430757021625855 -0.020435852947830208 -0.025550913804416694
! Port Impedance 100.00000000000000 0.00000000000000 100.00000000000000 0.00000000000000
37759602.0 0.01815899648258046 -0.04532743076399057 0.8077812997193096 -0.5409352235347841 0.8069707941686038 -0.5436115323175285 -0.02052109951224465 -0.025177022089367798
! Port Impedance 100.00000000000000 0.00000000000000 100.00000000000000 0.00000000000000
37792548.0 0.018216234867628966 -0.04517413520536953 0.8071838798348592 -0.5411613674272044 0.8067408760844089 -0.5439872203861937 -0.02028989837321532 -0.025270984777588115
! Port Impedance 100.00000000000000 0.00000000000000 100.00000000000000 0.00000000000000
37825494.0 0.018300563626525657 -0.045206037053757156 0.8073000237703938 -0.5416428537786766 0.8066871774978034 -0.5443602687302868 -0.02055311108567273 -0.025262270710952814
! Port Impedance 100.00000000000000 0.00000000000000 100.00000000000000 0.00000000000000
37858440.0 0.01844523884358909 -0.045466963014699505 0.8069749565754751 -0.5419135537427469 0.8061756618457617 -0.5446035197864897 -0.0205796552868191 -0.025299738182314013
! Port Impedance 100.00000000000000 0.00000000000000 100.00000000000000 0.00000000000000
37891386.0 0.018341460396390008 -0.0457298240184649 0.8063209721045839 -0.5423716988138386 0.8058492496466051 -0.5452304729096927 -0.020654101496412808 -0.025520362719188644
! Port Impedance 100.00000000000000 0.00000000000000 100.00000000000000 0.00000000000000
37924332.0 0.017967506011286355 -0.04582599985571133 0.8059694795299002 -0.5426350392380981 0.8056497166881087 -0.5452676575284949 -0.020810565047848395 -0.025477808104206662
! Port Impedance 100.00000000000000 0.00000000000000 100.00000000000000 0.00000000000000
37957278.0 0.018052359235454785 -0.045919721530150615 0.8060223826325184 -0.5430987654706465 0.8054139722116267 -0.5458219933663393 -0.021059794700019646 -0.0254466162106345
! Port Impedance 100.00000000000000 0.00000000000000 100.00000000000000 0.00000000000000
37990224.0 0.01824670075877491 -0.04554510443765461 0.8052051909703583 -0.5436407478916052 0.8046843874172512 -0.5465200745235919 -0.020444562186753168 -0.025414719759773316
! Port Impedance 100.00000000000000 0.00000000000000 100.00000000000000 0.00000000000000
38023170.0 0.01819662394263208 -0.04593685531299639 0.8051631480153503 -0.5438017253596339 0.8045592197587532 -0.5467099987156951 -0.020834222838375493 -0.025525908655501306
! Port Impedance 100.00000000000000 0.00000000000000 100.00000000000000 0.00000000000000
38056116.0 0.01846725359964224 -0.04579754104003522 0.8051921669505772 -0.5440628110173287 0.8044262846660806 -0.5468743393829406 -0.020849774912175212 -0.025539158602261455
! Port Impedance 100.00000000000000 0.00000000000000 100.00000000000000 0.00000000000000
38089062.0 0.017990562284396078 -0.04597601585259463 0.8050061228793355 -0.5447637060589154 0.8042359832019843 -0.5476139796169055 -0.02110826395991683 -0.025742928381402033
! Port Impedance 100.00000000000000 0.00000000000000 100.00000000000000 0.00000000000000
38122008.0 0.01814945266660939 -0.0461665711343064 0.8040999874108615 -0.545076419814229 0.8035396976292282 -0.5478470355919942 -0.02119349912290075 -0.025508481169890934
! Port Impedance 100.00000000000000 0.00000000000000 100.00000000000000 0.00000000000000
38154954.0 0.018280148835487564 -0.04608129419009675 0.8041243213335766 -0.545816447752142 0.8038931359182118 -0.5482777215352564 -0.021081381570260294 -0.025650155180907033
! Port Impedance 100.00000000000000 0.00000000000000 100.00000000000000 0.00000000000000
38187900.0 0.01836466806054643 -0.04620599113957666 0.803637573817289 -0.5458541768498977 0.8031884870524526 -0.5486181890566622 -0.021008158026525725 -0.025737289187537316
! Port Impedance 100.00000000000000 0.00000000000000 100.00000000000000 0.00000000000000
38220846.0 0.018284531012806388 -0.046518009480476685 0.8031642755503599 -0.5463793484750765 0.8026958207788757 -0.5490630575741897 -0.020999171252793547 -0.02579446001086512
! Port Impedance 100.00000000000000 0.00000000000000 100.00000000000000 0.00000000000000
38253792.0 0.018108797573931884 -0.046614774984584176 0.8030428543259236 -0.5467554354950771 0.8026022392399091 -0.5494399368582055 -0.021212655501989253 -0.025785284764090977
! Port Impedance 100.00000000000000 0.00000000000000 100.00000000000000 0.00000000000000
38286738.0 0.018105785695600618 -0.04652302759243232 0.8027147986721368 -0.5470083078438978 0.8020978418128881 -0.549793690984802 -0.021416172762085905 -0.025589758613464353
! Port Impedance 100.00000000000000 0.00000000000000 100.00000000000000 0.00000000000000
38319684.0 0.018024766939805092 -0.04663971766884302 0.8024523740800855 -0.5473210935080085 0.802075904087762 -0.5501815241444206 -0.021420756226221443 -0.025625831683503214
! Port Impedance 100.00000000000000 0.00000000000000 100.00000000000000 0.00000000000000
38352630.0 0.018028487665966764 -0.04677247079520229 0.8021754137796439 -0.5475136379200224 0.8016201996690202 -0.5503574358261671 -0.021440763466461288 -0.025798786013002936
! Port Impedance 100.00000000000000 0.00000000000000 100.00000000000000 0.00000000000000
38385576.0 0.018226508258285284 -0.046853061658073444 0.8020699660454421 -0.5481636149410629 0.8013062813288769 -0.550941055901276 -0.02148454400372074 -0.025920155733497027
! Port Impedance 100.00000000000000 0.00000000000000 100.00000000000000 0.00000000000000
38418522.0 0.01801090472417116 -0.04670051296602162 0.8014097662531917 -0.5487691772001884 0.8008263718401106 -0.5516735573872684 -0.021420929038712927 -0.025814352221915
! Port Impedance 100.00000000000000 0.00000000000000 100.00000000000000 0.00000000000000
38451468.0 0.018214695178589896 -0.0467620125321187 0.8012263124819191 -0.5487463922819694 0.800423139613058 -0.5514641877716209 -0.021561519080757208 -0.02596169802199863
! Port Impedance 100.00000000000000 0.00000000000000 100.00000000000000 0.00000000000000
38484414.0 0.018142902115947268 -0.04678180271730488 0.8005268569852733 -0.5495969176023524 0.8001311779012923 -0.5523179005712094 -0.021676560063438072 -0.025650138127216907
! Port Impedance 100.00000000000000 0.00000000000000 100.00000000000000 0.00000000000000
38517360.0 0.017942137073978237 -0.04711456039234767 0.8007515382426342 -0.5498747368811128 0.8003724075100165 -0.5526846158005394 -0.02184820903252277 -0.025922754747652293
! Port Impedance 100.00000000000000 0.00000000000000 100.00000000000000 0.00000000000000
38550306.0 0.01809653589651869 -0.04699628558521733 0.800166745168976 -0.550176915821301 0.7994374222071394 -0.5529970184722715 -0.02178717932046015 -0.025804565994576645
! Port Impedance 100.00000000000000 0.00000000000000 100.00000000000000 0.00000000000000
38583252.0 0.0178048425091287 -0.04721123723623033 0.8002308416851727 -0.5506215374595589 0.7995071250471102 -0.553475962891572 -0.022061928230166367 -0.025992771968960632
! Port Impedance 100.00000000000000 0.00000000000000 100.00000000000000 0.00000000000000
38616198.0 0.0181351251197108 -0.04725800750733766 0.799484942381686 -0.5506289930973061 0.7990385765245128 -0.553675152908248 -0.021821283922019485 -0.026149728440087797
! Port Impedance 100.00000000000000 0.00000000000000 100.00000000000000 0.00000000000000
38649144.0 0.01777680326581782 -0.04748797738296205 0.7995085655681287 -0.5514998936971511 0.7990325328180408 -0.5543952338927189 -0.022247718125786548 -0.026089296103505508
! Port Impedance 100.00000000000000 0.00000000000000 100.00000000000000 0.00000000000000
38682090.0 0.018116135853244036 -0.04752477127007915 0.7990083328289523 -0.5513525858175753 0.7984082726670919 -0.554372122669325 -0.02189491254146317 -0.026133287821368825
! Port Impedance 100.00000000000000 0.00000000000000 100.00000000000000 0.00000000000000
38715036.0 0.018220486461204055 -0.047247965876869316 0.798312610177918 -0.5524859672245283 0.7977168645850158 -0.5552863849180545 -0.02174474437926291 -0.02598358782718385
! Port Impedance 100.00000000000000 0.00000000000000 100.00000000000000 0.00000000000000
38747982.0 0.01787859933270272 -0.04734112650933221 0.798690929569323 -0.5524653890857681 0.797966460069482 -0.5553495288043631 -0.022313632431962938 -0.02598061862755259
! Port Impedance 100.00000000000000 0.00000000000000 100.00000000000000 0.00000000000000
38780928.0 0.018181390693188193 -0.04773990432847071 0.7980902154380223 -0.5526014821567218 0.7973145487176194 -0.5554934887390617 -0.022028329920872725 -0.026337818195889665
! Port Impedance 100.00000000000000 0.00000000000000 100.00000000000000 0.00000000000000
38813874.0 0.018047329451971184 -0.047608585012665475 0.7977955432151702 -0.5531369414666791 0.7973691566339471 -0.5561898752865463 -0.022243249669956222 -0.02628230692973242
! Port Impedance 100.00000000000000 0.00000000000000 100.00000000000000 0.00000000000000
38846820.0 0.017808031198759428 -0.0479797371015121 0.7977017710567652 -0.5540263716983458 0.7970749475983753 -0.556600491467279 -0.02242356223798106 -0.026184705771163594
! Port Impedance 100.00000000000000 0.00000000000000 100.00000000000000 0.00000000000000
38879766.0 0.01798569396438024 -0.04785378820851409 0.7972930618526785 -0.5536667765849617 0.7966500347456248 -0.556715381731361 -0.022275551651923353 -0.026247731411448372
! Port Impedance 100.00000000000000 0.00000000000000 100.00000000000000 0.00000000000000
38912712.0 0.018006941302552343 -0.047665813389118614 0.7964976950761169 -0.5547361517970408 0.7958939810623604 -0.5576063181106415 -0.022273560651736635 -0.025979852788520094
! Port Impedance 100.00000000000000 0.00000000000000 100.00000000000000 0.00000000000000
38945658.0 0.017822464049537856 -0.04806246596338812 0.796812068113709 -0.5552277553006354 0.7961265065987244 -0.5581305177527136 -0.022581877386425087 -0.02633422046003113
! Port Impedance 100.00000000000000 0.00000000000000 100.00000000000000 0.00000000000000
38978604.0 0.017971272225881685 -0.04834473968360409 0.7961157044431635 -0.5557170245040165 0.7956661000149103 -0.5583507379905288 -0.02257505728040532 -0.026332526910793755
! Port Impedance 100.00000000000000 0.00000000000000 100.00000000000000 0.00000000000000
39011550.0 0.01783121064345991 -0.04803212591615526 0.7960430548518357 -0.5557455852136607 0.7954148322550983 -0.5587614723955343 -0.02269568382264886 -0.026122372568421537
! Port Impedance 100.00000000000000 0.00000000000000 100.00000000000000 0.00000000000000
39044496.0 0.018046464211934815 -0.04818263349650409 0.7954875770436323 -0.5559972905321224 0.7946871113359282 -0.5586344420899721 -0.02259553226581859 -0.026340706205536052
! Port Impedance 100.00000000000000 0.00000000000000 100.00000000000000 0.00000000000000
39077442.0 0.01795311303784128 -0.04820677636330917 0.794991107818977 -0.5561693887296507 0.7945022140591037 -0.5592590975393289 -0.022617320846332473 -0.026473450200328208
! Port Impedance 100.00000000000000 0.00000000000000 100.00000000000000 0.00000000000000
39110388.0 0.018156360718822595 -0.04844106492571036 0.7947510768037953 -0.5573101471687794 0.7941703107929619 -0.5600251519572761 -0.022629462479325402 -0.026375659814677613
! Port Impedance 100.00000000000000 0.00000000000000 100.00000000000000 0.00000000000000
39143334.0 0.017975534452425668 -0.048418114301612816 0.7946286369899271 -0.5569384342940786 0.7938942504351414 -0.5599576696951564 -0.022848443429942522 -0.026332966725779464
! Port Impedance 100.00000000000000 0.00000000000000 100.00000000000000 0.00000000000000
39176280.0 0.017662529553976597 -0.048387443466394536 0.7945098518598763 -0.5574123133617652 0.7937889010611452 -0.560642182812153 -0.023029046544225662 -0.02643347320038439
! Port Impedance 100.00000000000000 0.00000000000000 100.00000000000000 0.00000000000000
39209226.0 0.017832974831930443 -0.04841099144088874 0.7939049393269856 -0.5579951976986756 0.7933019134953136 -0.5610075229921876 -0.02302117040191387 -0.026352127623533464
! Port Impedance 100.00000000000000 0.00000000000000 100.00000000000000 0.00000000000000
39242172.0 0.017993341393827383 -0.0489760862645718 0.7935771496144881 -0.5587654746268798 0.7931656922488595 -0.5612178194786537 -0.02291333636025425 -0.026529202324289347
! Port Impedance 100.00000000000000 0.00000000000000 100.00000000000000 0.00000000000000
39275118.0 0.01780337805796567 -0.0488605657404412 0.7935735044448261 -0.5583845298382527 0.7929978059746703 -0.5618036520364234 -0.02305522231161347 -0.026724231206431748
! Port Impedance 100.00000000000000 0.00000000000000 100.00000000000000 0.00000000000000
39308064.0 0.01802642405489957 -0.04879525012679063 0.7930394296198008 -0.5590251068775681 0.7922663741359741 -0.5619246331487956 -0.023051257395363206 -0.026536765261575862
! Port Impedance 100.00000000000000 0.00000000000000 100.00000000000000 0.00000000000000
39341010.0 0.017984283598001083 -0.04866796038269741 0.7925548999313382 -0.5603213046533331 0.7917640177887919 -0.5631624433934767 -0.02305090533253601 -0.02632208019026043
! Port Impedance 100.00000000000000 0.00000000000000 100.00000000000000 0.00000000000000
39373956.0 0.01775568200600719 -0.048553024394971625 0.7923982564238132 -0.5599619710577811 0.7914977127925238 -0.5630195489146449 -0.02331929202696592 -0.026340673279756324
! Port Impedance 100.00000000000000 0.00000000000000 100.00000000000000 0.00000000000000
39406902.0 0.017900351717905827 -0.04900000186445501 0.7923151354910768 -0.5600972133898039 0.7913790722820635 -0.5630341129200249 -0.023311656873250874 -0.026638340733438154
! Port Impedance 100.00000000000000 0.00000000000000 100.00000000000000 0.00000000000000
39439848.0 0.017816524829306013 -0.04908206700501841 0.7917220096714424 -0.5606882667116458 0.7913988954037218 -0.5632711580358407 -0.02331420503823098 -0.02658684934411261
! Port Impedance 100.00000000000000 0.00000000000000 100.00000000000000 0.00000000000000
39472794.0 0.017998069671997824 -0.04950554579256547 0.791518015281841 -0.5614450502871479 0.7908910557154478 -0.564334433802236 -0.023271647291364855 -0.026850077706704445
! Port Impedance 100.00000000000000 0.00000000000000 100.00000000000000 0.00000000000000
39505740.0 0.0178156052980388 -0.049329674905784174 0.7912703451716485 -0.5613583471102561 0.7904307720435557 -0.5643782824102173 -0.02351993310935449 -0.0265917534668986
! Port Impedance 100.00000000000000 0.00000000000000 100.00000000000000 0.00000000000000
39538686.0 0.017833596529762547 -0.04924555987397532 0.7907639444305551 -0.5614511331147344 0.790050319358665 -0.5647695195942943 -0.023332296116925805 -0.02676696609699955
! Port Impedance 100.00000000000000 0.00000000000000 100.00000000000000 0.00000000000000
39571632.0 0.01764810185451185 -0.04967452475640323 0.7907646039960657 -0.5624626141587584 0.7900936050288373 -0.5653097076639837 -0.023863647459213683 -0.02710496035283151
! Port Impedance 100.00000000000000 0.00000000000000 100.00000000000000 0.00000000000000
39604578.0 0.017679482514963624 -0.049244017853740885 0.7898679732989888 -0.5623532045462508 0.7895194492837934 -0.5653107571157857 -0.02373358188962396 -0.02679444946699537
! Port Impedance 100.00000000000000 0.00000000000000 100.00000000000000 0.00000000000000
39637524.0 0.018022226841810984 -0.049796188235789116 0.7896829291171059 -0.5637031094133093 0.789195641817152 -0.5664495234285136 -0.02361485615466924 -0.026700281053293473
! Port Impedance 100.00000000000000 0.00000000000000 100.00000000000000 0.00000000000000
39670470.0 0.01803588709377979 -0.049743521765619914 0.7894480016205638 -0.5633574459584156 0.788591359179033 -0.5663469942497181 -0.023740547555100883 -0.026736167124870827
! Port Impedance 100.00000000000000 0.00000000000000 100.00000000000000 0.00000000000000
39703416.0 0.017753340943705204 -0.049348993641115876 0.7891727566582342 -0.5641342927232762 0.7882473415802509 -0.5669639570961689 -0.023729741821867628 -0.026581052176068723
! Port Impedance 100.00000000000000 0.00000000000000 100.00000000000000 0.00000000000000
39736362.0 0.017578518690019973 -0.04994193691863115 0.7893533547998317 -0.5642337104754801 0.7885713824665375 -0.5670526718853988 -0.024248300476907764 -0.026986969762041582
! Port Impedance 100.00000000000000 0.00000000000000 100.00000000000000 0.00000000000000
39769308.0 0.017613877257182997 -0.04975549226355168 0.7886544065679895 -0.5642110265329715 0.7880795449658025 -0.5673126507050723 -0.024113369898272563 -0.026791843613230393
! Port Impedance 100.00000000000000 0.00000000000000 100.00000000000000 0.00000000000000
39802254.0 0.01751883585966657 -0.05000751045615734 0.7881245176949385 -0.5645397858326264 0.7876434937007644 -0.5678087666370906 -0.024137854894232147 -0.0269471507073918
! Port Impedance 100.00000000000000 0.00000000000000 100.00000000000000 0.00000000000000
39835200.0 0.01799445675457026 -0.05015749454557537 0.7881722503780322 -0.5655944574772274 0.7871851639664034 -0.5683954685640928 -0.02393320566340107 -0.02699893131005056
! Port Impedance 100.00000000000000 0.00000000000000 100.00000000000000 0.00000000000000
39868146.0 0.017647382182371107 -0.04988756801414038 0.7878077997348811 -0.5653466169913899 0.7868052227546434 -0.5684574197043701 -0.02411906699248703 -0.026919497119084618
! Port Impedance 100.00000000000000 0.00000000000000 100.00000000000000 0.00000000000000
39901092.0 0.017912643905387854 -0.05044080728479579 0.7873746887356284 -0.5660084170226092 0.786602330837559 -0.5690495386291181 -0.024222930359859285 -0.027319202549732913
! Port Impedance 100.00000000000000 0.00000000000000 100.00000000000000 0.00000000000000
39934038.0 0.017741891821906913 -0.050244167764378095 0.786922718252529 -0.566432900076258 0.786434299115664 -0.5693324239328579 -0.024320292259250087 -0.02704051704539097
! Port Impedance 100.00000000000000 0.00000000000000 100.00000000000000 0.00000000000000
39966984.0 0.017634641562579656 -0.05007387167547547 0.7865962276740049 -0.5667314279418654 0.7857826490227457 -0.570009165895117 -0.024339822992901217 -0.026874083120816072
! Port Impedance 100.00000000000000 0.00000000000000 100.00000000000000 0.00000000000000
39999930.0 0.017387166403721843 -0.05062219702628516 0.7868150415625024 -0.5670286639491426 0.7859368979808384 -0.5698551724907219 -0.024685072098660776 -0.027137528848879447
! Port Impedance 100.00000000000000 0.00000000000000 100.00000000000000 0.00000000000000
