# HZ S RI R 50
300000 -0.7950158937580809 -0.024318122136237 0.00019076928965355922 -0.00024810648845001855 0 0 0 0
332946 -0.68315021433613 0.19403861250859658 0.0006479073056137051 3.404956028766121e-05 0 0 0 0
365892 -0.5405144712336177 0.23166145655406284 0.0009669218687136668 -7.694819592814176e-05 0 0 0 0
398838 -0.4597308442720146 0.21044358539826538 0.0010957503991100477 -0.0002195383279111729 0 0 0 0
431784 -0.44705030275598057 0.16851816804902814 0.001453453909814564 0.0005265365881581053 0 0 0 0
464730 -0.41871665408439845 0.14936733571760835 0.0015513163172404284 0.00046091598014044624 0 0 0 0
497676 -0.4021626675561357 0.13410825933375917 0.0016182530803731986 0.00039264377099929276 0 0 0 0
530622 -0.39100709059772665 0.12106835135621774 0.0016552073682128364 0.0003480315133301423 0 0 0 0
563568 -0.3828577170700429 0.11146779646244699 0.0016892934134067614 0.0002852506248625836 0 0 0 0
596514 -0.37644980762133434 0.1040514995729554 0.0016775152091613587 0.00022866427072986355 0 0 0 0
629460 -0.3717292172424639 0.09754375564730705 0.001673288041015114 0.0002625639171978606 0 0 0 0
662406 -0.36767042493905255 0.0918769257798883 0.0017096163921039244 0.00022122813834608786 0 0 0 0
695352 -0.3645964775675163 0.08715615888363953 0.0017184716966180257 0.00017736647567203055 0 0 0 0
728298 -0.36192173827980145 0.08307665338677436 0.0017478029270627318 0.00016239744943557954 0 0 0 0
761244 -0.35946974092469286 0.07964542881330221 0.0017267727072441856 0.00011002401543576215 0 0 0 0
794190 -0.3570627574346786 0.07666019064418297 0.0017507350039495829 0.00011141893667702613 0 0 0 0
827136 -0.3554655123776741 0.0741420088848041 0.0017714942821532415 0.00010205453480107316 0 0 0 0
860082 -0.353645129371748 0.07128001389421076 0.0017469040372568622 8.233827347378429e-05 0 0 0 0
893028 -0.3523471615103852 0.06921813191757409 0.0017348984601544782 7.440686248140268e-05 0 0 0 0
925974 -0.35089614925535967 0.06724118536973733 0.001740382574547367 5.3476314747768316e-05 0 0 0 0
958920 -0.34989229333925415 0.06515075092345544 0.0017624643128599845 1.732642503982454e-05 0 0 0 0
991866 -0.3486675505868193 0.0636547065450986 0.0017834940482051801 2.5572607513613422e-05 0 0 0 0
1024812 -0.3474598728642699 0.06206188986864213 0.0017601719630804052 -8.021337902073878e-07 0 0 0 0
1057758 -0.3468803968266601 0.060705787745053384 0.001763025662531089 -1.7333709720021384e-05 0 0 0 0
1090704 -0.3460793240462338 0.059321027745002995 0.0017498909006580332 -3.302807270531818e-05 0 0 0 0
1123650 -0.34507238835172377 0.05838118347461209 0.001781349283256567 -3.5879585139118596e-05 0 0 0 0
1156596 -0.3442905522068746 0.05735539730789316 0.0017684682675357041 -1.5125367497775323e-05 0 0 0 0
1189542 -0.3431455639260151 0.05612819584499312 0.0017877617890527558 -6.417614645827172e-05 0 0 0 0
1222488 -0.3426349326063907 0.05523815410645976 0.0018022395311990177 -5.697451646499625e-05 0 0 0 0
1255434 -0.34232184387106873 0.0542184212492349 0.001796672043717552 -7.221988508207716e-05 0 0 0 0
1288380 -0.34170987464596275 0.05342805375122534 0.001761625633127236 -0.0001060643828935441 0 0 0 0
1321326 -0.34092831619642777 0.052772930089161375 0.0018084603855173726 -0.00013199258375160458 0 0 0 0
1354272 -0.3405034336133964 0.05190818056492363 0.0017914032367449496 -0.00014080857116601 0 0 0 0
1387218 -0.3400289896399217 0.05126552955100774 0.0017412901717770283 -0.00013268271965876405 0 0 0 0
1420164 -0.3394063444860763 0.050630068047954176 0.0017846110194481455 -0.0001325608889593657 0 0 0 0
1453110 -0.3390598257515744 0.04999600979036303 0.001792741670846364 -0.00014986371232868643 0 0 0 0
1486056 -0.338917895361252 0.04935002877911763 0.0018074975134939224 -0.00017944637784999605 0 0 0 0
1519002 -0.33851331779878435 0.04908223650884343 0.0017996739114971231 -0.0001815261952108717 0 0 0 0
1551948 -0.3379802304373637 0.048276237546678466 0.0017657965275578308 -0.00020649303040006636 0 0 0 0
1584894 -0.3374571655021485 0.04781108930186213 0.0018208236790261084 -0.00023045934959976238 0 0 0 0
1617840 -0.3372262235357222 0.04793107845187376 0.0018221278473437338 -0.0002460807688306063 0 0 0 0
1650786 -0.33690185127244127 0.04717057745653708 0.0017865758743394581 -0.00024487693892831226 0 0 0 0
1683732 -0.33669156626336455 0.046689766552900976 0.0018009777018027512 -0.00022573626110657964 0 0 0 0
1716678 -0.3360814396577963 0.04653795981936148 0.0017926115800316264 -0.00027504185275230726 0 0 0 0
1749624 -0.3357728704856885 0.046434555752378606 0.001789268771667394 -0.0002971660022374789 0 0 0 0
1782570 -0.3356129666398944 0.04609320702778956 0.0017803850940026039 -0.0002962214772872087 0 0 0 0
1815516 -0.33512624453644824 0.04540493270263504 0.0017888989123671594 -0.0003196849527221513 0 0 0 0
1848462 -0.33500610330151276 0.045327023926632806 0.001785502095069572 -0.00032780510096714667 0 0 0 0
1881408 -0.3345775528377951 0.04474280819746303 0.0017690540043751 -0.00034472188740484355 0 0 0 0
1914354 -0.33435710464949175 0.04486590316620912 0.0017782774572407721 -0.00038013821221654433 0 0 0 0
1947300 -0.3341594065246325 0.04463535584293778 0.001786739578505501 -0.0003814705391313444 0 0 0 0
1980246 -0.33358310615436954 0.04461628967577226 0.0017556818026534889 -0.00042031552829007113 0 0 0 0
2013192 -0.3332345854118246 0.04437340585634751 0.0017714840448794578 -0.0004211221680850996 0 0 0 0
2046138 -0.33299003700866403 0.04391325637206752 0.0017830846884055495 -0.0004369578219075505 0 0 0 0
2079084 -0.3327275802672304 0.043732467773351096 0.0017456238877564647 -0.00044301158644347244 0 0 0 0
2112030 -0.3323392621106238 0.043753232182975776 0.0017649218390399341 -0.00045897344388909854 0 0 0 0
2144976 -0.3319699495760562 0.043600246338666285 0.00174076395833772 -0.00046839338359111 0 0 0 0
2177922 -0.3321948167131807 0.04375127210091342 0.0017607228593860746 -0.0005018574486234849 0 0 0 0
2210868 -0.331394168610552 0.043588754331164443 0.0017582562012738953 -0.0005197018304297957 0 0 0 0
2243814 -0.331173018961404 0.043457109041194 0.0017164450431143283 -0.0005080574758204128 0 0 0 0
2276760 -0.33088087924175485 0.04327897371685652 0.0017158555845164332 -0.0005162742785883546 0 0 0 0
2309706 -0.33064892775822335 0.04322608428275781 0.001708517316014976 -0.0005600703345715469 0 0 0 0
2342652 -0.3305206034104845 0.04289120723701857 0.0016975475867919629 -0.0005598111762151795 0 0 0 0
2375598 -0.32997408755666097 0.04277989144211328 0.0016802173469016106 -0.0006067278160105204 0 0 0 0
2408544 -0.32977118704962066 0.042927087368801686 0.001674756756553599 -0.000630876704025941 0 0 0 0
2441490 -0.3296050804896621 0.04285009972800842 0.0016534968112105848 -0.0006409969101726364 0 0 0 0
2474436 -0.3289608891718833 0.04293804987509468 0.0016477362646244865 -0.0006618186715228596 0 0 0 0
2507382 -0.3288827869546916 0.04264550834245504 0.0016369531676887412 -0.000672291691661407 0 0 0 0
2540328 -0.32845903026206763 0.0426400674397356 0.0016222764585543494 -0.0006705897675634891 0 0 0 0
2573274 -0.32845449104418695 0.04279990863623586 0.0015964049163877951 -0.0006878082055785685 0 0 0 0
2606220 -0.3280224201430842 0.042730351274706334 0.0015708334548940608 -0.0007197372203127583 0 0 0 0
2639166 -0.32782106346811785 0.04280099702015754 0.0015315304989692714 -0.0007190758007170776 0 0 0 0
2672112 -0.3272221090596152 0.04242210576532106 0.0015562871515101267 -0.000722615402832378 0 0 0 0
2705058 -0.3270019803489103 0.04241763760014364 0.0015129232286768236 -0.0007390037408693397 0 0 0 0
2738004 -0.32673234989910543 0.04247440723341706 0.001499918460559588 -0.0007921982197262327 0 0 0 0
2770950 -0.32660766759992654 0.04254952825284666 0.0014894491626516679 -0.0007622351555378849 0 0 0 0
2803896 -0.32673616875425 0.04244708710288493 0.001451554138356658 -0.000813261484421792 0 0 0 0
2836842 -0.32596341601169543 0.042645174305450145 0.0014352175365795919 -0.0008047317470353975 0 0 0 0
2869788 -0.3252578586244225 0.042400610504272566 0.0014221456449556673 -0.0008248261102724053 0 0 0 0
2902734 -0.3252089700172389 0.0425439738231401 0.001365022007168019 -0.0008178862017191574 0 0 0 0
2935680 -0.3251899934156807 0.04243745771711465 0.0013434697216996878 -0.0008160732712766928 0 0 0 0
2968626 -0.3247598064072616 0.04277394700856878 0.0013152166517723437 -0.0008199215934025159 0 0 0 0
3001572 -0.3243544965063972 0.04247758386601115 0.0013243206226233642 -0.0008335707147687045 0 0 0 0
3034518 -0.3239710695230261 0.042305755972887445 0.0013055385978727693 -0.0008569962444144524 0 0 0 0
3067464 -0.32403532536881974 0.04264378051981858 0.001221571686649837 -0.0008292538368657847 0 0 0 0
3100410 -0.3236108276109405 0.042548458766439264 0.0012772169842423413 -0.0008282510211936912 0 0 0 0
3133356 -0.32305639461498703 0.04246957601913147 0.001207839172711772 -0.0008759197403315613 0 0 0 0
3166302 -0.32255356710227523 0.042172220028793686 0.001181172223318707 -0.0008518029450561617 0 0 0 0
3199248 -0.32254235810159204 0.04238847946230975 0.0011504046493988052 -0.0008139747669031695 0 0 0 0
3232194 -0.32252378319660424 0.042293112662931814 0.0011392367043832393 -0.0008417758923858226 0 0 0 0
3265140 -0.3218836051289118 0.04253856470093852 0.0010789450063281227 -0.0008115720294693088 0 0 0 0
3298086 -0.3217252575755799 0.04204955602407507 0.0010717409038071904 -0.000797002765362994 0 0 0 0
3331032 -0.32118321404942546 0.04209521997940642 0.0010403147462833195 -0.0008155786455015467 0 0 0 0
3363978 -0.3207954301307042 0.04210757286549011 0.0010223083333371916 -0.0007960539918682046 0 0 0 0
3396924 -0.3207199844908545 0.042304455643266056 0.0010212450092078682 -0.0008183989740066564 0 0 0 0
3429870 -0.3206179587145582 0.04203577771310031 0.0009787689311574698 -0.0008094149094375278 0 0 0 0
3462816 -0.3198628029663962 0.042315428785702984 0.0009414094278441081 -0.0008035753887776556 0 0 0 0
3495762 -0.31995178709934374 0.04239927141464607 0.0009466321186549972 -0.0007718384513223897 0 0 0 0
3528708 -0.3192672430141753 0.04178359416032284 0.0009607995207661026 -0.0007668625036434293 0 0 0 0
3561654 -0.3190544683840424 0.04203770416490454 0.0009065685700383139 -0.0007355462637636301 0 0 0 0
3594600 -0.3188562269243455 0.04219408669723724 0.0009100452764411094 -0.0007315814086063624 0 0 0 0
3627546 -0.3186293764900229 0.042031550388632925 0.000882124553789705 -0.0007240982044770031 0 0 0 0
3660492 -0.31855184954150084 0.042185708634243736 0.0008557599116149289 -0.0006678873557664526 0 0 0 0
3693438 -0.3180230506009828 0.042011652058275 0.0008060234087841545 -0.000699885456047509 0 0 0 0
3726384 -0.3176442226587803 0.04200257014736986 0.0008058572500127288 -0.0006595576310433227 0 0 0 0
3759330 -0.3174346973820617 0.04149717528370269 0.0008238681113550367 -0.0006832343740856394 0 0 0 0
3792276 -0.31701072689133514 0.041531599626614436 0.0008140165452293808 -0.0006376058079593596 0 0 0 0
3825222 -0.31658834362975413 0.041533406799677895 0.0008001986458469782 -0.0006051947219634193 0 0 0 0
3858168 -0.31665109335528585 0.04164706798170775 0.0008060481777334935 -0.0006219859604015371 0 0 0 0
3891114 -0.3159538471803456 0.04156007031837321 0.0007616019212173801 -0.0005923713826873541 0 0 0 0
3924060 -0.3158561764366677 0.04127107142804437 0.0007628404466472219 -0.0005821013468676683 0 0 0 0
3957006 -0.3155922040254603 0.04136680522209606 0.000734156937596326 -0.0005462681861509714 0 0 0 0
3989952 -0.3152772887731229 0.041276607682758794 0.0007427342805371712 -0.0005586759986756311 0 0 0 0
4022898 -0.3150654506988547 0.041165076015042885 0.0007494486421117774 -0.0005314923590190641 0 0 0 0
4055844 -0.31499537948268724 0.04121349151403285 0.0007451580445954907 -0.0005200723039128029 0 0 0 0
4088790 -0.31442644587186697 0.04133743401696323 0.0007341954405610626 -0.0005135788784391584 0 0 0 0
4121736 -0.3141487321203121 0.04091745450663545 0.0007388881305666784 -0.00048220319612131505 0 0 0 0
4154682 -0.31393507794473613 0.04104369292117999 0.0007130692842852365 -0.0005172666443706206 0 0 0 0
4187628 -0.3135371228092922 0.0409230705256945 0.0006864145006882381 -0.00045897894616869105 0 0 0 0
4220574 -0.313424681932482 0.0408098399601473 0.0006893475846215083 -0.00043020707135420347 0 0 0 0
4253520 -0.3133262438336715 0.04074941662172585 0.0006790816070109833 -0.0004236882644600019 0 0 0 0
4286466 -0.31288682137139756 0.040770160174207426 0.0006848786291350327 -0.00039903875757624566 0 0 0 0
4319412 -0.31283815066721765 0.040673037134253874 0.0007141832247489742 -0.00039393908560320714 0 0 0 0
4352358 -0.31223821672134006 0.04044307841969364 0.0006758032839264207 -0.00036020122663795665 0 0 0 0
4385304 -0.3120973537128868 0.04030600361881859 0.0007100212782804926 -0.0003518046326023241 0 0 0 0
4418250 -0.31179427854630604 0.040358971418602806 0.0006898685824494021 -0.00038815035301319976 0 0 0 0
4451196 -0.3116478489820989 0.040389048122696135 0.0006729479803350711 -0.0003402056813830291 0 0 0 0
4484142 -0.31136445777018246 0.040423033979538274 0.000696177632774062 -0.0003205959413976565 0 0 0 0
4517088 -0.31111352650021595 0.040193152227678546 0.0006930661480422459 -0.0003373611750784908 0 0 0 0
4550034 -0.3108925293347093 0.039906324266059036 0.0006569781319046485 -0.00033569950229700137 0 0 0 0
4582980 -0.3106905673922002 0.03982704971751725 0.0006515983679584324 -0.00031494420362689947 0 0 0 0
4615926 -0.3103630366873854 0.03969660566453897 0.000689180292109048 -0.0002717529123322076 0 0 0 0
4648872 -0.3103602193448136 0.03962797561347106 0.0006663652513533381 -0.00029510308752130163 0 0 0 0
4681818 -0.31008504954703137 0.03972309874501236 0.0006678668932931929 -0.0002955889349975444 0 0 0 0
4714764 -0.3097124272351234 0.039714444497481696 0.0006771171843219567 -0.00027775399528849035 0 0 0 0
4747710 -0.3094918490930908 0.03944915310702167 0.0006508412703131062 -0.0002725890959068479 0 0 0 0
4780656 -0.3094417487875893 0.039388587579562394 0.0006833562531073348 -0.00022010264088918305 0 0 0 0
4813602 -0.30915213790709467 0.039162314087014906 0.0006958134747123874 -0.00024325693085343488 0 0 0 0
4846548 -0.3088403899321294 0.039126300126000796 0.0006594550283764982 -0.0001939248101394972 0 0 0 0
4879494 -0.30872913937487884 0.03937574619200753 0.0006971191162048391 -0.0001737483627936044 0 0 0 0
4912440 -0.30856594762047945 0.0391246727130267 0.0007038967220405021 -0.0001910346587349919 0 0 0 0
4945386 -0.3082076684618952 0.03878304801776435 0.0006937691234713409 -0.0001869299568636541 0 0 0 0
4978332 -0.30793789557254697 0.03887696437952997 0.0006826618289801178 -0.00018213374837210583 0 0 0 0
5011278 -0.3078211776805573 0.03889496575306321 0.0006796088884415892 -0.0001748513565957187 0 0 0 0
5044224 -0.3077126299060706 0.038856983233817005 0.0006893248314392721 -0.0001989913352800841 0 0 0 0
5077170 -0.3072924859615137 0.038661788765488314 0.0006809651215637349 -0.0001556865817880592 0 0 0 0
5110116 -0.30730567888515586 0.03853004293440596 0.0007035119271464023 -0.00013025115866593262 0 0 0 0
5143062 -0.30698436621339925 0.03831441260523527 0.0007081534596975695 -0.0001356036715322578 0 0 0 0
5176008 -0.3066239645276926 0.03830296169881351 0.0006804568428731142 -0.00010626397398710062 0 0 0 0
5208954 -0.3066422864322445 0.038183247441334424 0.0006775118293580734 -0.0001500956113652019 0 0 0 0
5241900 -0.30634707345178264 0.03820332461933985 0.0006804394657020435 -0.0001151400971901523 0 0 0 0
5274846 -0.30645416144909615 0.03808718945030361 0.0007094024410979695 -0.00012732248654815834 0 0 0 0
5307792 -0.3061486895436127 0.037724264751529575 0.0006768999785079462 -0.00013590470896071585 0 0 0 0
5340738 -0.3053878206376914 0.03401195255262277 0.0006845556739633531 -0.00010561895090188672 0 0 0 0
5373684 -0.30500279876045633 0.03393521384442479 0.0007160037908437209 -8.414544027774777e-05 0 0 0 0
5406630 -0.3051293991776902 0.0338952433460317 0.000737963646638034 -0.00010052478714064119 0 0 0 0
5439576 -0.3048392156233386 0.033839425435836436 0.0007360621031883539 -8.944130824581269e-05 0 0 0 0
5472522 -0.30473695902596587 0.033654482821994895 0.000702034912324592 -6.284715537187146e-05 0 0 0 0
5505468 -0.30453307887278463 0.03362658838606887 0.0007027432588337778 -9.883555343028201e-05 0 0 0 0
5538414 -0.3043665582587073 0.033408052942871386 0.0007014999127441509 -7.051509346066626e-05 0 0 0 0
5571360 -0.303939990891515 0.033540068170690364 0.0006917390527405957 -5.7051885221026045e-05 0 0 0 0
5604306 -0.3041376502434412 0.03341948901304042 0.000746476770729443 -7.063355582824502e-05 0 0 0 0
5637252 -0.3039389668633554 0.03316630182853885 0.0007066998810543075 -5.5617274099713175e-05 0 0 0 0
5670198 -0.3035958156778284 0.03298182487344349 0.0007153211802516527 -4.2126182168864055e-05 0 0 0 0
5703144 -0.30337634936302116 0.033120622942635486 0.0007298840005303992 -4.012381190267932e-05 0 0 0 0
5736090 -0.30327375576685295 0.03295813211175787 0.000728802680231761 -4.0181951447297576e-05 0 0 0 0
5769036 -0.30316022075714455 0.03271993292189457 0.0007626681213213488 -7.373100017111123e-05 0 0 0 0
5801982 -0.30267300931837415 0.03267644143732974 0.0007185811460049364 -5.446429758237655e-05 0 0 0 0
5834928 -0.3029725168692976 0.03255655633185049 0.0007447776765096334 -3.564016682720846e-05 0 0 0 0
5867874 -0.30280582345437196 0.0324888230251091 0.0007240874948145259 -2.1584292330995608e-05 0 0 0 0
5900820 -0.30253132928919635 0.03244288318184444 0.0007459198757173082 1.8723251400558974e-06 0 0 0 0
5933766 -0.3023848906180156 0.032215455612621666 0.0007521155750373657 -2.043441057068535e-05 0 0 0 0
5966712 -0.3021773878105912 0.03208075928688896 0.0007567747246157324 1.1051232010828265e-05 0 0 0 0
5999658 -0.3022637487782652 0.032028959209079104 0.000751249255330587 2.0546985231011815e-05 0 0 0 0
6032604 -0.3016187382810757 0.031916074853067015 0.0007598144991952724 1.1190200209725095e-05 0 0 0 0
6065550 -0.3018179538039621 0.031719192008144034 0.0007706898244106835 1.0390514467417381e-05 0 0 0 0
6098496 -0.30188950346991844 0.031783175783592146 0.0007587706562843051 3.875063129723998e-06 0 0 0 0
6131442 -0.3014611884308231 0.03161620757568873 0.0007459456251673685 8.638220363927963e-06 0 0 0 0
6164388 -0.3014619022194489 0.03144827827337951 0.0007489252552660553 5.615610420814677e-06 0 0 0 0
6197334 -0.30114683304579054 0.031438755601667756 0.0007626138406510786 3.198608882725994e-05 0 0 0 0
6230280 -0.301180501572006 0.03147102878607112 0.0007857972505416672 2.1172840250174485e-05 0 0 0 0
6263226 -0.3009587804818134 0.031012650042433976 0.0007824772643790708 6.618478494463753e-05 0 0 0 0
6296172 -0.30096615257495507 0.031080337162840626 0.0007660147041923222 1.7257185539243665e-05 0 0 0 0
6329118 -0.3007599694305789 0.030835522891707007 0.0007783126249165611 5.308718963764208e-05 0 0 0 0
6362064 -0.3006492272994286 0.030788579272142933 0.0007759902446730439 5.998475729137441e-05 0 0 0 0
6395010 -0.3007410584112979 0.03077765980051637 0.0007406032861260816 4.2756856096685453e-05 0 0 0 0
6427956 -0.3005474649126376 0.03054422400440145 0.0008033629197088304 4.5102947963208104e-05 0 0 0 0
6460902 -0.30074906808332397 0.03049994930947302 0.0007980070868997913 6.475223597359657e-05 0 0 0 0
6493848 -0.300347583396672 0.030311868295499905 0.0007896455540683738 6.275273135714941e-05 0 0 0 0
6526794 -0.30036676573288884 0.030198303585684157 0.000793436188303942 7.106678498587254e-05 0 0 0 0
6559740 -0.30049039872161387 0.030067379577546065 0.0008073407159493286 6.894159398871519e-05 0 0 0 0
6592686 -0.30027616951176883 0.030004717493030186 0.0008046089291989985 6.796012812757668e-05 0 0 0 0
6625632 -0.30030603459994976 0.029914980763473542 0.0007890054126340986 8.149613878626821e-05 0 0 0 0
6658578 -0.3004737830760569 0.02953749478274798 0.0007949988923394421 9.275118385026449e-05 0 0 0 0
6691524 -0.30033791034499435 0.029423712542739237 0.0008161440376474693 9.422155381048244e-05 0 0 0 0
6724470 -0.30062964076551796 0.02940265811045822 0.0007660990098334802 6.721888052575687e-05 0 0 0 0
6757416 -0.30058508991711297 0.029335496195031494 0.0007765259932707502 9.946468701697946e-05 0 0 0 0
6790362 -0.30065570223883026 0.029125819134611226 0.0008227409608010898 9.688457811387683e-05 0 0 0 0
6823308 -0.30080545224494015 0.029007720845931305 0.0008020550908002855 7.986074695283132e-05 0 0 0 0
6856254 -0.30133680548157415 0.02919301106847758 0.0007795684843533392 0.00010252472557354827 0 0 0 0
6889200 -0.3016201467390087 0.02925303163682541 0.0007742055886480258 0.00011111682043196146 0 0 0 0
6922146 -0.3008786995619191 0.027106026865714117 0.0008032445215778784 0.00010509700656367808 0 0 0 0
6955092 -0.30120077155163044 0.02774365849960012 0.0008396612790603655 0.00010509877373313193 0 0 0 0
6988038 -0.3015432240323134 0.02818660638693408 0.0008254564173147748 9.164908753872874e-05 0 0 0 0
7020984 -0.3016059536498388 0.029062161506322095 0.0008251451413024311 8.748065412778102e-05 0 0 0 0
7053930 -0.3014101554354839 0.029958316394885533 0.0008120069192191502 0.0001011249546491195 0 0 0 0
7086876 -0.3010364389153115 0.03101549163124722 0.000829067980688818 0.00012876912879886135 0 0 0 0
7119822 -0.3002029881715446 0.03190314343852775 0.0008109915913111885 0.0001361511833767534 0 0 0 0
7152768 -0.29890331482906124 0.03223448731309752 0.0008423584612359548 0.0001405975689918747 0 0 0 0
7185714 -0.29773907925488874 0.03248010631835314 0.0008417854146554075 0.00012176593336740594 0 0 0 0
7218660 -0.2970521272662147 0.03190213491096688 0.0008474015032091302 0.00014252739187640073 0 0 0 0
7251606 -0.29632686550539833 0.03168142404198652 0.0008063669819188196 0.00010596945034453242 0 0 0 0
7284552 -0.2956686689866431 0.03118723297314557 0.0008238477816759671 0.00013652719742226956 0 0 0 0
7317498 -0.29522986776981286 0.030751538398807354 0.0008280857307356236 0.00013829017145062383 0 0 0 0
7350444 -0.2947921530982464 0.030426747456979514 0.0008168173793410054 0.00014967295791137896 0 0 0 0
7383390 -0.29487345138402005 0.03001203910023697 0.0008285505895812487 0.00014551226553996042 0 0 0 0
7416336 -0.294340466580955 0.029576249832814754 0.0008366370690554832 0.00012585709243549215 0 0 0 0
7449282 -0.2942555735533924 0.02918388954420241 0.0008535932876648728 0.00011920796238745305 0 0 0 0
7482228 -0.29399633646101414 0.029170317931572244 0.0008678840237752245 0.00014688698297467316 0 0 0 0
7515174 -0.29401890589499474 0.028840796292284282 0.0008429209759271218 0.00014328569791177914 0 0 0 0
7548120 -0.29366656481390746 0.02862489346110921 0.0008523519575119291 0.00016274099968456517 0 0 0 0
7581066 -0.2937149461682545 0.028417818950617783 0.000862496728553036 0.00014727650067227022 0 0 0 0
7614012 -0.2934660258973813 0.027954990275812948 0.0008498970972533855 0.00015864744370191523 0 0 0 0
7646958 -0.2936418668294274 0.028054402131880582 0.0008846292186883142 0.00014979035107055526 0 0 0 0
7679904 -0.2934098044620388 0.027665351719379904 0.0008477943598860037 0.0001381976069757853 0 0 0 0
7712850 -0.2934765449256914 0.027643990881888472 0.0008454071166389217 0.00013773917125958654 0 0 0 0
7745796 -0.29317927268757227 0.02739458240265288 0.0008494818027830669 0.00016900196876406864 0 0 0 0
7778742 -0.29287418195415044 0.02725213938422409 0.0008574781878336227 0.00014753338468096233 0 0 0 0
7811688 -0.29278814867912245 0.027064821622367494 0.0008738732436546716 0.00014247290545666214 0 0 0 0
7844634 -0.29286973476480727 0.02700544730176484 0.0008783945889239662 0.0001512384407886963 0 0 0 0
7877580 -0.2927825121888611 0.026804174487759912 0.0008706123527672797 0.00016389234777069474 0 0 0 0
7910526 -0.29273013054604646 0.02664963019827725 0.0008534748101882875 0.0001606640946237697 0 0 0 0
7943472 -0.29280081286391724 0.026663833837121946 0.0008587306504065761 0.00013690193025909622 0 0 0 0
7976418 -0.29248353875805977 0.0265068799175021 0.000883477979094612 0.00016578256143181684 0 0 0 0
8009364 -0.29237883871556636 0.026367588482319935 0.0008855456051005905 0.00016737323723432234 0 0 0 0
8042310 -0.292432625714797 0.026212699709086847 0.000863459487024881 0.00018167452085775623 0 0 0 0
8075256 -0.29207770012517975 0.026123048915173582 0.0008911032054174565 0.0001743750802780249 0 0 0 0
8108202 -0.2922092765022991 0.025994136173475582 0.0008846478799675233 0.00015070391897524502 0 0 0 0
8141148 -0.292140702587985 0.025864042387753028 0.0008446841636827997 0.00015829542958614297 0 0 0 0
8174094 -0.2920533786957001 0.02581913203894224 0.0008619242238181447 0.0001600606052896591 0 0 0 0
8207040 -0.2918779564277963 0.025804547686481515 0.0008912975815431111 0.00019292616806756418 0 0 0 0
8239986 -0.29180452257618567 0.02549076752767664 0.0008813802224753394 0.0001901741314627111 0 0 0 0
8272932 -0.29161262649782776 0.025569299985855103 0.0008641163992267515 0.00018359567049126417 0 0 0 0
8305878 -0.29171657875532453 0.02533222812929548 0.0008769847080870246 0.00018006835058048874 0 0 0 0
8338824 -0.2916435822598228 0.025190115199164774 0.0008901283561853739 0.0001886520952298946 0 0 0 0
8371770 -0.29167226652766465 0.025214912727927457 0.0008949606998501304 0.0001711661547913102 0 0 0 0
8404716 -0.29142428216978583 0.025154592708640653 0.0008852475876969854 0.00019157052060560987 0 0 0 0
8437662 -0.2913559474578218 0.024889411881400904 0.0008705026648256248 0.00017534951751272329 0 0 0 0
8470608 -0.291296695753353 0.024682253184151737 0.0008893204644780679 0.00023122959384957843 0 0 0 0
8503554 -0.29130590658006755 0.02477075452902357 0.0009019775168000777 0.00020558237904309454 0 0 0 0
8536500 -0.2911844453020273 0.02460295117045979 0.0009079588816194061 0.00019421608195870863 0 0 0 0
8569446 -0.2911502678591143 0.02465138692381484 0.0009038169678996964 0.00018087608443198447 0 0 0 0
8602392 -0.29094588896405515 0.024419038977399787 0.0008971620453307616 0.0002030984065081565 0 0 0 0
8635338 -0.2909051143800254 0.024455820544922083 0.0008888399212281827 0.00016935143185853367 0 0 0 0
8668284 -0.29071229985437136 0.0242986397845378 0.0008854140024543959 0.000196465180986203 0 0 0 0
8701230 -0.2906838906975346 0.024119535501463882 0.0009174825372375628 0.00019446064241657806 0 0 0 0
8734176 -0.2906733081961955 0.024137808730103797 0.0008937148439702017 0.00019844094702351742 0 0 0 0
8767122 -0.2905448719728574 0.02396370103606542 0.0008936233227454774 0.00020710158279909976 0 0 0 0
8800068 -0.29059478103821507 0.02409724774229231 0.0008785189141833985 0.00017054699319822258 0 0 0 0
8833014 -0.2904831135100416 0.023654944460736616 0.0008889260264876072 0.00018867732414573504 0 0 0 0
8865960 -0.29015372136512074 0.023784894768792312 0.000904146334630725 0.00021985371130413373 0 0 0 0
8898906 -0.29035745198318075 0.023651645658317334 0.0008857617456668347 0.00022984271070501568 0 0 0 0
8931852 -0.29037083546637155 0.023585891487507477 0.0008980974351690722 0.00020395449753697037 0 0 0 0
8964798 -0.2902126951612732 0.02357012944107376 0.0009032206115096466 0.00022045037620701646 0 0 0 0
8997744 -0.29011208751505163 0.023396112065625106 0.000872840000074828 0.00021237299915481244 0 0 0 0
9030690 -0.29005470515961357 0.023236017948838516 0.0009027268726637174 0.00019640577729724965 0 0 0 0
9063636 -0.2898264527220288 0.023252512516386815 0.0008951833822166701 0.0002089796986308895 0 0 0 0
9096582 -0.28998914860780756 0.0231513411176681 0.0008874814277509341 0.00023074792347597506 0 0 0 0
9129528 -0.28983549252762864 0.023123302151847845 0.0009196062276502131 0.00022912360862262031 0 0 0 0
9162474 -0.28970318766714515 0.02300010392960388 0.0008909688106974704 0.00022113757132466143 0 0 0 0
9195420 -0.2897428120489144 0.022823013423387644 0.0009041634032737172 0.00020619105033646388 0 0 0 0
9228366 -0.2895472999694638 0.022787540560449238 0.0008722518136596586 0.0002074667079561102 0 0 0 0
9261312 -0.28943502017318384 0.0226798896497916 0.0009010259387995117 0.00023059539103204807 0 0 0 0
9294258 -0.2894808890848043 0.02260265163723013 0.0008953569690207799 0.00021967203011749026 0 0 0 0
9327204 -0.2895140889983229 0.022631928043356675 0.0009168451164405167 0.00023310528034165858 0 0 0 0
9360150 -0.2893469345165369 0.022411870249695074 0.0009187298554768372 0.00022395420554360037 0 0 0 0
9393096 -0.2894764859189946 0.02258833223603066 0.000919151955320317 0.00022905816914921574 0 0 0 0
9426042 -0.289245715151878 0.022362078604149453 0.0009300985372741498 0.00025445717459353503 0 0 0 0
9458988 -0.2893056898486175 0.022194668667602037 0.0008875402211709516 0.000261398337229974 0 0 0 0
9491934 -0.2889066838812501 0.0221656278242838 0.0008951750006440695 0.000230644964230529 0 0 0 0
9524880 -0.2891391166419023 0.02222290887578564 0.000900014931475001 0.00021275078564585883 0 0 0 0
9557826 -0.28896606710469214 0.021941416079199808 0.000939059902031723 0.0002431378213477652 0 0 0 0
9590772 -0.2890361599213644 0.021948747555593916 0.0009073684792299003 0.00021784690514096338 0 0 0 0
9623718 -0.28884944734998047 0.021787381218675204 0.0009346580736311814 0.00022092007000075193 0 0 0 0
9656664 -0.28868245776166446 0.021936450944860818 0.0009007061723384572 0.00021742269855903288 0 0 0 0
9689610 -0.28876017625069295 0.021701395458259592 0.0009226875089492673 0.0002478821005679767 0 0 0 0
9722556 -0.28874212197500826 0.021606870069516438 0.0009276738053626756 0.0002615058392742159 0 0 0 0
9755502 -0.28884678978125 0.021732794056175772 0.0009153506659978919 0.00025543864446867296 0 0 0 0
9788448 -0.288686161133275 0.02138187319922773 0.0008998986038685066 0.0002571679722058681 0 0 0 0
9821394 -0.28843974143695983 0.021387708700976123 0.0009189502934266681 0.00022780398219262473 0 0 0 0
9854340 -0.28826214244206233 0.021311148672215424 0.0009045798718313668 0.00022767546756015513 0 0 0 0
9887286 -0.28846055353008004 0.02128625885745263 0.0009285448599873537 0.0002653628908856431 0 0 0 0
9920232 -0.28850189725281 0.021246041561764916 0.0009120390569687578 0.0002190269033410563 0 0 0 0
9953178 -0.28846503571297316 0.021239921929192357 0.0009356950319526464 0.0002534225265925666 0 0 0 0
9986124 -0.28830739443432557 0.02100010437010013 0.0008990019804007373 0.00027185885521960264 0 0 0 0
10019070 -0.288278975280043 0.020911280570551433 0.0009013803275926539 0.00023939669473407738 0 0 0 0
10052016 -0.28803184745200283 0.020801393420892583 0.0009185913255437443 0.00024139824885735013 0 0 0 0
10084962 -0.28838895288821215 0.0208659960282508 0.0009264314251700362 0.0002411017695525449 0 0 0 0
10117908 -0.28812840684244156 0.020777123607287975 0.0009231216354038663 0.0002583340135174917 0 0 0 0
10150854 -0.28816745989920345 0.02083628170543979 0.0009515474037543779 0.00027151630529880714 0 0 0 0
10183800 -0.2880585533563173 0.02067826515597149 0.0009205116077353452 0.000263454077589963 0 0 0 0
10216746 -0.28789986021574876 0.02040408466262457 0.0009524063502144778 0.00026271540066125787 0 0 0 0
10249692 -0.2878938710361224 0.020466339197549574 0.000928692712195073 0.00025955785313850775 0 0 0 0
10282638 -0.2879351814099562 0.020497522513700843 0.0009266050378866643 0.00023687021135499302 0 0 0 0
10315584 -0.28771947238853224 0.020370775025821432 0.0009389620079951529 0.0002674841364888641 0 0 0 0
10348530 -0.2878392790737898 0.02023213158591221 0.0009622217858232315 0.00027232515956372824 0 0 0 0
10381476 -0.2878413662995473 0.020322198069509766 0.0009257916970215481 0.0002723952196493173 0 0 0 0
10414422 -0.28766314871678333 0.019984683480609968 0.000933871103879931 0.00026485531039405983 0 0 0 0
10447368 -0.28746497582169983 0.020004566300836794 0.0009382745692155308 0.00025504544661874055 0 0 0 0
10480314 -0.2876420496774582 0.020087153901949012 0.0009258776555439801 0.00028407434868431703 0 0 0 0
10513260 -0.28751145720761895 0.019904528233696712 0.000937019744127113 0.00022475874254020248 0 0 0 0
10546206 -0.2874466053255453 0.019878401841735106 0.000919734225254295 0.00024893480987751095 0 0 0 0
10579152 -0.2874427168886143 0.019815223570474272 0.0009393081760389894 0.00021930735621399235 0 0 0 0
10612098 -0.28739877039221146 0.0196864860084747 0.0009665673122789598 0.0002842780329103451 0 0 0 0
10645044 -0.2873538810070225 0.019604927333396846 0.00095053703229976 0.0002900747896917037 0 0 0 0
10677990 -0.28732709918475335 0.019744542645372475 0.0009336045823740928 0.0002878256400683759 0 0 0 0
10710936 -0.28744539918936585 0.019590198340377975 0.0009661182735868558 0.00027178090464239827 0 0 0 0
10743882 -0.28714411032954484 0.019450660714923605 0.0009391475181978515 0.00028214111083339186 0 0 0 0
10776828 -0.28699608059557974 0.019422827653109983 0.0009243079128181365 0.0002953856772805012 0 0 0 0
10809774 -0.2871968411954011 0.019404974391549965 0.0009513286173374912 0.00029453128764632804 0 0 0 0
10842720 -0.28715488650366655 0.019346250184190953 0.0009518658782039378 0.0002858283850987991 0 0 0 0
10875666 -0.2870852826842373 0.01930993233954055 0.0009484922723610242 0.0003096576057685872 0 0 0 0
10908612 -0.2870085135128188 0.01895510328348866 0.0009161644033836222 0.00026894141254407114 0 0 0 0
10941558 -0.2868958207863917 0.019175345532427123 0.0009463911365713488 0.00027260222609445234 0 0 0 0
10974504 -0.2868719948180138 0.018924101641213713 0.0009131636204844352 0.00029343622148981054 0 0 0 0
11007450 -0.28692898771551945 0.018959452155718624 0.000915181817193169 0.00030604303465893304 0 0 0 0
11040396 -0.2869691120354499 0.018850427686231252 0.0009542322879209905 0.00030915519288004996 0 0 0 0
11073342 -0.2867886402777037 0.018726782756225538 0.0009459188482556009 0.00027604308515626183 0 0 0 0
11106288 -0.28682614393616057 0.01872844737038666 0.0009505181629940093 0.0002782654886517221 0 0 0 0
11139234 -0.28659558751429987 0.018727897785583435 0.0009754675246171947 0.000295001319525463 0 0 0 0
11172180 -0.28657523771761456 0.018543071865825402 0.0009677119749888792 0.0002806739647179325 0 0 0 0
11205126 -0.28665938395118024 0.01854650631717393 0.0009774699604289446 0.0002922488654908869 0 0 0 0
11238072 -0.2865907775138553 0.018356285745606833 0.0009622385387408183 0.0003077797084972273 0 0 0 0
11271018 -0.28659082967799737 0.01841840609006041 0.0009554126945621533 0.00029289939409460125 0 0 0 0
11303964 -0.286520292757019 0.01831716652404921 0.0009816075992137624 0.0002881832908786329 0 0 0 0
11336910 -0.2865050650286662 0.018234633807329217 0.0009936796778543238 0.0003052344921161947 0 0 0 0
11369856 -0.2866411060342816 0.01830676927977096 0.000970784291410732 0.0003182503282819157 0 0 0 0
11402802 -0.28636610014247876 0.01810150453534393 0.0009601708064521047 0.0003175745414017471 0 0 0 0
11435748 -0.2863852870994454 0.0178361763629885 0.000967864526252833 0.00032431617234648436 0 0 0 0
11468694 -0.28641590901348 0.018056654908880802 0.0009387953191606256 0.0002836114965158221 0 0 0 0
11501640 -0.28615088484588186 0.017892935499908915 0.0009482041378726432 0.0002636641255074448 0 0 0 0
11534586 -0.28630413127894766 0.017922227439951127 0.0009217717937029205 0.00029322709222465593 0 0 0 0
11567532 -0.2864321385843025 0.018009279998764765 0.0009466183662848931 0.0003150469925031251 0 0 0 0
11600478 -0.2862502118885217 0.01768954836516655 0.0009529066430650787 0.00029986873780301926 0 0 0 0
11633424 -0.2862664726803882 0.01773253880205332 0.0009467133537872686 0.00030110376866159053 0 0 0 0
11666370 -0.28597278650910823 0.017764364986596823 0.0008838077639594583 0.00030003473524935654 0 0 0 0
11699316 -0.28625863657151074 0.017636440760527786 0.0009835900096863573 0.00029440073041435167 0 0 0 0
11732262 -0.286120154734118 0.01759549107396168 0.0009500990105815742 0.0003357455693619341 0 0 0 0
11765208 -0.285997374884589 0.01758722987617065 0.0009386964767976812 0.0003089446781338277 0 0 0 0
11798154 -0.2861276945809666 0.017417982751864885 0.0009793962343123243 0.0003189720559334688 0 0 0 0
11831100 -0.285840425337396 0.017425427570043155 0.0009578909645713796 0.0003347246661485613 0 0 0 0
11864046 -0.28607287164490824 0.017342425783059206 0.0009729585704091966 0.0003239997368195345 0 0 0 0
11896992 -0.286016322519777 0.017352829015626146 0.0009654162896374143 0.00032543936646457175 0 0 0 0
11929938 -0.2861846775588325 0.0173022241389637 0.0009568804803475254 0.00030627344122084044 0 0 0 0
11962884 -0.2859099652620577 0.01712288709988563 0.0009497001495013748 0.0003172814017776786 0 0 0 0
11995830 -0.2858540719718586 0.017024971206585162 0.0009569555867350737 0.00032959929600595887 0 0 0 0
12028776 -0.2855677910365447 0.0169709244601322 0.000990851676559604 0.0003541813088701079 0 0 0 0
12061722 -0.28586397942975733 0.016995106088830456 0.000975525560542709 0.0003154014109983785 0 0 0 0
12094668 -0.2857111611268168 0.016881252884180596 0.000961590660857803 0.0003142833966874044 0 0 0 0
12127614 -0.28582720654516164 0.016971759208153 0.0009756728550086966 0.0003348708726130808 0 0 0 0
12160560 -0.2856735940247293 0.016807063886695048 0.0009883160583798992 0.0003362969995162837 0 0 0 0
12193506 -0.28576921175437814 0.0168803828538133 0.0009662583788575541 0.0003343521522587854 0 0 0 0
12226452 -0.2854872503422837 0.016796776729314337 0.00096243704036395 0.0003254465537817841 0 0 0 0
12259398 -0.2856580561042217 0.01666677773873981 0.0009917254238403462 0.00032812342438546377 0 0 0 0
12292344 -0.28579749384933834 0.016773286818424774 0.0009825379248406222 0.00032363115212919266 0 0 0 0
12325290 -0.28546911264016467 0.01645574684766173 0.0009854056701878396 0.0002995775656198568 0 0 0 0
12358236 -0.2855640307827404 0.016417150231954468 0.00098357524624924 0.0003203294617801639 0 0 0 0
12391182 -0.28529740234703077 0.016258981172539842 0.0009560980282749648 0.00033017538835162244 0 0 0 0
12424128 -0.2855571054494995 0.01617904421751301 0.0010072324850379745 0.0003268659986883862 0 0 0 0
12457074 -0.28547994541125155 0.016191269426593997 0.0009692442690128203 0.0003097108528779733 0 0 0 0
12490020 -0.2856908006418565 0.016529168292419624 0.00096590337778888 0.0003548067991486764 0 0 0 0
12522966 -0.28567060989782167 0.016456876207756998 0.0009769795802932345 0.0003154716855155897 0 0 0 0
12555912 -0.28552060885198355 0.016356627762463164 0.0009845477384388512 0.0002889146723958423 0 0 0 0
12588858 -0.285543692106464 0.016182281837319047 0.0009824014652389205 0.00034945207021639307 0 0 0 0
12621804 -0.2853610689085189 0.015909438004312052 0.0009560315065930735 0.00033574634573613085 0 0 0 0
12654750 -0.2853546715168476 0.01600290210178757 0.0009697287335992731 0.00033787228333553377 0 0 0 0
12687696 -0.2850366146691578 0.01575105002176621 0.00098723042840727 0.0003216090196198497 0 0 0 0
12720642 -0.2851614438815513 0.015799843096415404 0.0009747507092687317 0.000318292795748544 0 0 0 0
12753588 -0.2851528638320553 0.015829745661594806 0.0009887056859368515 0.00037499300713526 0 0 0 0
12786534 -0.28544918362512545 0.016003133124627835 0.0009660885269386074 0.0003627045018548296 0 0 0 0
12819480 -0.2854267056512925 0.015849980309218872 0.0009508592451412399 0.00033403897203582573 0 0 0 0
12852426 -0.28498976179765473 0.01568091053583324 0.0009937673229571571 0.00035861540208226154 0 0 0 0
12885372 -0.28496488154866917 0.015510098730430875 0.0009578788762935046 0.0003358548812393125 0 0 0 0
12918318 -0.28513250331355916 0.015495239513063468 0.00095307270778789 0.00037081232683408203 0 0 0 0
12951264 -0.28532001760738673 0.015523095803237373 0.0009829659018205322 0.0003507076977208942 0 0 0 0
12984210 -0.28500589646884256 0.015540141886776142 0.0009587887736930393 0.0003376287687636869 0 0 0 0
13017156 -0.2852940382679735 0.015586321649420155 0.0009669124551343654 0.0003325284336300802 0 0 0 0
13050102 -0.28488452516816953 0.015200837679405834 0.0009794208057049064 0.0003607003496377704 0 0 0 0
13083048 -0.28493851830985034 0.015217423792181781 0.0009716686179857618 0.00035353179390179963 0 0 0 0
13115994 -0.28498727392130835 0.01521135055389504 0.001006408655739521 0.0003488936422114482 0 0 0 0
13148940 -0.28485069198243634 0.015188936971400994 0.0009826320755857844 0.0003598737140517572 0 0 0 0
13181886 -0.28490017683714414 0.015034376167017159 0.0009751518494996934 0.00035012998709460605 0 0 0 0
13214832 -0.28480903769585014 0.014966054466203665 0.00098810979981907 0.0003491984813784903 0 0 0 0
13247778 -0.28489397029512487 0.015055583411099412 0.0009962985150011627 0.00036473630880586434 0 0 0 0
13280724 -0.2848018239688361 0.015093272869820627 0.0010064148105882855 0.0003608714263865248 0 0 0 0
13313670 -0.2848875111152076 0.014925600710860444 0.0009798596317262052 0.00038087637524851384 0 0 0 0
13346616 -0.2847867369743686 0.014951261151302749 0.0010003084635416691 0.00035659059045810537 0 0 0 0
13379562 -0.2848577268792878 0.014933912185236401 0.0009862419721970248 0.00037315395356751486 0 0 0 0
13412508 -0.28466350294758186 0.014831509775910995 0.0010216644601244776 0.00037647090648629104 0 0 0 0
13445454 -0.2850013787399512 0.014783394818040727 0.0009750832707089871 0.00035301520432693643 0 0 0 0
13478400 -0.2846556191113203 0.014712232131069399 0.0009978475630794642 0.0003821367734669931 0 0 0 0
13511346 -0.2847489301571483 0.01472528275406236 0.0009896485334789835 0.0003782393482306966 0 0 0 0
13544292 -0.2848593189065061 0.014516017022843516 0.0009802818455507147 0.000369820857746225 0 0 0 0
13577238 -0.284743790414523 0.014620525307126955 0.0009704762117420989 0.0003357011867715771 0 0 0 0
13610184 -0.28465437649252934 0.01452379906409986 0.0010055194184754545 0.0003387015866904133 0 0 0 0
13643130 -0.284519284669052 0.0144363031450647 0.0010014318213365423 0.0003672591654580081 0 0 0 0
13676076 -0.28463702074705494 0.014446533804307623 0.001005871278175333 0.00036630423062822195 0 0 0 0
13709022 -0.28451658233364546 0.014501785665370668 0.0009821724112601446 0.0003785896659352592 0 0 0 0
13741968 -0.28459707889002794 0.014374840333009562 0.0009848071155316928 0.00036869966520475543 0 0 0 0
13774914 -0.28470398041109707 0.014275681878896112 0.0009902308425817853 0.00035966665557467345 0 0 0 0
13807860 -0.28456587817969486 0.014188244327200778 0.0010040761060002427 0.0003899276662707502 0 0 0 0
13840806 -0.28448287414724743 0.014076864798476975 0.0009822311522260138 0.00036879340526439823 0 0 0 0
13873752 -0.2845539725200194 0.014075320884187503 0.0009743597225768605 0.00035420966381160624 0 0 0 0
13906698 -0.28447269848539336 0.014155516111440933 0.0009961770467859653 0.000370080983980822 0 0 0 0
13939644 -0.2845051199938784 0.013992624888278127 0.000998597521144453 0.0003886799072241689 0 0 0 0
13972590 -0.2845431151542419 0.013899200281036498 0.0010249656928323762 0.0003706889073398029 0 0 0 0
14005536 -0.284537065735308 0.014022096744482014 0.001023038001582959 0.0003990494969092435 0 0 0 0
14038482 -0.2843884715545989 0.013835327421008565 0.0010134583000655799 0.000405817272999191 0 0 0 0
14071428 -0.2845793878723496 0.013944416837504487 0.0009998448041402843 0.0003524431478138334 0 0 0 0
14104374 -0.28457733151655873 0.013912833861301063 0.0010137626211344866 0.00038565202760408476 0 0 0 0
14137320 -0.2846045713627576 0.013849380400649912 0.0010168557584908596 0.00037979841614030064 0 0 0 0
14170266 -0.2844581817586879 0.013785913294146317 0.0009913725599273123 0.0003722596522540141 0 0 0 0
14203212 -0.2843617560733056 0.013604271017165739 0.0010036760713214108 0.0003891353992718072 0 0 0 0
14236158 -0.2844117679376481 0.013729605162938495 0.0009827998403774054 0.00039659481827773957 0 0 0 0
14269104 -0.28422224073642205 0.013534313425729324 0.0010189544069999573 0.0003812124130088749 0 0 0 0
14302050 -0.2843943998534523 0.01357279717075773 0.0010064524888104256 0.0003816904781644922 0 0 0 0
14334996 -0.28461436961479847 0.01375306017152165 0.0009905213636118135 0.00039258638971386193 0 0 0 0
14367942 -0.28409696488867503 0.013294683179609154 0.001003083326689811 0.00039358133959887343 0 0 0 0
14400888 -0.28422401118354773 0.013352117939314933 0.0010147202115232058 0.0004178820404249366 0 0 0 0
14433834 -0.2841467673792492 0.013204882382593491 0.0010034598549870093 0.00039545022678486486 0 0 0 0
14466780 -0.2844852372629482 0.013330710710060732 0.001012724658909227 0.00038500821220400355 0 0 0 0
14499726 -0.284388490764898 0.013361255412534438 0.0010229121319244078 0.0003881432130157009 0 0 0 0
14532672 -0.2843301161038544 0.01338307083393001 0.001004426538479771 0.0003989960924243518 0 0 0 0
14565618 -0.2841142499566643 0.013147651095561552 0.0010216406985943964 0.00040057920721508225 0 0 0 0
14598564 -0.2843292892915657 0.013096387511497994 0.0010235935575152507 0.00042758885464888314 0 0 0 0
14631510 -0.28433431308191276 0.013065452928420861 0.0010168149823172937 0.0003892226450058293 0 0 0 0
14664456 -0.2840391225002088 0.012911836996732035 0.001018163868945169 0.00038856031079848355 0 0 0 0
14697402 -0.28423293023179586 0.01312212790111009 0.0010023607728218364 0.000414315545423732 0 0 0 0
14730348 -0.2841774048939423 0.013017346682193068 0.0009968614051366223 0.00040557716027889504 0 0 0 0
14763294 -0.28411202289300264 0.012923046590914828 0.0010186121708787538 0.0004020946933951673 0 0 0 0
14796240 -0.28440025524998114 0.013057288551961421 0.0009969774866495531 0.00038630512240918883 0 0 0 0
14829186 -0.2840602874017237 0.012834569511097895 0.0010022879211918337 0.00040051941483157085 0 0 0 0
14862132 -0.2839400434195666 0.012750309218040328 0.0010023841685840118 0.0003876023022346562 0 0 0 0
14895078 -0.2841069503328176 0.012773372401978997 0.001008020998623518 0.00040642667940009173 0 0 0 0
14928024 -0.2841798320493464 0.012738486626995092 0.0010071318639322175 0.00042180924396566363 0 0 0 0
14960970 -0.28429200576750924 0.012789760604009175 0.0010307390957063959 0.00043194791513764927 0 0 0 0
14993916 -0.2840017138209917 0.01263678068355996 0.001018047080318664 0.00041684791359567413 0 0 0 0
15026862 -0.2840681934478139 0.012660450538811326 0.0010117626294434035 0.0004219976810024267 0 0 0 0
15059808 -0.28413382418462035 0.012591697961391517 0.0010159765116891206 0.0003976298247483357 0 0 0 0
15092754 -0.28403289287256483 0.012658163954843475 0.0009945938336146656 0.0004049677257178704 0 0 0 0
15125700 -0.28420267614423 0.01253460904116054 0.001012683881318671 0.0003979592439765905 0 0 0 0
15158646 -0.28417506686464694 0.012605998248032524 0.0010267775213844755 0.0004081565193861571 0 0 0 0
15191592 -0.28391664941902206 0.012250965229887974 0.0010265985690867058 0.0004238184576644928 0 0 0 0
15224538 -0.2840677738627403 0.012226178803268244 0.0010245295017411002 0.00042765459778688403 0 0 0 0
15257484 -0.2842023430773984 0.012349311071749707 0.001031316945710209 0.00040662431034024825 0 0 0 0
15290430 -0.28392381014637463 0.012141396769790275 0.001030957626420299 0.00041946722344136873 0 0 0 0
15323376 -0.2839476768534938 0.01224283303880127 0.0010009313732938013 0.00042625888322057675 0 0 0 0
15356322 -0.2840448054655034 0.012200868380402423 0.0010392143581293945 0.0004322154478005331 0 0 0 0
15389268 -0.2840675071985125 0.012174294003341777 0.0010076195905619012 0.00042546071504985376 0 0 0 0
15422214 -0.2839273923389785 0.011907209357596092 0.0010567546763812468 0.00039871686309857023 0 0 0 0
15455160 -0.2840403537370179 0.012073998594503206 0.0010227103817980032 0.0004201655847817971 0 0 0 0
15488106 -0.2838089356882817 0.011995828289918025 0.0010272962554212339 0.00041910211311821334 0 0 0 0
15521052 -0.2839098148386985 0.012002527687373008 0.0010457769689747286 0.0004183529037929737 0 0 0 0
15553998 -0.28406071518403697 0.012034275828045482 0.0010209897146541737 0.00040705738152737003 0 0 0 0
15586944 -0.28377807663787824 0.011741302008721503 0.0010200707737850854 0.0004399178222088832 0 0 0 0
15619890 -0.28374898006106153 0.01195045025678438 0.0010337062086801254 0.00044701742603941373 0 0 0 0
15652836 -0.2839311025184213 0.01184078716488405 0.001001671920000848 0.00043893960667067453 0 0 0 0
15685782 -0.2839103403285194 0.011911735071763489 0.0009978765086344982 0.00038641752970379104 0 0 0 0
15718728 -0.28402313721644457 0.011759909403707365 0.0009796832732383667 0.0004758474046997645 0 0 0 0
15751674 -0.28383010217737875 0.01167663364109547 0.0010281403666766564 0.00049019507509706 0 0 0 0
15784620 -0.2838067638884287 0.011598080178981701 0.0010015974501999907 0.0005852260989026119 0 0 0 0
15817566 -0.28392970668307976 0.011734845788282777 0.0008322736290050345 0.00043632318477186444 0 0 0 0
15850512 -0.2839830057137171 0.011606804379282663 0.0010905448967447027 0.0004500737219993058 0 0 0 0
15883458 -0.28393939856405703 0.011571025973715478 0.000921899151838101 0.00041448652090825635 0 0 0 0
15916404 -0.2839057214332675 0.011303610489868783 0.0009888628786743974 0.0004639329518842863 0 0 0 0
15949350 -0.28377785473261297 0.011412228553416993 0.0010236241559440067 0.0004250867686029435 0 0 0 0
15982296 -0.2837495694141995 0.011564183805038587 0.001044348572316712 0.00042266617397151957 0 0 0 0
16015242 -0.2837669938176998 0.011468639071715572 0.0010289113302507575 0.00045812074230137305 0 0 0 0
16048188 -0.2840770425240553 0.011547651409348122 0.001065813164815163 0.0004504035194668971 0 0 0 0
16081134 -0.28375413626249857 0.011335176714283543 0.0010160678139620205 0.00045253377302275196 0 0 0 0
16114080 -0.28377502077309513 0.011192927914012968 0.0010304370699394762 0.00041294861597410414 0 0 0 0
16147026 -0.28368004121831025 0.011160421028344143 0.0010291064829064294 0.000464039610354979 0 0 0 0
16179972 -0.283723264919172 0.011211505901608357 0.001049775926718869 0.0004479455275920662 0 0 0 0
16212918 -0.283747107800022 0.011233110318462221 0.0010276623607065483 0.00043905542064180897 0 0 0 0
16245864 -0.28376370193201567 0.01108048620044648 0.0010307790019069894 0.00042692498713079515 0 0 0 0
16278810 -0.2836312921836143 0.011154926785549373 0.0010592672496988285 0.0004259214359987928 0 0 0 0
16311756 -0.2836535656968212 0.010886321097295372 0.0010229968893256916 0.00045301309032314067 0 0 0 0
16344702 -0.28376227734145315 0.011114690138041694 0.0010346814442615056 0.00044985010664255287 0 0 0 0
16377648 -0.2839733329685899 0.010902571996321293 0.0010403854297607428 0.00047634724101479445 0 0 0 0
16410594 -0.2836367335396238 0.011035590686117525 0.0010387686742399727 0.00041866493580158224 0 0 0 0
16443540 -0.283845650375354 0.010954914012923525 0.0010321460282788344 0.0004490213021237914 0 0 0 0
16476486 -0.28353432714142435 0.010721345941789936 0.0010458743811257243 0.00046777944289196527 0 0 0 0
16509432 -0.28363372451676133 0.010873880934199102 0.001037764482184288 0.0004494346170441422 0 0 0 0
16542378 -0.2838703629857827 0.010950946237915338 0.001041151634174172 0.00046737669006907765 0 0 0 0
16575324 -0.2836985882638728 0.010724280744937875 0.0010184293592311283 0.0004529287960176162 0 0 0 0
16608270 -0.2837879857899085 0.010743402396756157 0.001045093093297619 0.00046000665167018656 0 0 0 0
16641216 -0.283363082125239 0.01068282974450928 0.0010309803389632441 0.00044013342759865066 0 0 0 0
16674162 -0.2836629476544659 0.010752169557622825 0.0010679258552122115 0.0004779866794621603 0 0 0 0
16707108 -0.2833993272871959 0.010821620447778285 0.0010483100748575622 0.00045996384489558814 0 0 0 0
16740054 -0.28387644682608604 0.010748795902142115 0.0010789220940148757 0.00043656124827314724 0 0 0 0
16773000 -0.2839712875724269 0.01062586620606276 0.001068708054517816 0.0004750943547828689 0 0 0 0
16805946 -0.283438422342051 0.010407092767581618 0.0010669459587874792 0.0004581484319959404 0 0 0 0
16838892 -0.283869728029236 0.010237376921193798 0.0010528205678616183 0.00047128536087410046 0 0 0 0
16871838 -0.2837196903080265 0.01050779513111123 0.0010539176302191984 0.0005062234150832201 0 0 0 0
16904784 -0.28369844899125324 0.010430678079687616 0.0010554811805386405 0.00045139064023142064 0 0 0 0
16937730 -0.2837028303160409 0.010477832527929914 0.001050133666208992 0.00047794472223259334 0 0 0 0
16970676 -0.28382993218849645 0.010537641269443782 0.0010404436900034368 0.0004560559841216216 0 0 0 0
17003622 -0.2838887969381069 0.010221980284015482 0.001063270040735579 0.00045208700734351463 0 0 0 0
17036568 -0.28359150620560697 0.010283473532698546 0.0010636591997322574 0.0004631589763928689 0 0 0 0
17069514 -0.28356319964181786 0.010327880451876733 0.0010590186605650893 0.00048098259187147227 0 0 0 0
17102460 -0.2836627490620775 0.010430882804240624 0.0010805740819409262 0.0004730559069840661 0 0 0 0
17135406 -0.28359339449466636 0.010177269032566121 0.0010400659510922984 0.00047271349566225396 0 0 0 0
17168352 -0.2836899304623697 0.010084904122242198 0.0010502423899231854 0.00044985740022075553 0 0 0 0
17201298 -0.28361906577410834 0.010094298608817323 0.0010601545598667638 0.00047771105758181423 0 0 0 0
17234244 -0.28372897064004 0.010145945434579418 0.0010703568846982244 0.00043736973937941783 0 0 0 0
17267190 -0.2837174802296944 0.010059642489617876 0.0010253202400238245 0.0004716217842538913 0 0 0 0
17300136 -0.2836672332997817 0.010108953797203434 0.0010830278958757226 0.0004554956316676312 0 0 0 0
17333082 -0.283569826771635 0.010019905903895157 0.0010456902256589151 0.00044795427615605145 0 0 0 0
17366028 -0.28375834950996376 0.009963486306123615 0.0010577567188216344 0.00048124334216280657 0 0 0 0
17398974 -0.28357730353977234 0.010142747598598395 0.0010898833156780324 0.0004603721884660421 0 0 0 0
17431920 -0.283752537001073 0.010029801128593446 0.001008957562831277 0.0005504776663443664 0 0 0 0
17464866 -0.2836037754574298 0.009752334552914696 0.0008761525091348756 0.0006029214807826395 0 0 0 0
17497812 -0.2836130828563878 0.009848690743520102 0.0010159945809249727 0.0006063111379168655 0 0 0 0
17530758 -0.28317457437698124 0.009709229062943556 0.0010456240930518327 0.00046388869579061645 0 0 0 0
17563704 -0.2837698938464571 0.009934879389161579 0.0011784264701826775 0.0005804572850719325 0 0 0 0
17596650 -0.2835360781351561 0.009705317020458022 0.0012141348873832242 0.0004007825556854657 0 0 0 0
17629596 -0.2836182071208406 0.00960879534872294 0.0010069964003850346 0.0005069370459291434 0 0 0 0
17662542 -0.2834050863541348 0.00987516047598566 0.0010451097944675228 0.000602661661383423 0 0 0 0
17695488 -0.28371398784685115 0.009615080358026206 0.0010093268886124534 0.00047725615754632566 0 0 0 0
17728434 -0.28360514871986914 0.009599266289764864 0.0010539426347964743 0.0004816930282707089 0 0 0 0
17761380 -0.28368046289289384 0.009645871718464132 0.0010500292374600994 0.000489082140788195 0 0 0 0
17794326 -0.283544117256947 0.009590981878745112 0.0010461557823295464 0.0004564294810748448 0 0 0 0
17827272 -0.2837062482479806 0.009654608993405778 0.0010463592977516278 0.0005115002458414067 0 0 0 0
17860218 -0.2836990541366231 0.009629037001280465 0.0010455805840080927 0.000486684391720024 0 0 0 0
17893164 -0.2836796168910827 0.0093643118063619 0.0010548030770088704 0.000492418849599971 0 0 0 0
17926110 -0.28348900126667675 0.00934189857604706 0.0010756709447192394 0.0005201552909604416 0 0 0 0
17959056 -0.28358688899999557 0.009407866964641177 0.0010822394071985867 0.0004951512389970392 0 0 0 0
17992002 -0.2836070916063165 0.00948529579164872 0.0010808594655030068 0.0004871582364172373 0 0 0 0
18024948 -0.28377197242012625 0.009272775026504752 0.0010741268068815725 0.0005016907917305306 0 0 0 0
18057894 -0.28370993910966086 0.009239949400226405 0.0010668874096072035 0.0005147430144514304 0 0 0 0
18090840 -0.2837353777162044 0.009546450797661601 0.0010566947208929562 0.00046922884064411067 0 0 0 0
18123786 -0.28362400718361663 0.009192107640096139 0.001078975950141615 0.0004904244175841011 0 0 0 0
18156732 -0.2835897567941322 0.009422822069795755 0.0010442655419435933 0.0005081621329568715 0 0 0 0
18189678 -0.28358216335643843 0.009062871403899539 0.0010533400388077565 0.0004865485090398689 0 0 0 0
18222624 -0.28375334192916135 0.009039542033485774 0.0010536331419303349 0.00047175642323317506 0 0 0 0
18255570 -0.28386965317704876 0.009344174691585978 0.001081407270645357 0.0004975637247076288 0 0 0 0
18288516 -0.2835999853975715 0.008695587679767691 0.001035340922109515 0.0005115632531681218 0 0 0 0
18321462 -0.283671400987857 0.008972437423802356 0.0010663098665732197 0.0005132129803048481 0 0 0 0
18354408 -0.28363586470726265 0.009083880403545854 0.0010830384290058464 0.00050348879223528 0 0 0 0
18387354 -0.2837613915829207 0.009504131491408099 0.0010796416284288835 0.0005153767586596498 0 0 0 0
18420300 -0.28370339233658304 0.009032400395678446 0.0010671183058084705 0.000478654749679205 0 0 0 0
18453246 -0.28355990130114894 0.008956941729070921 0.0010553267457152763 0.0005157880962100247 0 0 0 0
18486192 -0.28361232054351543 0.008783677922479263 0.0010598066436498246 0.000504801776063223 0 0 0 0
18519138 -0.2836207055582652 0.008965083537428557 0.0010666468546921587 0.0005375186589574865 0 0 0 0
18552084 -0.28370805798357 0.00890586819286177 0.0010867069834294618 0.0005062608952261618 0 0 0 0
18585030 -0.28360755423399003 0.008898611873704243 0.0010877310883961957 0.0005212395702412024 0 0 0 0
18617976 -0.28349768990637647 0.008663731999013139 0.0010784479542229604 0.0005113578503248903 0 0 0 0
18650922 -0.2836080893744795 0.008801843505005987 0.0010840152099927032 0.0005043712710755213 0 0 0 0
18683868 -0.28345230106019625 0.0086065752354363 0.0010782838982842016 0.0005018620086244158 0 0 0 0
18716814 -0.2837247641330102 0.008813833891299201 0.0010583185025991322 0.0004983715773154548 0 0 0 0
18749760 -0.28388900595644734 0.008661498141925872 0.0010806783320220573 0.0005601906148525713 0 0 0 0
18782706 -0.2834189176051016 0.008685576564015094 0.0010637783940704484 0.0005481784563907443 0 0 0 0
18815652 -0.28365038375263835 0.008811761711800538 0.0010899297669153824 0.0005012977388781306 0 0 0 0
18848598 -0.283868032896758 0.008707476730775363 0.001074322157853238 0.0005240676440108502 0 0 0 0
18881544 -0.28361004956779234 0.008566729867068804 0.0010774191814467752 0.0005177794865702087 0 0 0 0
18914490 -0.2834791376366724 0.00818444659979146 0.0010757925491359768 0.0005334185728139182 0 0 0 0
18947436 -0.2837180145196469 0.008583693637579673 0.0010800841105668194 0.0005115491121374705 0 0 0 0
18980382 -0.28374065509486057 0.008430815714099317 0.001063399082793412 0.0005164145336753228 0 0 0 0
19013328 -0.2835877976011373 0.008321044146447564 0.0010751063911098929 0.0005417351558296334 0 0 0 0
19046274 -0.2838711596314553 0.008427811058713932 0.0010757146070736274 0.0005278777619661421 0 0 0 0
19079220 -0.28350794648931626 0.008331083212570835 0.0010341861353491725 0.0005452364332092441 0 0 0 0
19112166 -0.28368730335524905 0.008322396279277706 0.001055652602672676 0.0005496328302371993 0 0 0 0
19145112 -0.2835301854130794 0.008421000359972203 0.001065003190266638 0.0005436956414052012 0 0 0 0
19178058 -0.28364607106744333 0.008312395375199321 0.0010742713165842366 0.0005243710582634294 0 0 0 0
19211004 -0.28384544096201614 0.008302256270694615 0.0010735172204513665 0.0005302517258325992 0 0 0 0
19243950 -0.28373986250565064 0.008373062474350799 0.0011167194775663566 0.0005458293973279641 0 0 0 0
19276896 -0.28349716429244637 0.008101132775277723 0.0010763087841262294 0.0005081996443690427 0 0 0 0
19309842 -0.28372813619897097 0.008200233103504602 0.0010791791442261883 0.0005292837035072994 0 0 0 0
19342788 -0.28368387473599715 0.008285242552880484 0.0010883430164782782 0.0005449363138697746 0 0 0 0
19375734 -0.2836069901263824 0.007977691507333714 0.0010877270052485856 0.0005270038149480741 0 0 0 0
19408680 -0.28356584203340623 0.007997555350469233 0.0010789989724409612 0.0005461485500290265 0 0 0 0
19441626 -0.28374707625914386 0.008047092510226818 0.0010801724064302002 0.0005394364978169212 0 0 0 0
19474572 -0.28364245978004843 0.008035094002955007 0.001083406041974133 0.0005380987375666479 0 0 0 0
19507518 -0.28401067665348817 0.00823140484637071 0.0010726497557193813 0.0005431625948134892 0 0 0 0
19540464 -0.2836481902769646 0.007808526367954177 0.0010984108241518934 0.0005221625214571638 0 0 0 0
19573410 -0.2837869901893036 0.008013809056869532 0.0010877708446708264 0.0005340104059316503 0 0 0 0
19606356 -0.28368849563179577 0.007883667618148562 0.001103699643509186 0.0005223501564792347 0 0 0 0
19639302 -0.2836029896068756 0.007798565481416144 0.0010869051069732835 0.000535667485118509 0 0 0 0
19672248 -0.2838399824331038 0.007892156465766489 0.0010912718051403086 0.0005357768119032157 0 0 0 0
19705194 -0.28372003850773236 0.007915607595788549 0.0010751507766861273 0.000548661207112914 0 0 0 0
19738140 -0.28395988240592585 0.007827096396823479 0.0010671417902074138 0.0005266360985464718 0 0 0 0
19771086 -0.2834549907060117 0.007692569390858858 0.0010852627619185398 0.0005488077847750355 0 0 0 0
19804032 -0.28371949329872626 0.0077328656205368045 0.0010941074124625513 0.0005516068959848041 0 0 0 0
19836978 -0.28386797339463793 0.007743431686870631 0.0010701482486073421 0.0005469336587838004 0 0 0 0
19869924 -0.2839261666894193 0.007773200280526152 0.0011082355148144358 0.0005074649546483804 0 0 0 0
19902870 -0.28353420533270496 0.00764156407104113 0.0011148033042530524 0.0005550622398782108 0 0 0 0
19935816 -0.2838256630147547 0.007787490232028116 0.0010888361153021456 0.0005452577383393053 0 0 0 0
19968762 -0.28369177268901896 0.00769298987889112 0.0010790540806930138 0.0005433784787454675 0 0 0 0
20001708 -0.28377269405980554 0.007682207362973001 0.001097442391199298 0.0005326540409456728 0 0 0 0
20034654 -0.28355734741215394 0.007440180931075806 0.0010857005438747588 0.000516698372944939 0 0 0 0
20067600 -0.28392849217744875 0.00768858528342067 0.0010835220070945853 0.0005415007711415072 0 0 0 0
20100546 -0.28378937905963586 0.007521132783824902 0.0010916869475769966 0.0005400730054642822 0 0 0 0
20133492 -0.28365314203128833 0.007534432761994205 0.0010860995093532825 0.0005654360638760147 0 0 0 0
20166438 -0.2839016286306753 0.007476950505949411 0.001109321300554063 0.0005504147103442905 0 0 0 0
20199384 -0.2837509750504651 0.007459992362891561 0.0010923594384119413 0.0005556661097641388 0 0 0 0
20232330 -0.28376015021191997 0.007551908749077017 0.0010879639773184653 0.0005617976887520286 0 0 0 0
20265276 -0.28397245654588055 0.007473767413818144 0.001117823766968006 0.0005697513122639204 0 0 0 0
20298222 -0.2838256726713604 0.0072895564045334 0.0010840268195421287 0.0005405596040757144 0 0 0 0
20331168 -0.2839643964822786 0.007427055262144378 0.0010963005394799582 0.0005458850019527942 0 0 0 0
20364114 -0.28368169155574025 0.007190206361134684 0.001112166766908651 0.0005463342483690057 0 0 0 0
20397060 -0.2838285132116503 0.00744577323991214 0.0010812067685403192 0.0005604283229648104 0 0 0 0
20430006 -0.2838336577719147 0.007272988005128975 0.00108518066837566 0.0005456516045834767 0 0 0 0
20462952 -0.2836721622192223 0.007112740049931181 0.001098817164030256 0.0005463861432239965 0 0 0 0
20495898 -0.2839397027722958 0.00739478389656422 0.001086776640497168 0.0005660058783193087 0 0 0 0
20528844 -0.28364551873356236 0.007132577196349603 0.001083082905804145 0.0005546860829321793 0 0 0 0
20561790 -0.2836714229100581 0.0071987903096364615 0.0010925661309766365 0.0005588309829620794 0 0 0 0
20594736 -0.2840350927869942 0.0072728104889335935 0.0011210197723639825 0.0005800637340697471 0 0 0 0
20627682 -0.2839451995186637 0.007124492262117124 0.001055445831676466 0.000564063162252271 0 0 0 0
20660628 -0.2838914612403264 0.007177975583535598 0.0010845158345715183 0.0005738013124085854 0 0 0 0
20693574 -0.2836541086253378 0.007070687974618092 0.0011044786998427633 0.0005523941427247938 0 0 0 0
20726520 -0.28364672305512567 0.006910772124586013 0.0010851378301741754 0.0005714605428440062 0 0 0 0
20759466 -0.2838729979372438 0.006911958977666625 0.0011021105406601823 0.0005702305598021483 0 0 0 0
20792412 -0.2838383239776368 0.006863227935351362 0.0011052014438640218 0.0005417996403295151 0 0 0 0
20825358 -0.284033562944 0.007005752222404461 0.0010924530695589165 0.0005920312031874226 0 0 0 0
20858304 -0.28388667275228324 0.00694594931828619 0.00112331867698333 0.0005711405078015551 0 0 0 0
20891250 -0.2837491456475993 0.006857283110166889 0.001090430809266557 0.0005668167092884957 0 0 0 0
20924196 -0.2837400606775804 0.006738113706149102 0.0011097233108011112 0.0005979183692188416 0 0 0 0
20957142 -0.2838386394115101 0.00699878942373314 0.0011022391712400385 0.0005459088610347405 0 0 0 0
20990088 -0.2839012695765354 0.006961470501355198 0.0011076481474392404 0.0005707644002670308 0 0 0 0
21023034 -0.2838761009775449 0.006736295303857759 0.0011261090119008713 0.0005665957803978075 0 0 0 0
21055980 -0.2839818251632832 0.006907404298844304 0.0011017440728388922 0.0005512462585590845 0 0 0 0
21088926 -0.28367403344230324 0.006716332134837962 0.0011135113662439876 0.0006079774882949107 0 0 0 0
21121872 -0.2839733402186813 0.006687099631982324 0.0011083408394021764 0.0005688558368674797 0 0 0 0
21154818 -0.2837924124833877 0.006698205506677971 0.0011078551512368668 0.0005682108576883401 0 0 0 0
21187764 -0.28380753341176135 0.006736496404725492 0.0011302668228007882 0.0005958089884030085 0 0 0 0
21220710 -0.2840809194559456 0.006883828622074743 0.0011042050271657857 0.0005632418781191435 0 0 0 0
21253656 -0.28411203962349085 0.006615458349353958 0.001109023611995579 0.000581072682834302 0 0 0 0
21286602 -0.2839785422205265 0.006487560714694295 0.0011102829802197936 0.0006034529189764455 0 0 0 0
21319548 -0.28390937897245416 0.006617785506150377 0.0011015251801393374 0.0005892129574958843 0 0 0 0
21352494 -0.28406990302567897 0.006561090192138702 0.0011099790961110114 0.000599787937190204 0 0 0 0
21385440 -0.2840922169917488 0.00657133507642599 0.0011038054085729925 0.0005898907226318657 0 0 0 0
21418386 -0.2840657221986762 0.006536704670578729 0.0011223480993233618 0.0005817804599869669 0 0 0 0
21451332 -0.28404006532079407 0.006510387110920205 0.0011059976719053287 0.0005834541915764325 0 0 0 0
21484278 -0.2841122229195115 0.006586927593779662 0.0011256143701758052 0.0005825778273519291 0 0 0 0
21517224 -0.2840010187049997 0.006467020435510203 0.0011032139529915364 0.0005975578974543882 0 0 0 0
21550170 -0.2840314446125351 0.006460705178247638 0.0011306510840940439 0.0006194035762820266 0 0 0 0
21583116 -0.28408793246136266 0.0063849598158074745 0.0011169075866853037 0.0006028807179071727 0 0 0 0
21616062 -0.2839151022446497 0.0063992137306147934 0.0011142451938349431 0.0005689324563311743 0 0 0 0
21649008 -0.2842810133453634 0.006432562869320214 0.0010954085722450053 0.0005900241203080295 0 0 0 0
21681954 -0.2841465596197189 0.006525640957755355 0.001127897972004861 0.0006029050948444428 0 0 0 0
21714900 -0.2841161250315425 0.0062707272793634285 0.001116595229724598 0.0005817205389157227 0 0 0 0
21747846 -0.28391693055053685 0.006202227683642628 0.0011114415724754719 0.0006164888748395927 0 0 0 0
21780792 -0.2840174236382021 0.006334886014470522 0.00112430387619124 0.0005827260623508656 0 0 0 0
21813738 -0.28417305711066043 0.006358362953648693 0.0011159049510730153 0.0005844187686329672 0 0 0 0
21846684 -0.2842725512509313 0.006265925848645488 0.0011205215049858181 0.0006160971195560988 0 0 0 0
21879630 -0.284105267518278 0.006347743871286642 0.0011333694599700997 0.0006087023943840026 0 0 0 0
21912576 -0.28420768369189725 0.006177667749427437 0.001137336131500445 0.0006070958630204449 0 0 0 0
21945522 -0.28417656313518797 0.006228524739938785 0.001118662494086393 0.0005833585522317556 0 0 0 0
21978468 -0.28417962348944525 0.006104610249017096 0.0011157230467761015 0.0005779372755790824 0 0 0 0
22011414 -0.28400879991467926 0.006224030823133765 0.0010993867773865713 0.0005906494168489786 0 0 0 0
22044360 -0.2842335721595594 0.006126745633788314 0.00114226060798287 0.0006349511957512127 0 0 0 0
22077306 -0.2843611591363424 0.006031016490364319 0.0011201324112704303 0.0005885256317523185 0 0 0 0
22110252 -0.2840779019204101 0.006055617556508692 0.0010996768898188197 0.0006361363496172723 0 0 0 0
22143198 -0.28419056387953817 0.0061288791525783036 0.0011306230315262843 0.0006070015663032592 0 0 0 0
22176144 -0.2841631781551375 0.005968821658826888 0.0011180459183866417 0.0005945432286274623 0 0 0 0
22209090 -0.284359104473323 0.006030016052877452 0.0011083898325855086 0.0006082813437550587 0 0 0 0
22242036 -0.28418613999022396 0.005838312699161575 0.0011533315713029555 0.0005943099335101019 0 0 0 0
22274982 -0.28434923526129374 0.005968431207171787 0.00112661792992402 0.0005903389777595198 0 0 0 0
22307928 -0.2841719717285515 0.005877317058275579 0.0011407873995493286 0.0005959191913999599 0 0 0 0
22340874 -0.2842194310533575 0.005762923264485417 0.0011273963229374523 0.0006070775910618066 0 0 0 0
22373820 -0.2842888112858137 0.005833769771905238 0.0011750866519818072 0.0006008569419582681 0 0 0 0
22406766 -0.2843240518572009 0.006005728753159149 0.0011175952699118694 0.000639399091564649 0 0 0 0
22439712 -0.28441348913262554 0.005787557785716704 0.0011154409986013922 0.0006011955727928038 0 0 0 0
22472658 -0.2843317695161454 0.005821911690080036 0.001142455664620567 0.0006231583503351905 0 0 0 0
22505604 -0.28423531638306593 0.005755300261216772 0.0011273549788558546 0.0006119399421445353 0 0 0 0
22538550 -0.2842258517006526 0.005668235908250068 0.0011002599979015538 0.0006365750123191365 0 0 0 0
22571496 -0.2843302615807213 0.005664528095799658 0.0011311916063819866 0.000636023552446419 0 0 0 0
22604442 -0.2843550917884236 0.005773414195007545 0.0011138276788247947 0.0006276211525822979 0 0 0 0
22637388 -0.2844334930457188 0.00583451409791713 0.0011539035760920837 0.0006233035899967803 0 0 0 0
22670334 -0.28450334215525697 0.005686826787716237 0.0011388969366717178 0.0006151945642008882 0 0 0 0
22703280 -0.28435370086801676 0.005511291015431015 0.0011318834994796811 0.0006384142413575472 0 0 0 0
22736226 -0.28428550443630324 0.0057043092335743815 0.0011430187359129753 0.00061064089324227 0 0 0 0
22769172 -0.2842050955657294 0.005517280086398543 0.0011097511258676331 0.0006328303951593198 0 0 0 0
22802118 -0.2842732807836024 0.005596603773276866 0.0011256048587773876 0.0006158400904018351 0 0 0 0
22835064 -0.2844648453163394 0.005626493498013136 0.001152135499897994 0.0006285941153887432 0 0 0 0
22868010 -0.28453271229173926 0.005522789641662614 0.0011385133983277933 0.0006215800983981499 0 0 0 0
22900956 -0.284377785423087 0.005529991511354637 0.0011232932175188391 0.0006358789169763721 0 0 0 0
22933902 -0.28437196743920856 0.005575957925172883 0.0011231571145456699 0.0006577619700011739 0 0 0 0
22966848 -0.2842578506642066 0.005409556313790532 0.0011625061150113008 0.000652744538447374 0 0 0 0
22999794 -0.28448450679548304 0.005482068539215118 0.0011474253838189826 0.0006273837701609207 0 0 0 0
23032740 -0.28459274641031046 0.005495461482557505 0.0011274199040543671 0.0006408800934501447 0 0 0 0
23065686 -0.28443234735868916 0.005471341704422106 0.0011498792618488474 0.0006221836596597408 0 0 0 0
23098632 -0.28442544433944583 0.005456618206307923 0.001111707539809905 0.0006305640639993328 0 0 0 0
23131578 -0.28434902902401704 0.005367890199774372 0.0011484816214789566 0.0006442396864157575 0 0 0 0
23164524 -0.28440142260211865 0.00538235424718465 0.0011858713194060225 0.0006567990785507482 0 0 0 0
23197470 -0.284514145784742 0.005369418681428984 0.0011479835985699464 0.0006445710473889135 0 0 0 0
23230416 -0.2846082861209327 0.005308901472403964 0.0010995909731490391 0.0006409150076990038 0 0 0 0
23263362 -0.284546566934569 0.005327569165498666 0.001154438588441425 0.0006122524671939351 0 0 0 0
23296308 -0.28457146336918304 0.005358093050636753 0.0011466509988484696 0.0006620172754109592 0 0 0 0
23329254 -0.28446538624818 0.005067831658493104 0.001105638234023095 0.0006400821962740803 0 0 0 0
23362200 -0.2844764099885448 0.005297201265879893 0.0011276320515148008 0.0006486387275053088 0 0 0 0
23395146 -0.28437441262178553 0.005199781672557652 0.0011578686710183228 0.000658235191031215 0 0 0 0
23428092 -0.284450121111485 0.0052001126730676596 0.0011226420214361572 0.000631739117334657 0 0 0 0
23461038 -0.28474584590951246 0.005258694452036424 0.0011338904709568623 0.0006389204596127943 0 0 0 0
23493984 -0.2843955030696642 0.0051718606112870534 0.0011560531579205223 0.0006310068411286795 0 0 0 0
23526930 -0.2845706033918845 0.005175716740595077 0.0011317703476704563 0.0006424610117589147 0 0 0 0
23559876 -0.2845402310944326 0.005116535893395324 0.0011357840879260128 0.000656276422734222 0 0 0 0
23592822 -0.2847222700594504 0.005227752696902404 0.0011280904547129999 0.0006310144766488053 0 0 0 0
23625768 -0.2845609716491218 0.00500558292302445 0.001158057026216523 0.000643682660883299 0 0 0 0
23658714 -0.28463625065492326 0.005022072846045453 0.0011429891199788767 0.0006555807644930741 0 0 0 0
23691660 -0.2846089261325105 0.004993634713145354 0.0011536234486022661 0.0006536693572940232 0 0 0 0
23724606 -0.28450507433659444 0.004897349807522058 0.0011491745947429166 0.0006325452529536712 0 0 0 0
23757552 -0.2846629065974657 0.00499784957216128 0.001137781457246319 0.0006634383931601455 0 0 0 0
23790498 -0.2847521377020589 0.0051177721112991665 0.0011514846999324349 0.000630986748418902 0 0 0 0
23823444 -0.28486980499869824 0.004873392439838368 0.0011645300329115957 0.0006544269023775896 0 0 0 0
23856390 -0.2846020006082304 0.00501710885907803 0.0011542706687696323 0.0006622401453203856 0 0 0 0
23889336 -0.2846599872315272 0.00481777122997778 0.001171213306843997 0.0006287123623313265 0 0 0 0
23922282 -0.28468180813214944 0.004835052204510391 0.001146526960263488 0.0006565623254798654 0 0 0 0
23955228 -0.28472283959538897 0.004876761977973266 0.0011548141778684395 0.0006633791632728036 0 0 0 0
23988174 -0.28484337791005837 0.004837229179389709 0.0011366710062307639 0.00067007063297192 0 0 0 0
24021120 -0.2848884061538469 0.0048039624864493835 0.001159963502226836 0.0006152177969805299 0 0 0 0
24054066 -0.2847050939231711 0.0049056206770160486 0.0011522659531917135 0.000653307854112221 0 0 0 0
24087012 -0.2847165743058586 0.004727109757196129 0.001146554828867807 0.0006887696785321183 0 0 0 0
24119958 -0.284718372931016 0.0048372549315431135 0.0011595688249643147 0.0006489131242845817 0 0 0 0
24152904 -0.2847873037640813 0.00474150355996334 0.0011749516207270473 0.0006661195354178318 0 0 0 0
24185850 -0.2848928868948929 0.004740029597201354 0.001138398577888436 0.0006565894307649538 0 0 0 0
24218796 -0.28475270227266264 0.004714000695632776 0.0011712238110532605 0.0006537734362741321 0 0 0 0
24251742 -0.28489144033168434 0.004523602141910814 0.0011954537517466553 0.0006714262749180508 0 0 0 0
24284688 -0.28482577681887256 0.004672140563997081 0.0011392232167745876 0.0006741970209314462 0 0 0 0
24317634 -0.28491082281757957 0.0046299476458397555 0.0011923197393350266 0.0006512314937300908 0 0 0 0
24350580 -0.2850116112972536 0.004734173024211745 0.001183395751705793 0.0006854092019050155 0 0 0 0
24383526 -0.2848601116190159 0.004778201964433298 0.0011510960778530232 0.0006607666947988074 0 0 0 0
24416472 -0.2849000248036673 0.00453088270556383 0.0011708775733061479 0.0006744088714205632 0 0 0 0
24449418 -0.28496754680771325 0.0045196079296018704 0.0011715743163051644 0.0006836405865424096 0 0 0 0
24482364 -0.28490812099568563 0.00466427507580688 0.0011549613073455784 0.0006391571666572094 0 0 0 0
24515310 -0.2850003864350379 0.004474085312943902 0.0011547594960483153 0.0006826974066655016 0 0 0 0
24548256 -0.28519941649845815 0.004545497474942335 0.0011795998127068226 0.0006781392943136792 0 0 0 0
24581202 -0.2849092835593687 0.004420809730778742 0.0011373958221027548 0.0006774155654586096 0 0 0 0
24614148 -0.2848379882677882 0.004450384478272061 0.0011591022268621965 0.0006859485903531245 0 0 0 0
24647094 -0.28488383220501984 0.004386684100286338 0.0011588285221581375 0.0006731515248455232 0 0 0 0
24680040 -0.28494884746849164 0.004367086091084353 0.0011491632807335125 0.0006735879766680497 0 0 0 0
24712986 -0.2848081493285905 0.004347821521375422 0.0011671125844509977 0.0006941249734810604 0 0 0 0
24745932 -0.2848864348518707 0.004354847132162093 0.001194006951625612 0.0006992305812546003 0 0 0 0
24778878 -0.28508459703110445 0.004397849893604294 0.0011744324708630835 0.0006872405996802205 0 0 0 0
24811824 -0.2852861703460924 0.004155701419440194 0.0011761679723827857 0.0006835864166490205 0 0 0 0
24844770 -0.2849444928749757 0.004450062171981256 0.0011678104780945605 0.0006788530539355642 0 0 0 0
24877716 -0.2849778243938074 0.004276389145384176 0.0011749947020367362 0.0006750792899218737 0 0 0 0
24910662 -0.2850910949415309 0.004321783143108987 0.0011371402274803941 0.0007042372240231368 0 0 0 0
24943608 -0.28501463025705087 0.0043692814008962745 0.0011424957790649752 0.0006514454142441753 0 0 0 0
24976554 -0.2852235113933451 0.00426091745315629 0.0011663552671674598 0.0006933874418621777 0 0 0 0
25009500 -0.28511088650783517 0.004228872333667485 0.0011764825097214074 0.0007005212286928816 0 0 0 0
25042446 -0.28530972623938106 0.004174928341568727 0.0011688986989518957 0.0006574444491569412 0 0 0 0
25075392 -0.2850769717276822 0.004329743715751772 0.0012042941189778628 0.0007213452196038253 0 0 0 0
25108338 -0.285055840300634 0.004002458179214005 0.0011846370323069016 0.0007002034170536998 0 0 0 0
25141284 -0.28509007809946246 0.004336219387101063 0.0011461104778382305 0.0007050009692499326 0 0 0 0
25174230 -0.2852255771417705 0.004164677150219739 0.0011762982293795972 0.000670099115876174 0 0 0 0
25207176 -0.2852254263289399 0.0041086270510028115 0.0011764564927313546 0.0006943570142532891 0 0 0 0
25240122 -0.2850626659755203 0.004141199852784086 0.0011522144373041865 0.0007058948983670015 0 0 0 0
25273068 -0.2853070872982354 0.004180844323578526 0.0011765561287123884 0.0007158420500330087 0 0 0 0
25306014 -0.2852438374814036 0.003832793686708784 0.0011186940927679653 0.0007074286077812499 0 0 0 0
25338960 -0.2852945087182441 0.003970346662097808 0.0011912103050132777 0.0007132180373981218 0 0 0 0
25371906 -0.285311731924262 0.0039206484009706236 0.0011935880089599118 0.0006979874521569056 0 0 0 0
25404852 -0.285383271853941 0.004020523740989708 0.0011892761669976622 0.0006932151919416681 0 0 0 0
25437798 -0.2851050853620109 0.003962196620360806 0.0011864492344378242 0.0006987247424610639 0 0 0 0
25470744 -0.28518731314370677 0.003840582717189454 0.0011927538034989802 0.0007045317396255079 0 0 0 0
25503690 -0.2854638199017366 0.003936871270430901 0.0011704682596897593 0.0007109291493645537 0 0 0 0
25536636 -0.2853214836371952 0.0039221753396933455 0.0012268909753020436 0.000708022574208861 0 0 0 0
25569582 -0.28543775995311127 0.003808838549516049 0.0012026932663427186 0.00071496272896439 0 0 0 0
25602528 -0.2855946796774471 0.003952481707996109 0.0012122017696187244 0.0007118441554404731 0 0 0 0
25635474 -0.28533909376380995 0.0038398598084172664 0.001204861838926527 0.0007277281001222795 0 0 0 0
25668420 -0.28534831320310905 0.003912322327685597 0.001188706356018508 0.0006878503849369284 0 0 0 0
25701366 -0.28538531035888876 0.003696361536401677 0.0012096346730698267 0.0007154900912250519 0 0 0 0
25734312 -0.28542577467829466 0.003922783833813206 0.0012014193552482603 0.0007106872593675257 0 0 0 0
25767258 -0.28553254231486386 0.0037873558675160486 0.0011948656573730597 0.0007112765901782855 0 0 0 0
25800204 -0.28530288958586675 0.003715049023127666 0.0011923843132993824 0.0007198984837942428 0 0 0 0
25833150 -0.2853547538125356 0.0037960417986882865 0.00117353111351028 0.0007152233855384733 0 0 0 0
25866096 -0.2853848168659896 0.003570288084620461 0.0011908585318205155 0.0007264183201912661 0 0 0 0
25899042 -0.28543467200651584 0.0038489044813776246 0.0011764235010162734 0.0007080259866602081 0 0 0 0
25931988 -0.2857282638357482 0.0036452471705494907 0.0011878097540240014 0.0007257291580599881 0 0 0 0
25964934 -0.2856536892095141 0.003724172685457509 0.0011909207404064627 0.0007260749069903312 0 0 0 0
25997880 -0.28563388083226854 0.003756692077679028 0.0011994753351293234 0.0007360600038143701 0 0 0 0
26030826 -0.2854127155377384 0.0035967636957491946 0.0011931470366264483 0.0007096360955474488 0 0 0 0
26063772 -0.2857280744164344 0.0035845934601629404 0.0011892534163542444 0.0007100839607731133 0 0 0 0
26096718 -0.2856913463787788 0.0035266533321972326 0.001215877537348744 0.0007268408923046685 0 0 0 0
26129664 -0.2854166789164904 0.0035660296935187347 0.0011739252052208034 0.0007280706997704058 0 0 0 0
26162610 -0.2856004116512481 0.0035896403233504452 0.0012024747384826757 0.0007257460719144289 0 0 0 0
26195556 -0.28548890674336314 0.003569186473215352 0.0011979010938366124 0.0007100673961545449 0 0 0 0
26228502 -0.28562611267010135 0.0035889019256458324 0.0011784421928521351 0.0007014330527197809 0 0 0 0
26261448 -0.28559984473945016 0.0036184711229678996 0.0011979426290087472 0.0007200131158496328 0 0 0 0
26294394 -0.2856267605390233 0.0033911336378532543 0.0011928450072495702 0.0007448346289352766 0 0 0 0
26327340 -0.2858401706224659 0.0034358830923953295 0.0011767547316737527 0.0007130592235511762 0 0 0 0
26360286 -0.28566731837745885 0.003455683851504099 0.0011794833650785493 0.0007116402985981087 0 0 0 0
26393232 -0.28566483512492274 0.003513892354777939 0.0012065049831662127 0.0007130432346733755 0 0 0 0
26426178 -0.2858155860715114 0.0035209755168761838 0.001201420369623129 0.0007395331352035794 0 0 0 0
26459124 -0.2857435154720305 0.003431269423781942 0.0011808748117013877 0.000729228427831939 0 0 0 0
26492070 -0.2855246961069941 0.0033239553427852906 0.0012132471868986975 0.0007227438968410133 0 0 0 0
26525016 -0.28578747269926474 0.003401666142753715 0.0011703189343458585 0.0007487195600618988 0 0 0 0
26557962 -0.28585383112801505 0.0034095882069346975 0.0012234511134926061 0.0007296920412752566 0 0 0 0
26590908 -0.28604545296800044 0.0032658124538949107 0.0012174768375041525 0.0007168889244817504 0 0 0 0
26623854 -0.28572548691522065 0.0034489412685713315 0.0012075070476175538 0.0007632771110341222 0 0 0 0
26656800 -0.28591651273878643 0.0033767814996620914 0.0012300953897570316 0.0007429022744581002 0 0 0 0
26689746 -0.28586984023967266 0.003148777404697011 0.0011991886539448604 0.0007063642371168599 0 0 0 0
26722692 -0.2859027059234938 0.0034782342746126006 0.0012029447585558107 0.0007412561522582506 0 0 0 0
26755638 -0.285914945507262 0.0032700488747762707 0.001197517461901935 0.000731710608897589 0 0 0 0
26788584 -0.2859895686041448 0.00326974732958216 0.0012081008962635 0.0007296404174538732 0 0 0 0
26821530 -0.2858608435429905 0.0032932611306236647 0.0011972843172451657 0.0007307743193541593 0 0 0 0
26854476 -0.28570963698853497 0.0032128206728151186 0.0012054741674849092 0.0007489191991227326 0 0 0 0
26887422 -0.2859557421410357 0.0030303341912260957 0.0011937046568654714 0.0007553611242426371 0 0 0 0
26920368 -0.28578919083014137 0.0031756143996976008 0.0012082185995780882 0.0007392693714702581 0 0 0 0
26953314 -0.286053695167082 0.0033325621050610816 0.001214635458246064 0.0007390866128920159 0 0 0 0
26986260 -0.2857423823087874 0.0029394306412465075 0.001208664002942947 0.0007361421838962261 0 0 0 0
27019206 -0.28615071127830016 0.0031385593837818175 0.001206658505233909 0.0007455317835461427 0 0 0 0
27052152 -0.28623234588284635 0.0031102489698743366 0.0012200200360379667 0.0007362536044097412 0 0 0 0
27085098 -0.28573091284683444 0.0032238311703368305 0.0012072971410387954 0.0007580539835159651 0 0 0 0
27118044 -0.28609134545905746 0.0031050640581695007 0.0012283721699574098 0.0007522657409517972 0 0 0 0
27150990 -0.2861464007252066 0.0029943556017436542 0.0011928468392954086 0.0007645878803131227 0 0 0 0
27183936 -0.2860310864443678 0.0031156499635799154 0.001216832072466185 0.0007482901290917949 0 0 0 0
27216882 -0.28616265639731936 0.0032213969834197303 0.0012183634374402794 0.0007725634474440913 0 0 0 0
27249828 -0.28601843122914156 0.002851515027850216 0.001215886344403252 0.0007770195980551794 0 0 0 0
27282774 -0.2862126193474353 0.0029615889697686007 0.0011869394968576823 0.0007655898516973542 0 0 0 0
27315720 -0.28608528203723493 0.00293047535522848 0.0012239478774842898 0.0007492189472198099 0 0 0 0
27348666 -0.28603309557455125 0.0030007380784201946 0.0012254360052489253 0.0007443539511853767 0 0 0 0
27381612 -0.28641613900777785 0.002868826117659941 0.001214763654261983 0.0007530565853322521 0 0 0 0
27414558 -0.2863314160047486 0.0031094320228144292 0.0012286073722646334 0.0007542923780665905 0 0 0 0
27447504 -0.28603024775945507 0.00270498900497978 0.0012111974256325915 0.0007539737828438087 0 0 0 0
27480450 -0.28638482637018436 0.00292530915464531 0.001212310962194087 0.000771243979959779 0 0 0 0
27513396 -0.286173165062064 0.002930675196494196 0.0012254666080376907 0.0007631678336327022 0 0 0 0
27546342 -0.28644482028664653 0.0029707098493038037 0.0012262808651849098 0.0007556035287607225 0 0 0 0
27579288 -0.28634598452356996 0.002981321786206893 0.0012232041360694284 0.0007705831269193676 0 0 0 0
27612234 -0.2864091760770216 0.0027445202681102483 0.001226091515719366 0.0007655904307332398 0 0 0 0
27645180 -0.2862460085620599 0.002788036512572952 0.0012481724182563496 0.0007941965962250115 0 0 0 0
27678126 -0.28661313950335804 0.002849417503477086 0.0012365164025368808 0.0007769467216215048 0 0 0 0
27711072 -0.286303779937863 0.002655225801288372 0.0012081907218863958 0.0007724715001424868 0 0 0 0
27744018 -0.2863264028599185 0.0027494721978158763 0.0011988446522867313 0.000770732822492587 0 0 0 0
27776964 -0.2866307578448125 0.0027606915484865015 0.0012096550961601283 0.0007428220748332666 0 0 0 0
27809910 -0.286610364753084 0.00275132683923224 0.0012496712236832294 0.0007840742194789019 0 0 0 0
27842856 -0.2862376796164329 0.002553147249470878 0.0012205753044780769 0.0007684268308143265 0 0 0 0
27875802 -0.2864465848142339 0.0025225572095257847 0.0012386057680825904 0.0007745064867336409 0 0 0 0
27908748 -0.2864704466044425 0.002533900719745266 0.0012239938691086846 0.0007691888542047692 0 0 0 0
27941694 -0.2865705687090906 0.00272958476761064 0.001240272339717001 0.0007656566751321382 0 0 0 0
27974640 -0.28668361441755885 0.0026908009697023186 0.0012247201755897531 0.0007786549271103251 0 0 0 0
28007586 -0.2863621080858613 0.002483354939572018 0.0012343371261119244 0.0007673013098404381 0 0 0 0
28040532 -0.2866865557332894 0.002803275805732608 0.001219126124853767 0.000777444325712478 0 0 0 0
28073478 -0.28632873310081214 0.0023625342061313935 0.0012246884945988207 0.0007803946730656866 0 0 0 0
28106424 -0.28653433440991016 0.0026223168198757927 0.001247599934401135 0.0007727944176418525 0 0 0 0
28139370 -0.2866374352144966 0.0026782037654607487 0.001235546961654384 0.0008066319664047759 0 0 0 0
28172316 -0.2866691918318202 0.002476035421816911 0.001229202437682413 0.0007952002412346156 0 0 0 0
28205262 -0.286744300692478 0.0026547882411401937 0.0012293073657484227 0.0007994891280266413 0 0 0 0
28238208 -0.28670808662719777 0.0028128355088789447 0.0012207320745018175 0.0007792663871919749 0 0 0 0
28271154 -0.28668369241833125 0.002512919033967606 0.0012145747774146508 0.0007782908979759019 0 0 0 0
28304100 -0.28685162764757577 0.0025457571845437974 0.0012294492052562053 0.0008073676518643876 0 0 0 0
28337046 -0.2867836093572745 0.002449975720520208 0.0012361062576062224 0.0007835178575373438 0 0 0 0
28369992 -0.2868102848516655 0.0024201076606492006 0.0012643894542884461 0.0007569950465012152 0 0 0 0
28402938 -0.28674307509283964 0.0024075293820333033 0.0012292951222711917 0.0007721337459521869 0 0 0 0
28435884 -0.28669066380793046 0.002347904970737851 0.001232822642864853 0.0007890281482122238 0 0 0 0
28468830 -0.2868128696853644 0.0024295074696142967 0.0012326641182080981 0.0008139396599662059 0 0 0 0
28501776 -0.28652316301285335 0.0022521141129588093 0.001233201460906597 0.0007760679126329824 0 0 0 0
28534722 -0.2869163417532693 0.002455219078963367 0.001269923663164427 0.0007799071223161687 0 0 0 0
28567668 -0.2870672861192919 0.0024077698454603494 0.001260304478912058 0.0007923971307051017 0 0 0 0
28600614 -0.2868404554454842 0.0025409623724422406 0.0012554797507043868 0.0008012282215929085 0 0 0 0
28633560 -0.28678727221243094 0.00217067778378717 0.0012475702963456116 0.0007808896356800297 0 0 0 0
28666506 -0.28654671210702326 0.0023709054060660826 0.001250711012210583 0.0007976981365850138 0 0 0 0
28699452 -0.2870652883388747 0.002367091852377263 0.0012377934959492435 0.0007780422370048123 0 0 0 0
28732398 -0.28706619744847994 0.00239793371288691 0.001216197883364113 0.0008115196510765729 0 0 0 0
28765344 -0.2867698818232853 0.0020624795663326625 0.0012722526486809104 0.0007896115944136846 0 0 0 0
28798290 -0.2872372605336666 0.0022645321417986957 0.001218583376314484 0.0007944887017417536 0 0 0 0
28831236 -0.28697117489885693 0.0021436814903272564 0.0012572234857174888 0.0007884761793797352 0 0 0 0
28864182 -0.2870198695847248 0.0021544142623518103 0.0012329522420555805 0.0008284541603372085 0 0 0 0
28897128 -0.28676487894674074 0.002032050838202561 0.001264186946151509 0.0007938123461008787 0 0 0 0
28930074 -0.287000764579876 0.0022763917360421387 0.001236880289390725 0.0007863370054819293 0 0 0 0
28963020 -0.2870529516028665 0.0020742788545472335 0.0012302437648379864 0.0008048984788943393 0 0 0 0
28995966 -0.2872878572061932 0.0021367119470756908 0.0012487117530734233 0.0007703611570324268 0 0 0 0
29028912 -0.2870835607117267 0.002156377803413113 0.0012327845668734466 0.0007967283780736102 0 0 0 0
29061858 -0.28697809777165856 0.0019747510295387337 0.001270179200644831 0.0008050824598480411 0 0 0 0
29094804 -0.28719717360213004 0.002203996262921711 0.001286297527780117 0.00080140025037415 0 0 0 0
29127750 -0.2868403077245152 0.002154745865694456 0.0012690452774214661 0.0008300200894597713 0 0 0 0
29160696 -0.2873690282615436 0.001987751642974672 0.0012377686288067248 0.0008274239812851657 0 0 0 0
29193642 -0.28732792913581295 0.00220824585933213 0.001286246108262842 0.000813647365416187 0 0 0 0
29226588 -0.287299957820967 0.002112475195956988 0.0012354127440965396 0.0008161612147307535 0 0 0 0
29259534 -0.287276792791487 0.0021559325584972603 0.0012631160902100687 0.0008022852546701624 0 0 0 0
29292480 -0.2873322516555733 0.0019566693759022905 0.0012382553640769044 0.0008007914390814665 0 0 0 0
29325426 -0.2871076385129757 0.0018174780951378062 0.0012516667978469456 0.0008151373516104483 0 0 0 0
29358372 -0.28740696994923187 0.002067315114462724 0.0012711967676264466 0.000801058276130266 0 0 0 0
29391318 -0.2871852337938114 0.0018190300008920997 0.001249869312501151 0.0007893073480835178 0 0 0 0
29424264 -0.2871627550803088 0.001742107690240885 0.0012899741294362722 0.0008144776506188028 0 0 0 0
29457210 -0.28750724088292334 0.001924632880369169 0.0012413424434247206 0.0008161293242406759 0 0 0 0
29490156 -0.2871631239196464 0.0019277420364452508 0.0012644658652533865 0.0008115996097769079 0 0 0 0
29523102 -0.2873686564127475 0.0018827179028125707 0.001256695786921221 0.0008404501011863469 0 0 0 0
29556048 -0.28758629605164937 0.0018662141727203486 0.0012656967174511323 0.0008165500545832665 0 0 0 0
29588994 -0.28737404924045684 0.00192457113669032 0.0012456863963926023 0.0008218845006167611 0 0 0 0
29621940 -0.2874412724815573 0.0018205631855466003 0.0012225929046559753 0.0008323876282710329 0 0 0 0
29654886 -0.28753287256691196 0.0018533867849298182 0.0012557512180432844 0.0008304414568584501 0 0 0 0
29687832 -0.2875489608724236 0.0019371737318580164 0.001299513902462481 0.0008381172633216684 0 0 0 0
29720778 -0.2875842404319975 0.0018747549979439362 0.0012690178643143977 0.0008246101267633648 0 0 0 0
29753724 -0.2874860493533764 0.0020258600529586223 0.001246728243536626 0.0008006192046353333 0 0 0 0
29786670 -0.2876005470067245 0.0018872139780590977 0.001276348088413028 0.0008239556711535867 0 0 0 0
29819616 -0.2876766297140562 0.0017675110285129778 0.0012410171721881137 0.0008409299250113928 0 0 0 0
29852562 -0.2873494486228593 0.0015827849825652243 0.001263995248875647 0.0008321267163533317 0 0 0 0
29885508 -0.28742141312849184 0.001644080434456011 0.0012824817009069107 0.0008243584909032762 0 0 0 0
29918454 -0.2873730073126634 0.0015731482675280216 0.0012476696656171689 0.0008092735095539158 0 0 0 0
29951400 -0.28763506655477794 0.0017751820520963604 0.0012606449769030734 0.0008194069642810093 0 0 0 0
29984346 -0.2876251630029952 0.0018106223696473165 0.001280068554251496 0.0008126723927848561 0 0 0 0
30017292 -0.28740679490017845 0.0014625889526949836 0.0012732533965122113 0.0008157868807037145 0 0 0 0
30050238 -0.2875018747997066 0.0015143094388526779 0.0012607469155796205 0.0008549251908020163 0 0 0 0
30083184 -0.2876471385340968 0.001433559370568577 0.001252662868946173 0.0008206063551021691 0 0 0 0
30116130 -0.287848048446678 0.0016646606104398095 0.0012877428082022804 0.0008453434932781986 0 0 0 0
30149076 -0.2877615196765521 0.0016400434383693314 0.0012605388427787982 0.0008377240265661231 0 0 0 0
30182022 -0.28791686352387674 0.0015530227682236822 0.0013022661418067446 0.0008498661068643837 0 0 0 0
30214968 -0.2878477080700136 0.001599152765125787 0.001259718517558313 0.0008563811759045747 0 0 0 0
30247914 -0.2876797558651247 0.0015822024498196301 0.0012784504159567586 0.0008156051290535164 0 0 0 0
30280860 -0.28793890312160264 0.0015491383992314626 0.0012876124249162004 0.0008263812944170866 0 0 0 0
30313806 -0.2879133631163669 0.0016648875122437393 0.0012897280763015417 0.0008334749495081394 0 0 0 0
30346752 -0.287698804907784 0.0015127414370486353 0.0012870716599520803 0.000840827915525667 0 0 0 0
30379698 -0.2881335386453594 0.0015345332377807827 0.001263732060227029 0.000832801647583248 0 0 0 0
30412644 -0.2880524959393879 0.0013565739832166923 0.0012677288887143823 0.0008369487589570438 0 0 0 0
30445590 -0.2880778633486287 0.0016299196574105508 0.0012650382995755172 0.000852617131548482 0 0 0 0
30478536 -0.2877807122347616 0.0013190564000014247 0.0012605275288488983 0.0008384829399088597 0 0 0 0
30511482 -0.28799114973923823 0.0014832542760717488 0.0012831215325777925 0.0008616477305651449 0 0 0 0
30544428 -0.2878368258082994 0.0014090186580848737 0.0012907130046374033 0.0008134006372772924 0 0 0 0
30577374 -0.2878453088204699 0.001419057277382672 0.0012484288131841563 0.0008632169699948561 0 0 0 0
30610320 -0.28829429628322983 0.001532676089666299 0.0012588599118305184 0.0008515150192456507 0 0 0 0
30643266 -0.28799029106612956 0.0013811091823079428 0.001299885255050285 0.0008516272972951413 0 0 0 0
30676212 -0.288060595691841 0.001276882225898728 0.001293428478255591 0.0008346522811756745 0 0 0 0
30709158 -0.2881568791843027 0.0014919719533707653 0.0013000894628139555 0.0008555225014437771 0 0 0 0
30742104 -0.28792806217959477 0.0011832444118424987 0.0012992351696520692 0.0008369615234683556 0 0 0 0
30775050 -0.2882413343062209 0.0013058767766347004 0.0012831205267429095 0.0008449622776268411 0 0 0 0
30807996 -0.28828319597525354 0.0014349993718251748 0.0012740770927996644 0.0008520894595604798 0 0 0 0
30840942 -0.2879576239150122 0.001385200656021971 0.0013180744314600164 0.0008391058292795962 0 0 0 0
30873888 -0.28795968736640914 0.0014122789328175425 0.001276681229928889 0.0008504038842006509 0 0 0 0
30906834 -0.2882084692553974 0.001305219190221308 0.0012933492106698985 0.0008700537582790111 0 0 0 0
30939780 -0.28812911743944675 0.001065522266824035 0.0013138639281057218 0.0008437982594643535 0 0 0 0
30972726 -0.28834269688987463 0.0012904058115177986 0.001304820653601168 0.0008708758461012189 0 0 0 0
31005672 -0.28797725859901896 0.0012996272569897145 0.0012881784913346878 0.000859108624770469 0 0 0 0
31038618 -0.28852664193464 0.001319881564146807 0.001272935901950417 0.00089323174170282 0 0 0 0
31071564 -0.28836230166502735 0.0013341699826041754 0.0012907176942090401 0.0008334942900421679 0 0 0 0
31104510 -0.2882944710077864 0.001209801413332399 0.0012745700778203017 0.0008655349259986216 0 0 0 0
31137456 -0.28845323556096325 0.001215568324603761 0.0012788292042171456 0.0008969193370796974 0 0 0 0
31170402 -0.2883715485223461 0.0012572403310179702 0.0013227152465120392 0.0008387541922424083 0 0 0 0
31203348 -0.28837073161668914 0.001285537468368317 0.0013112613868513138 0.0008792824168139406 0 0 0 0
31236294 -0.28846544552281866 0.0010458648102643305 0.0012931565388387802 0.0008415713187958486 0 0 0 0
31269240 -0.2885201808294273 0.0011050591902045416 0.001322704471441166 0.0008731855818676986 0 0 0 0
31302186 -0.2883628204665337 0.0011001463783756747 0.001271993497302256 0.0008903154505247134 0 0 0 0
31335132 -0.28834577168870495 0.0011690617218678468 0.001318162597174426 0.0008479125633023483 0 0 0 0
31368078 -0.2885726063131724 0.0009254586308316048 0.0012908548964796777 0.0008961218910869386 0 0 0 0
31401024 -0.2885335771933611 0.0009071432645102809 0.0013099490505522544 0.0008634400656140101 0 0 0 0
31433970 -0.28849587925598374 0.0010871147834889087 0.0012747996934666418 0.0008977132301826663 0 0 0 0
31466916 -0.2886073153269164 0.0009973013037268981 0.0012756449769368646 0.0008420241813970546 0 0 0 0
31499862 -0.288552942031411 0.0009534266093364278 0.0013613444921403753 0.000838149134740918 0 0 0 0
31532808 -0.28878867506333805 0.0009199033414894583 0.001296482920417502 0.0008361177414791727 0 0 0 0
31565754 -0.28849794093032394 0.0009332804696667827 0.001334352588447058 0.000839691243596588 0 0 0 0
31598700 -0.28873344345963226 0.0009288586561816526 0.0013217767547660272 0.0008570071955699173 0 0 0 0
31631646 -0.28883981659907626 0.0011155495632488284 0.0012639649532422779 0.00083213158270842 0 0 0 0
31664592 -0.2887544332394185 0.0009277066117522319 0.0013583773102539976 0.0008387308611971792 0 0 0 0
31697538 -0.28884275817847077 0.001018774492166939 0.0013673303514342675 0.000867393024878496 0 0 0 0
31730484 -0.28858121023236344 0.0009185797760454826 0.0012711444953359798 0.0009106353875760494 0 0 0 0
31763430 -0.2889391071428984 0.0007236032604250477 0.0013291252862457016 0.000821010515241319 0 0 0 0
31796376 -0.2888328582547464 0.0011111158777835292 0.0013380258612920787 0.0008983370682685281 0 0 0 0
31829322 -0.2888223182818966 0.0008174538111933849 0.0012996537634532093 0.0008316619169291931 0 0 0 0
31862268 -0.2887966785977619 0.0008740774242075383 0.001304898178623079 0.000925046794154711 0 0 0 0
31895214 -0.2890295804268754 0.0008104104543954169 0.001300554058363917 0.0008937174367463559 0 0 0 0
31928160 -0.289121186891964 0.0008324995416720983 0.0013106058063761278 0.000865106009812303 0 0 0 0
31961106 -0.28885825749625044 0.0008042868655836305 0.0013057442720921008 0.0008678878316025281 0 0 0 0
31994052 -0.2890028545534148 0.0008029585468173043 0.001312549963880703 0.0008770568734238018 0 0 0 0
32026998 -0.2888804010244157 0.0006916776948024658 0.0012901561459114997 0.0008995515932680239 0 0 0 0
32059944 -0.2889515803788038 0.0007150276332382927 0.001324923632846642 0.0008944313676384561 0 0 0 0
32092890 -0.2892218751802177 0.0008244532661150661 0.0013116205552200567 0.0008950563743966455 0 0 0 0
32125836 -0.2890160634576324 0.0007664526870040691 0.0013157189775979082 0.0008780089657506059 0 0 0 0
32158782 -0.2891032692269137 0.0007882204110819316 0.0013292511940722113 0.0009109676632532074 0 0 0 0
32191728 -0.289047508457195 0.0008734266371583037 0.0013059327437313483 0.000910002704918947 0 0 0 0
32224674 -0.2890719383097385 0.0007026710212660676 0.0013145444761758047 0.0008779360786217897 0 0 0 0
32257620 -0.28891883826135756 0.0009073774814639378 0.0013276888979745658 0.0008889566377810542 0 0 0 0
32290566 -0.2893597621945021 0.0005881682320194958 0.0013204255675229968 0.0008929501274918061 0 0 0 0
32323512 -0.28903499434102337 0.0006807593473375823 0.0013148173275874106 0.0008895745616685495 0 0 0 0
32356458 -0.2890927891471139 0.0006649190876554846 0.0013369141002564364 0.0009064124210225686 0 0 0 0
32389404 -0.2890373048172738 0.0006678474610320911 0.0013327494275314382 0.0008889138076323181 0 0 0 0
32422350 -0.2893147432810305 0.0005567316832995325 0.0013275461110145203 0.00089811775001601 0 0 0 0
32455296 -0.2894560238780178 0.0005314328725649299 0.001344615523899856 0.0009090355574637943 0 0 0 0
32488242 -0.28948766670192877 0.000624910560650106 0.0013368956464028334 0.0009032810184033447 0 0 0 0
32521188 -0.28938709132111234 0.0006656131374898571 0.001322709302921035 0.0009167370620840491 0 0 0 0
32554134 -0.2892802398520508 0.00046232227571563656 0.0012974784814580554 0.0009034173298335918 0 0 0 0
32587080 -0.289525835441478 0.00047476223499202225 0.001347221674838671 0.0008891604885625154 0 0 0 0
32620026 -0.28927214828066566 0.0005665476417611657 0.0013232014310027742 0.0008935567283895745 0 0 0 0
32652972 -0.2892805102015177 0.00047037897655880976 0.0013522152505341832 0.0009266013592300301 0 0 0 0
32685918 -0.28976870363087065 0.00043407925533481896 0.0013409064406281358 0.0008956396178231968 0 0 0 0
32718864 -0.2894480262882765 0.0003986040229625897 0.0013191736955031762 0.0009153416973496956 0 0 0 0
32751810 -0.2894852666901084 0.0004835338080122868 0.0012986029768960474 0.0009174723763520742 0 0 0 0
32784756 -0.28981530169756914 0.0006078549503106959 0.0013333884412782104 0.0009015459413182186 0 0 0 0
32817702 -0.28929260325468353 0.0003458124655107378 0.001342030653089478 0.0009274054270630881 0 0 0 0
32850648 -0.28966984514695726 0.00038836840628947135 0.0013314276471848195 0.0009036302748243317 0 0 0 0
32883594 -0.2895104661905559 0.00040304890575806597 0.0013330932323052432 0.0009209527962682066 0 0 0 0
32916540 -0.2895581608236981 0.00018147944509494768 0.0013349426670600955 0.000928318896771716 0 0 0 0
32949486 -0.28972249683038503 0.00040479464284450136 0.0013460576800503516 0.000904218598182795 0 0 0 0
32982432 -0.2896025870044501 0.00035222090880146246 0.0013196036022798134 0.0009113035494902 0 0 0 0
33015378 -0.2895877244412592 0.00040167326968205643 0.001344029847226157 0.0009301437541592844 0 0 0 0
33048324 -0.28990451668094463 0.0002902280729814502 0.0013601882807772376 0.0009385599514967715 0 0 0 0
33081270 -0.2897270206018739 0.00034527529589776785 0.0013532316144871989 0.0009446918816655201 0 0 0 0
33114216 -0.2897881792729707 0.00041220274841823545 0.0013400838597313386 0.0009125179712973757 0 0 0 0
33147162 -0.2896464726699894 0.0002522272902760765 0.001308141260096628 0.0008933441431771981 0 0 0 0
33180108 -0.2897016045895864 0.0002703505121456728 0.0013344818850559742 0.0009289263458251191 0 0 0 0
33213054 -0.2900499867833734 0.00035604562241754007 0.0013374400488998207 0.0009275500366541903 0 0 0 0
33246000 -0.29000431590751724 0.0004344061943624149 0.0013565245930649865 0.0009110516242742517 0 0 0 0
33278946 -0.28981246785977827 0.00019043290891418007 0.001345640413236618 0.0009522674219217898 0 0 0 0
33311892 -0.28984317605055593 0.0003860464702011902 0.0013430272576231256 0.0009218170505606091 0 0 0 0
33344838 -0.28989642794844006 0.00015506528617959783 0.0013344664639903907 0.0009428868982913307 0 0 0 0
33377784 -0.28998479491742923 0.00025435280848196064 0.0013773640490649744 0.0009486363150132265 0 0 0 0
33410730 -0.2900371487975151 1.366296349542558e-05 0.0013347651072060974 0.0009215024642514773 0 0 0 0
33443676 -0.28997405521115127 0.00012304808178884114 0.0013328039696809872 0.0009332944948357569 0 0 0 0
33476622 -0.2899183210176587 0.0002383295579743205 0.001351594574039661 0.00094726068533222 0 0 0 0
33509568 -0.2900966261923883 0.0003973652225510735 0.0013559544399242406 0.0009363262668153108 0 0 0 0
33542514 -0.28996904653369104 0.00011672227143055743 0.0013590735859934447 0.0009023853195059739 0 0 0 0
33575460 -0.2903039459109916 0.0001405377570641428 0.001344881385274251 0.0009237166750773008 0 0 0 0
33608406 -0.29012671255678835 4.413951086415725e-05 0.0013532332082762954 0.0009381823900213183 0 0 0 0
33641352 -0.2900130752848989 5.482125331247537e-05 0.001352596120506002 0.0009340337458449748 0 0 0 0
33674298 -0.290212972198682 0.00024047130669142404 0.0013559303843144778 0.0009601471850876048 0 0 0 0
33707244 -0.2900849724012885 0.00012130287316680484 0.00134816929749216 0.0009035963878876828 0 0 0 0
33740190 -0.2901707161838626 8.565827777378851e-05 0.001344616326576752 0.0009582545323115079 0 0 0 0
33773136 -0.2901534873479151 0.00011947238132313539 0.0013738331433735547 0.0009045484724199121 0 0 0 0
33806082 -0.29012588734482764 -0.00022634529881097713 0.0013521992343673245 0.0009575550106311853 0 0 0 0
33839028 -0.29034844518217173 0.00022039202635042136 0.0013387166973282344 0.0009332024527968791 0 0 0 0
33871974 -0.29030508349669665 -8.07934816905932e-05 0.001368933179474808 0.0009101952989393273 0 0 0 0
33904920 -0.290515859532666 -8.646972249656509e-05 0.0013562871986090245 0.0009566940223928104 0 0 0 0
33937866 -0.2902823914738774 0.00011613235075368389 0.0013886660465687536 0.0009327511685050526 0 0 0 0
33970812 -0.2904139135005021 -6.421913414607111e-05 0.00137720399783831 0.0009381237346053038 0 0 0 0
34003758 -0.2905949576066403 0.00014431843879135112 0.0013711432050742005 0.0009376651809723789 0 0 0 0
34036704 -0.2904576445626074 -8.280768192535417e-05 0.001376119349746904 0.000904029752647154 0 0 0 0
34069650 -0.2904746033946483 -0.00016208728752781796 0.001353577856268991 0.0009556566705006893 0 0 0 0
34102596 -0.2905802445575267 -0.00011063049179500601 0.0013562585686061777 0.0009517323958830424 0 0 0 0
34135542 -0.2905854550881358 -1.1332043977783437e-05 0.0013371649417105837 0.000942510007752811 0 0 0 0
34168488 -0.2904156696083444 -3.097706483466881e-05 0.0013721378359314834 0.0009415947543644862 0 0 0 0
34201434 -0.2906991024255314 -0.0001084716619794304 0.0013684121743751303 0.0009435193760313523 0 0 0 0
34234380 -0.2905914864308235 -0.0001384381572140871 0.0013943931716856625 0.0009481331371639106 0 0 0 0
34267326 -0.29065384536554667 -0.00010636884426840631 0.0013551331952772617 0.0009549932759826978 0 0 0 0
34300272 -0.29068703614031655 -0.00020151500798592348 0.0013639271696373465 0.0009752289729214005 0 0 0 0
34333218 -0.29059592004123197 -0.00012298067064579342 0.0013452557387069527 0.000950792349814777 0 0 0 0
34366164 -0.2907641889076468 6.339282813340479e-05 0.0013721802362984435 0.0009302474408407484 0 0 0 0
34399110 -0.2908487561848116 -0.00014020672150781457 0.0013651873523223919 0.0009428967220119346 0 0 0 0
34432056 -0.29067544087655217 -0.00026850194311280127 0.0013584834511596784 0.0009483837583570752 0 0 0 0
34465002 -0.2907195417918089 -0.00024535069245114853 0.001390073945586652 0.000978906286341906 0 0 0 0
34497948 -0.2908311754132464 -0.00017914978454295152 0.001372186226618014 0.0009636419647480149 0 0 0 0
34530894 -0.29070218185839825 -0.0003547931262359987 0.0013788745665663342 0.0009923316894067302 0 0 0 0
34563840 -0.2907842866463236 -0.0002465242250643907 0.0013928891486531584 0.0009638588371992144 0 0 0 0
34596786 -0.29080924288893284 -0.00036246221253284633 0.0013535771601912308 0.000946974121639511 0 0 0 0
34629732 -0.29094143796359684 -0.0002701229190204986 0.0013848957564898503 0.0009538165590588761 0 0 0 0
34662678 -0.29107234494585565 -0.00031823954911024436 0.0013804842212751538 0.0009559814511873536 0 0 0 0
34695624 -0.2909961277792095 -0.0002948289755777772 0.0013683008911632704 0.0009597001774346012 0 0 0 0
34728570 -0.29121511411125384 -0.0004463167632882804 0.0013735870802230729 0.0009630682446288732 0 0 0 0
34761516 -0.29102290192726865 -0.000345776906935276 0.0013749537058458795 0.0009406484653959321 0 0 0 0
34794462 -0.2910421768566442 -0.0003100253330271514 0.0013933653531072827 0.0009565931663777987 0 0 0 0
34827408 -0.29105975339619883 -0.0003681003842954955 0.0013872554554521257 0.0009377235992972389 0 0 0 0
34860354 -0.2911392978497408 -0.00034253110461598247 0.0013878922656204637 0.0009736869221749697 0 0 0 0
34893300 -0.2912144318966409 -0.0004501636436303936 0.0013992017226161367 0.00094922246496326 0 0 0 0
34926246 -0.2911357671382015 -0.0003682930901752048 0.0013869094056133792 0.000979268103414165 0 0 0 0
34959192 -0.2911325268179512 -0.00043439542475993156 0.0013965096980583802 0.0009958492427805513 0 0 0 0
34992138 -0.29109751309483717 -0.00042976021731127006 0.0013732155994568107 0.00100569200139518 0 0 0 0
35025084 -0.29133065051199347 -0.00050464243047386 0.0013585155547151233 0.0010409696967863787 0 0 0 0
35058030 -0.2912878861427348 -0.00026188154644876183 0.0013530336992385703 0.0009478426111841141 0 0 0 0
35090976 -0.29119220833428777 -0.0004900481409490084 0.001398880013760158 0.0010414657126534914 0 0 0 0
35123922 -0.29156736024280394 -0.0004381365023015617 0.0013936552460950473 0.0010787247820125488 0 0 0 0
35156868 -0.29130511644697954 -0.0003856341633363733 0.0013607727616004473 0.0009065452491580795 0 0 0 0
35189814 -0.2914025108956459 -0.0003516741669286223 0.0013767172792388451 0.0009966716883354353 0 0 0 0
35222760 -0.2914119449687523 -0.0004798376608065355 0.0013851075173860357 0.0009689878854705329 0 0 0 0
35255706 -0.2915795289348088 -0.00048416064369283317 0.0014226815207498582 0.0009898971757751178 0 0 0 0
35288652 -0.2916203764833789 -0.0006131396370896849 0.0014143841555954776 0.0008380288166712385 0 0 0 0
35321598 -0.2915030910056019 -0.0006713212561402818 0.0014053292676394066 0.0009895633096471124 0 0 0 0
35354544 -0.29147532629213835 -0.00041640848727084173 0.001338144095515594 0.0009696820353829301 0 0 0 0
35387490 -0.2915897354237133 -0.0005556846948917987 0.0013864550601955094 0.0009807973525265174 0 0 0 0
35420436 -0.291908562040659 -0.0006671544312361612 0.0013934724561233086 0.0009700187762402382 0 0 0 0
35453382 -0.29160691396084787 -0.0005625618058542804 0.0013989779508035767 0.000968593747343202 0 0 0 0
35486328 -0.29170493504327044 -0.0007611825874737755 0.0013886502233099933 0.0009791413472108297 0 0 0 0
35519274 -0.2915363667554734 -0.0007432512770365858 0.0014003182216380404 0.0009861260100293948 0 0 0 0
35552220 -0.2915753499469424 -0.0006697238594555867 0.001433605033463791 0.0009875248963423732 0 0 0 0
35585166 -0.29170182140238266 -0.0005324801737354352 0.001418820841694889 0.0009715776928781706 0 0 0 0
35618112 -0.2920147432218953 -0.0004241871044961458 0.00141805745295255 0.0009898915206252546 0 0 0 0
35651058 -0.29178165383238214 -0.0007299897198754119 0.0014057206183309893 0.0009975442582194317 0 0 0 0
35684004 -0.29207656522244146 -0.000805574439882644 0.0014062859416716686 0.0009665123544537549 0 0 0 0
35716950 -0.2918014649094506 -0.0006461586086084462 0.0014090100144803046 0.0009914969213196474 0 0 0 0
35749896 -0.2919307654460394 -0.0006950199878586117 0.0014201683956185345 0.000954885782535609 0 0 0 0
35782842 -0.2919210550519733 -0.0007413599395562679 0.0014025472363749748 0.0009964932166534853 0 0 0 0
35815788 -0.2920617360140076 -0.000635601205699148 0.0013868391656311934 0.0009964574968456907 0 0 0 0
35848734 -0.29187608631401835 -0.0007783492237431585 0.0014232611743057724 0.0010018345040790659 0 0 0 0
35881680 -0.2921380098187413 -0.0006973304477724225 0.001391914718278479 0.0009908218463507321 0 0 0 0
35914626 -0.2919287002225511 -0.00074484290419562 0.0014119169709639484 0.0010133620301322579 0 0 0 0
35947572 -0.2921460063291658 -0.0006905237905783743 0.0014030306128802884 0.0009928972511274409 0 0 0 0
35980518 -0.29201964669934877 -0.0007547447756883143 0.0013968103232383962 0.0010034796472971844 0 0 0 0
36013464 -0.2921154457112768 -0.0007356227400149503 0.001420225058320571 0.0010249426987739227 0 0 0 0
36046410 -0.29211167179863273 -0.0009495556004286735 0.0014005384984358293 0.0010161086433438924 0 0 0 0
36079356 -0.2920626085606686 -0.0007333401510197459 0.0014311438821289254 0.0009706093279488798 0 0 0 0
36112302 -0.29192197923962804 -0.0008633821489353576 0.001399312428146318 0.0009919164322809947 0 0 0 0
36145248 -0.2920264001636078 -0.0007464938398426624 0.001427978610084749 0.0010115207417206982 0 0 0 0
36178194 -0.2922109205325671 -0.0008242023830366267 0.0014161100518441311 0.000984235020834256 0 0 0 0
36211140 -0.29248377153121247 -0.0007223182294250419 0.001439013247030895 0.0010054046865718572 0 0 0 0
36244086 -0.2922624646913955 -0.0009728456889108108 0.0014263366681448238 0.001022682152525105 0 0 0 0
36277032 -0.29241012250502746 -0.001147250513865799 0.0014381417445375885 0.0010086520621792289 0 0 0 0
36309978 -0.29232474694964267 -0.0007831356873914239 0.0014270400316793064 0.0010201302977192266 0 0 0 0
36342924 -0.29248772542180757 -0.0008831638674007159 0.0014461882938032477 0.0009734731733385528 0 0 0 0
36375870 -0.29266260717696646 -0.0007279978833888269 0.0014043827018062531 0.0010045497777464065 0 0 0 0
36408816 -0.2925224000061872 -0.0008961106311199002 0.001438652520745362 0.0010242287915670067 0 0 0 0
36441762 -0.2921044407378679 -0.0009710282119815121 0.0014188651942416595 0.00101510891638034 0 0 0 0
36474708 -0.2924007420322854 -0.0009628233088949563 0.0014361279055525244 0.0010288245615234068 0 0 0 0
36507654 -0.29247353200526593 -0.0009304255965592633 0.0014451269036495828 0.0010249658144018444 0 0 0 0
36540600 -0.2924721405057413 -0.0009559097790377706 0.0014381024221478344 0.0010292750789525568 0 0 0 0
36573546 -0.2925186916561067 -0.0010044809621464735 0.0014292818404356533 0.0010127149360330346 0 0 0 0
36606492 -0.29263498341295635 -0.001028855676331394 0.0014347219266598026 0.0010057008596860582 0 0 0 0
36639438 -0.29254155144719446 -0.001307015662623393 0.0014156184793717595 0.0010181406608050186 0 0 0 0
36672384 -0.29236766774007716 -0.0010153180059668011 0.001436550274330145 0.001022501841493586 0 0 0 0
36705330 -0.29282652648027974 -0.0009400967014384152 0.0014403018100513079 0.0010455103052510256 0 0 0 0
36738276 -0.29239427150692987 -0.0010743056465936844 0.00144672934011962 0.0010225232759528081 0 0 0 0
36771222 -0.2930348356890922 -0.0009005893200293901 0.0014107303183109282 0.001024782157334245 0 0 0 0
36804168 -0.2930022770512162 -0.0010721486837444202 0.0014322351206857813 0.0010227047242680855 0 0 0 0
36837114 -0.29271284182518803 -0.001027864404264704 0.0014317249669886188 0.0010316165084518134 0 0 0 0
36870060 -0.2928828231028751 -0.0010659224255853356 0.0014319160592533547 0.001022562066859345 0 0 0 0
36903006 -0.2929237936907118 -0.0010833793852413041 0.001429116608238434 0.0010209421348555323 0 0 0 0
36935952 -0.2929551077678611 -0.0009771645936017175 0.0014441002627412257 0.0010373818233134768 0 0 0 0
36968898 -0.29288143641819714 -0.0011222627141474178 0.0014239526336541433 0.0010156587490989459 0 0 0 0
37001844 -0.2929031797399126 -0.0011701318563457905 0.0014425709369406997 0.0010073311029162907 0 0 0 0
37034790 -0.29298261054847774 -0.0011249571840739932 0.0014462835543275101 0.0010237160489513066 0 0 0 0
37067736 -0.29296709365093254 -0.0012998253567779849 0.0014143989962163547 0.0010258963818965108 0 0 0 0
37100682 -0.2931643551777081 -0.001222019693979231 0.0014605530405486773 0.0010467895805558994 0 0 0 0
37133628 -0.2928819026304932 -0.0011540817809892808 0.001447623401996486 0.001030675180067481 0 0 0 0
37166574 -0.2931891001888434 -0.0012048027506661135 0.0014422855007737603 0.0010152153277738882 0 0 0 0
37199520 -0.29342164400160453 -0.0010813847977678398 0.0014488527005731503 0.001052059094557431 0 0 0 0
37232466 -0.2932228674567799 -0.0012907905987471213 0.0014722113157933719 0.0010553318192627315 0 0 0 0
37265412 -0.2931205106954766 -0.0011732509339263428 0.0014583167081438947 0.0010274607849599918 0 0 0 0
37298358 -0.29339434866786557 -0.0011079198738794343 0.0014271264261529737 0.0010352491187781334 0 0 0 0
37331304 -0.2933900479162035 -0.0010676449953568974 0.001453995124149353 0.0010226416584512021 0 0 0 0
37364250 -0.2934705449081962 -0.0010328581490254567 0.0014473327006155187 0.0010563045564354213 0 0 0 0
37397196 -0.29330185992218666 -0.001371011759004215 0.001467023713242254 0.0010371220440270102 0 0 0 0
37430142 -0.2931449292103043 -0.0012884900225876782 0.0014639868987008217 0.0010781749220502839 0 0 0 0
37463088 -0.29334042461355847 -0.0013272423555451892 0.0014712885308694023 0.001029896245681322 0 0 0 0
37496034 -0.29356751666813036 -0.0012597676659714275 0.0014608144474131787 0.001061387173247357 0 0 0 0
37528980 -0.2935316554929982 -0.0012435072574458988 0.0014738461750478794 0.0010395825975547774 0 0 0 0
37561926 -0.2934833186596256 -0.0012942735059519469 0.0014487890935239588 0.0010404608605894307 0 0 0 0
37594872 -0.2935778301810342 -0.0013983747578504477 0.0014483693432201144 0.0010494592707997056 0 0 0 0
37627818 -0.29351358737214384 -0.001497149385977788 0.0014498737847763931 0.0010375797226125207 0 0 0 0
37660764 -0.29344811578816177 -0.0015040281644991252 0.0014586896081742555 0.0010508692272564286 0 0 0 0
37693710 -0.29371195301245917 -0.0013437629487825938 0.001455189835611495 0.0010373714138590035 0 0 0 0
37726656 -0.2936688627045932 -0.001420358386857647 0.0014639971092450916 0.0010234755279230523 0 0 0 0
37759602 -0.2936548366535173 -0.0014550402745375807 0.001442300173086177 0.0010484803912182645 0 0 0 0
37792548 -0.29371384185981014 -0.0016006514153510782 0.001446502864092698 0.001045841635823015 0 0 0 0
37825494 -0.29376810277184173 -0.0014667680409348866 0.0014687921220108186 0.0010419959490847895 0 0 0 0
37858440 -0.293761144590781 -0.001547817956504189 0.0014547694908490958 0.0010498311011773865 0 0 0 0
37891386 -0.2939148483516441 -0.0014423482249722411 0.0014750113741997936 0.0010550111207230967 0 0 0 0
37924332 -0.293831206567342 -0.0013957420574583306 0.0014994301851544202 0.0010697784389970297 0 0 0 0
37957278 -0.2939963945284257 -0.001372919079401799 0.001458945836472329 0.001065604006063591 0 0 0 0
37990224 -0.2938353597830012 -0.001638105450958713 0.0014846505191309478 0.001031160754413231 0 0 0 0
38023170 -0.2939588889519028 -0.0015620079320804977 0.0014755054700075895 0.0010689541929541013 0 0 0 0
38056116 -0.2939962035168519 -0.0014031089449415151 0.0014638942483191806 0.0010779407258485203 0 0 0 0
38089062 -0.2939874528984645 -0.0014839895574867395 0.0014733288308810808 0.0010506241583480534 0 0 0 0
38122008 -0.29396618198570884 -0.0016302659345633103 0.001473236051241447 0.0010573181699187408 0 0 0 0
38154954 -0.29402178384274197 -0.0014629542133254689 0.0014634720623871622 0.0010856973363785188 0 0 0 0
38187900 -0.2942626481190442 -0.0014220403868500714 0.0014921002470015615 0.0010572539772492804 0 0 0 0
38220846 -0.29417253848408026 -0.0014822299929797115 0.0014876786535623241 0.001090724167641252 0 0 0 0
38253792 -0.29415228756233364 -0.0015406961714881009 0.0014538535905629741 0.001065084664488295 0 0 0 0
38286738 -0.29417695723899245 -0.0015213599343199466 0.001487960765604095 0.001056087676552773 0 0 0 0
38319684 -0.29428305076409 -0.0014959312084714565 0.0014891095630507195 0.0010657851957048387 0 0 0 0
38352630 -0.29433617741235535 -0.0015277893145630988 0.001471503262990475 0.0010738585980641562 0 0 0 0
38385576 -0.2943041073944853 -0.001753628050680344 0.0014747334824444236 0.0010906080993586416 0 0 0 0
38418522 -0.29423417137638425 -0.0017328575463665685 0.0014701640140923706 0.0010439405946544794 0 0 0 0
38451468 -0.29426820173384594 -0.001578673983515206 0.001470464111230387 0.0010509075307396502 0 0 0 0
38484414 -0.29431527165081 -0.0017005926325523912 0.0014701856463050207 0.0010844714413964988 0 0 0 0
38517360 -0.29438516794129427 -0.0015410911542958784 0.001506594268812436 0.0010570654418587402 0 0 0 0
38550306 -0.29445836264494757 -0.0016988985209982536 0.0015161344539234855 0.0010500855787780364 0 0 0 0
38583252 -0.2943572078324164 -0.001638565510397646 0.0015168069445174945 0.0010775623201396483 0 0 0 0
38616198 -0.2946056690211665 -0.001594589262914917 0.001501609535842815 0.0010634999797045027 0 0 0 0
38649144 -0.2945511068316307 -0.0016215117002723169 0.0014757379200394498 0.001056147875616204 0 0 0 0
38682090 -0.2946720621392206 -0.0017436177188707826 0.0014875603367876776 0.0010777257564908327 0 0 0 0
38715036 -0.29475839264350956 -0.0018215767263405173 0.0014729947520243179 0.0010815838281874439 0 0 0 0
38747982 -0.29454032068157626 -0.0017672311476085412 0.0015135278550735833 0.0010884416301147543 0 0 0 0
38780928 -0.29467691711563077 -0.0016820685317555442 0.0014957656198165406 0.001096509620589678 0 0 0 0
38813874 -0.29475062722369055 -0.0015768718775457133 0.0014943102516754507 0.0010866781071386998 0 0 0 0
38846820 -0.29481021364742566 -0.0015642958313337582 0.0014853746495012035 0.0010864278280435854 0 0 0 0
38879766 -0.2947507659164887 -0.001757604635518873 0.0014979571893365357 0.001090489462448554 0 0 0 0
38912712 -0.2947379207291308 -0.001884747599496912 0.0015120940277832994 0.0010832378742364414 0 0 0 0
38945658 -0.2947134954912758 -0.00179824095994737 0.0015157665065132335 0.0010732731550549789 0 0 0 0
38978604 -0.2948043411340532 -0.0015953788561307379 0.0015135625508464641 0.0010572691756469252 0 0 0 0
39011550 -0.2948837931567361 -0.0019996492426577117 0.001497718589914191 0.0010752711110706562 0 0 0 0
39044496 -0.29501909575006646 -0.0019076166358362068 0.0014866083144498697 0.001111680363332039 0 0 0 0
39077442 -0.29495914095776593 -0.0018598794984389583 0.0014917725464028357 0.001105371372645547 0 0 0 0
39110388 -0.2949333176778466 -0.0017748565576098537 0.001511244614439448 0.0010745408277478138 0 0 0 0
39143334 -0.29511744576591337 -0.0020688803484531088 0.0015172312623505646 0.0011032849513834873 0 0 0 0
39176280 -0.29497968385342793 -0.0019055959753397499 0.0014857444535727043 0.0011093133126858468 0 0 0 0
39209226 -0.29492854265118434 -0.0019888428374118506 0.0014990062413544703 0.001101536953810891 0 0 0 0
39242172 -0.2951662740841388 -0.0017152947615416394 0.001496965258211152 0.0010778683010546517 0 0 0 0
39275118 -0.29521199588460456 -0.0018738522633753882 0.001516724952306207 0.0011033984905358288 0 0 0 0
39308064 -0.29511814130249236 -0.0020116396663327294 0.0015043642306176584 0.0011169426618603579 0 0 0 0
39341010 -0.29518706032961467 -0.001976049216540349 0.0015245975535678109 0.001103174841496291 0 0 0 0
39373956 -0.29515794786951854 -0.0019030573341853765 0.0015177761623404445 0.0011081336581637083 0 0 0 0
39406902 -0.2952935533204641 -0.0019261448391778037 0.0015302445898088544 0.0011153783728900168 0 0 0 0
39439848 -0.2953920594380505 -0.0018227643632326266 0.0015128884334034125 0.0010979049765712657 0 0 0 0
39472794 -0.2952632510613053 -0.001893052353617249 0.0015225646533594708 0.001103134924763934 0 0 0 0
39505740 -0.295484249455091 -0.0021509540090638574 0.0015169461654137857 0.0011156816958777624 0 0 0 0
39538686 -0.2953971985308799 -0.001897151190799504 0.0015332730395619851 0.0011228887726153537 0 0 0 0
39571632 -0.29531650268267795 -0.0020069376837284804 0.0015009076523527225 0.0011155908200631579 0 0 0 0
39604578 -0.2956854406165893 -0.0018983687269011923 0.0015234951519315005 0.001109447240905189 0 0 0 0
39637524 -0.29540733815451237 -0.0018941956648845565 0.001501554569543848 0.0011135369163106778 0 0 0 0
39670470 -0.295483284067112 -0.0021231266320731012 0.00152093506957798 0.0011226902424931497 0 0 0 0
39703416 -0.2954813799902405 -0.002005626230793091 0.0015245569023668813 0.0011220349106998873 0 0 0 0
39736362 -0.29544517066499715 -0.001975026755774642 0.0015205371227348596 0.001111636759298465 0 0 0 0
39769308 -0.29566495845457075 -0.0020395523501085936 0.0015066961746536926 0.0011221563100202632 0 0 0 0
39802254 -0.2957781710445174 -0.0019884042218272714 0.0015240892275838766 0.0011201397635475514 0 0 0 0
39835200 -0.2957121290302227 -0.0021889738964183695 0.0015270343572282527 0.0011289349527092182 0 0 0 0
39868146 -0.29566257919591643 -0.00206293953552401 0.0015454681323939735 0.001120403265490015 0 0 0 0
39901092 -0.29572763254702145 -0.00209500262172071 0.001518566624178249 0.0011170759247774672 0 0 0 0
39934038 -0.2958364717391116 -0.0020589871955526513 0.0015323535755550914 0.0010992315551610107 0 0 0 0
39966984 -0.2959120084872671 -0.0022690397361853198 0.001540728035826132 0.0011322370504280306 0 0 0 0
39999930 -0.295907540957832 -0.0021391366553410087 0.0015171429517640933 0.0011231960378211782 0 0 0 0
